*Heading
** small original axisymmetric PCMI path, CAX4T.
*Preprint, echo=NO, model=NO, history=NO, contact=NO
*Include, input=b13_small_cax4t_mesh.inc
*Material, name=FUEL
*Elastic
2e11, 0.316
*Expansion, zero=600
1e-5
*Density
10970
*Specific Heat
300
*Conductivity
8.257999999999999, 500.00
8.257694092236310, 500.02
8.257388208943285, 500.04
8.257082350117985, 500.06
8.256776515757480, 500.08
8.256470705858828, 500.10
8.256164920419099, 500.12
8.255859159435358, 500.14
8.255553422904670, 500.16
8.255247710824102, 500.18
8.254942023190724, 500.20
8.254636360001598, 500.22
8.254330721253798, 500.24
8.254025106944390, 500.26
8.253719517070440, 500.28
8.253413951629023, 500.30
8.253108410617205, 500.32
8.252802894032058, 500.34
8.252497401870652, 500.36
8.252191934130060, 500.38
8.251886490807355, 500.40
8.251581071899604, 500.42
8.251275677403884, 500.44
8.250970307317269, 500.46
8.250664961636827, 500.48
8.250359640359640, 500.50
8.250054343482779, 500.52
8.249749071003317, 500.54
8.249443822918332, 500.56
8.249138599224899, 500.58
8.248833399920095, 500.60
8.248528225000998, 500.62
8.248223074464685, 500.64
8.247917948308233, 500.66
8.247612846528721, 500.68
8.247307769123228, 500.70
8.247002716088831, 500.72
8.246697687422614, 500.74
8.246392683121655, 500.76
8.246087703183035, 500.78
8.245782747603833, 500.80
8.245477816381134, 500.82
8.245172909512020, 500.84
8.244868026993570, 500.86
8.244563168822872, 500.88
8.244258334997006, 500.90
8.243953525513056, 500.92
8.243648740368108, 500.94
8.243343979559246, 500.96
8.243039243083556, 500.98
8.242734530938124, 501.00
8.242429843120036, 501.02
8.242125179626377, 501.04
8.241820540454237, 501.06
8.241515925600703, 501.08
8.241211335062861, 501.10
8.240906768837803, 501.12
8.240602226922617, 501.14
8.240297709314390, 501.16
8.239993216010216, 501.18
8.239688747007182, 501.20
8.239384302302382, 501.22
8.239079881892906, 501.24
8.238775485775845, 501.26
8.238471113948293, 501.28
8.238166766407341, 501.30
8.237862443150084, 501.32
8.237558144173615, 501.34
8.237253869475028, 501.36
8.236949619051417, 501.38
8.236645392899881, 501.40
8.236341191017511, 501.42
8.236037013401404, 501.44
8.235732860048659, 501.46
8.235428730956368, 501.48
8.235124626121635, 501.50
8.234820545541554, 501.52
8.234516489213222, 501.54
8.234212457133742, 501.56
8.233908449300211, 501.58
8.233604465709728, 501.60
8.233300506359395, 501.62
8.232996571246312, 501.64
8.232692660367579, 501.66
8.232388773720299, 501.68
8.232084911301575, 501.70
8.231781073108506, 501.72
8.231477259138199, 501.74
8.231173469387755, 501.76
8.230869703854278, 501.78
8.230565962534873, 501.80
8.230262245426648, 501.82
8.229958552526702, 501.84
8.229654883832143, 501.86
8.229351239340081, 501.88
8.229047619047620, 501.90
8.228744022951865, 501.92
8.228440451049925, 501.94
8.228136903338912, 501.96
8.227833379815928, 501.98
8.227529880478087, 502.00
8.227226405322497, 502.02
8.226922954346266, 502.04
8.226619527546509, 502.06
8.226316124920331, 502.08
8.226012746464848, 502.10
8.225709392177169, 502.12
8.225406062054407, 502.14
8.225102756093674, 502.16
8.224799474292086, 502.18
8.224496216646754, 502.20
8.224192983154792, 502.22
8.223889773813315, 502.24
8.223586588619440, 502.26
8.223283427570280, 502.28
8.222980290662949, 502.30
8.222677177894569, 502.32
8.222374089262253, 502.34
8.222071024763117, 502.36
8.221767984394283, 502.38
8.221464968152867, 502.40
8.221161976035985, 502.42
8.220859008040762, 502.44
8.220556064164311, 502.46
8.220253144403756, 502.48
8.219950248756218, 502.50
8.219647377218818, 502.52
8.219344529788673, 502.54
8.219041706462910, 502.56
8.218738907238649, 502.58
8.218436132113013, 502.60
8.218133381083124, 502.62
8.217830654146109, 502.64
8.217527951299088, 502.66
8.217225272539190, 502.68
8.216922617863537, 502.70
8.216619987269254, 502.72
8.216317380753472, 502.74
8.216014798313310, 502.76
8.215712239945901, 502.78
8.215409705648369, 502.80
8.215107195417843, 502.82
8.214804709251451, 502.84
8.214502247146322, 502.86
8.214199809099586, 502.88
8.213897395108372, 502.90
8.213595005169807, 502.92
8.213292639281027, 502.94
8.212990297439161, 502.96
8.212687979641338, 502.98
8.212385685884692, 503.00
8.212083416166355, 503.02
8.211781170483460, 503.04
8.211478948833141, 503.06
8.211176751212530, 503.08
8.210874577618764, 503.10
8.210572428048975, 503.12
8.210270302500298, 503.14
8.209968200969870, 503.16
8.209666123454827, 503.18
8.209364069952306, 503.20
8.209062040459441, 503.22
8.208760034973372, 503.24
8.208458053491237, 503.26
8.208156096010173, 503.28
8.207854162527319, 503.30
8.207552253039816, 503.32
8.207250367544802, 503.34
8.206948506039415, 503.36
8.206646668520799, 503.38
8.206344854986094, 503.40
8.206043065432441, 503.42
8.205741299856983, 503.44
8.205439558256863, 503.46
8.205137840629220, 503.48
8.204836146971202, 503.50
8.204534477279950, 503.52
8.204232831552607, 503.54
8.203931209786321, 503.56
8.203629611978236, 503.58
8.203328038125496, 503.60
8.203026488225248, 503.62
8.202724962274640, 503.64
8.202423460270817, 503.66
8.202121982210928, 503.68
8.201820528092119, 503.70
8.201519097911538, 503.72
8.201217691666336, 503.74
8.200916309353660, 503.76
8.200614950970662, 503.78
8.200313616514489, 503.80
8.200012305982295, 503.82
8.199711019371229, 503.84
8.199409756678442, 503.86
8.199108517901088, 503.88
8.198807303036316, 503.90
8.198506112081283, 503.92
8.198204945033138, 503.94
8.197903801889039, 503.96
8.197602682646137, 503.98
8.197301587301586, 504.00
8.197000515852546, 504.02
8.196699468296167, 504.04
8.196398444629608, 504.06
8.196097444850023, 504.08
8.195796468954573, 504.10
8.195495516940412, 504.12
8.195194588804696, 504.14
8.194893684544589, 504.16
8.194592804157246, 504.18
8.194291947639826, 504.20
8.193991114989489, 504.22
8.193690306203395, 504.24
8.193389521278705, 504.26
8.193088760212580, 504.28
8.192788023002182, 504.30
8.192487309644671, 504.32
8.192186620137209, 504.34
8.191885954476961, 504.36
8.191585312661088, 504.38
8.191284694686757, 504.40
8.190984100551127, 504.42
8.190683530251368, 504.44
8.190382983784641, 504.46
8.190082461148112, 504.48
8.189781962338950, 504.50
8.189481487354318, 504.52
8.189181036191382, 504.54
8.188880608847313, 504.56
8.188580205319276, 504.58
8.188279825604440, 504.60
8.187979469699972, 504.62
8.187679137603045, 504.64
8.187378829310823, 504.66
8.187078544820480, 504.68
8.186778284129186, 504.70
8.186478047234109, 504.72
8.186177834132424, 504.74
8.185877644821302, 504.76
8.185577479297912, 504.78
8.185277337559429, 504.80
8.184977219603027, 504.82
8.184677125425878, 504.84
8.184377055025156, 504.86
8.184077008398035, 504.88
8.183776985541691, 504.90
8.183476986453298, 504.92
8.183177011130034, 504.94
8.182877059569075, 504.96
8.182577131767594, 504.98
8.182277227722771, 505.00
8.181977347431785, 505.02
8.181677490891810, 505.04
8.181377658100027, 505.06
8.181077849053615, 505.08
8.180778063749752, 505.10
8.180478302185620, 505.12
8.180178564358396, 505.14
8.179878850265261, 505.16
8.179579159903401, 505.18
8.179279493269991, 505.20
8.178979850362218, 505.22
8.178680231177262, 505.24
8.178380635712307, 505.26
8.178081063964536, 505.28
8.177781515931130, 505.30
8.177481991609277, 505.32
8.177182490996161, 505.34
8.176883014088967, 505.36
8.176583560884879, 505.38
8.176284131381085, 505.40
8.175984725574770, 505.42
8.175685343463121, 505.44
8.175385985043327, 505.46
8.175086650312574, 505.48
8.174787339268052, 505.50
8.174488051906948, 505.52
8.174188788226450, 505.54
8.173889548223752, 505.56
8.173590331896040, 505.58
8.173291139240506, 505.60
8.172991970254341, 505.62
8.172692824934737, 505.64
8.172393703278882, 505.66
8.172094605283974, 505.68
8.171795530947202, 505.70
8.171496480265759, 505.72
8.171197453236841, 505.74
8.170898449857640, 505.76
8.170599470125351, 505.78
8.170300514037169, 505.80
8.170001581590290, 505.82
8.169702672781908, 505.84
8.169403787609220, 505.86
8.169104926069423, 505.88
8.168806088159716, 505.90
8.168507273877292, 505.92
8.168208483219354, 505.94
8.167909716183098, 505.96
8.167610972765722, 505.98
8.167312252964427, 506.00
8.167013556776412, 506.02
8.166714884198877, 506.04
8.166416235229024, 506.06
8.166117609864052, 506.08
8.165819008101165, 506.10
8.165520429937564, 506.12
8.165221875370451, 506.14
8.164923344397028, 506.16
8.164624837014500, 506.18
8.164326353220071, 506.20
8.164027893010942, 506.22
8.163729456384324, 506.24
8.163431043337416, 506.26
8.163132653867425, 506.28
8.162834287971558, 506.30
8.162535945647022, 506.32
8.162237626891022, 506.34
8.161939331700767, 506.36
8.161641060073462, 506.38
8.161342812006319, 506.40
8.161044587496544, 506.42
8.160746386541348, 506.44
8.160448209137938, 506.46
8.160150055283525, 506.48
8.159851924975321, 506.50
8.159553818210535, 506.52
8.159255734986377, 506.54
8.158957675300064, 506.56
8.158659639148802, 506.58
8.158361626529807, 506.60
8.158063637440291, 506.62
8.157765671877467, 506.64
8.157467729838549, 506.66
8.157169811320754, 506.68
8.156871916321295, 506.70
8.156574044837384, 506.72
8.156276196866243, 506.74
8.155978372405084, 506.76
8.155680571451123, 506.78
8.155382794001579, 506.80
8.155085040053669, 506.82
8.154787309604609, 506.84
8.154489602651619, 506.86
8.154191919191920, 506.88
8.153894259222726, 506.90
8.153596622741260, 506.92
8.153299009744742, 506.94
8.153001420230392, 506.96
8.152703854195432, 506.98
8.152406311637082, 507.00
8.152108792552562, 507.02
8.151811296939098, 507.04
8.151513824793909, 507.06
8.151216376114222, 507.08
8.150918950897259, 507.10
8.150621549140244, 507.12
8.150324170840399, 507.14
8.150026815994952, 507.16
8.149729484601128, 507.18
8.149432176656152, 507.20
8.149134892157250, 507.22
8.148837631101648, 507.24
8.148540393486575, 507.26
8.148243179309258, 507.28
8.147945988566923, 507.30
8.147648821256800, 507.32
8.147351677376118, 507.34
8.147054556922106, 507.36
8.146757459891994, 507.38
8.146460386283012, 507.40
8.146163336092389, 507.42
8.145866309317357, 507.44
8.145569305955149, 507.46
8.145272326002996, 507.48
8.144975369458129, 507.50
8.144678436317781, 507.52
8.144381526579185, 507.54
8.144084640239578, 507.56
8.143787777296190, 507.58
8.143490937746256, 507.60
8.143194121587014, 507.62
8.142897328815696, 507.64
8.142600559429539, 507.66
8.142303813425780, 507.68
8.142007090801654, 507.70
8.141710391554399, 507.72
8.141413715681255, 507.74
8.141117063179454, 507.76
8.140820434046240, 507.78
8.140523828278850, 507.80
8.140227245874522, 507.82
8.139930686830498, 507.84
8.139634151144016, 507.86
8.139337638812318, 507.88
8.139041149832645, 507.90
8.138744684202237, 507.92
8.138448241918336, 507.94
8.138151822978188, 507.96
8.137855427379030, 507.98
8.137559055118111, 508.00
8.137262706192670, 508.02
8.136966380599953, 508.04
8.136670078337204, 508.06
8.136373799401669, 508.08
8.136077543790591, 508.10
8.135781311501219, 508.12
8.135485102530799, 508.14
8.135188916876574, 508.16
8.134892754535795, 508.18
8.134596615505707, 508.20
8.134300499783558, 508.22
8.134004407366598, 508.24
8.133708338252076, 508.26
8.133412292437239, 508.28
8.133116269919340, 508.30
8.132820270695625, 508.32
8.132524294763348, 508.34
8.132228342119758, 508.36
8.131932412762106, 508.38
8.131636506687649, 508.40
8.131340623893632, 508.42
8.131044764377311, 508.44
8.130748928135940, 508.46
8.130453115166771, 508.48
8.130157325467060, 508.50
8.129861559034060, 508.52
8.129565815865025, 508.54
8.129270095957212, 508.56
8.128974399307877, 508.58
8.128678725914273, 508.60
8.128383075773662, 508.62
8.128087448883297, 508.64
8.127791845240434, 508.66
8.127496264842337, 508.68
8.127200707686260, 508.70
8.126905173769460, 508.72
8.126609663089200, 508.74
8.126314175642738, 508.76
8.126018711427337, 508.78
8.125723270440250, 508.80
8.125427852678747, 508.82
8.125132458140083, 508.84
8.124837086821522, 508.86
8.124541738720326, 508.88
8.124246413833760, 508.90
8.123951112159082, 508.92
8.123655833693560, 508.94
8.123360578434454, 508.96
8.123065346379033, 508.98
8.122770137524558, 509.00
8.122474951868297, 509.02
8.122179789407511, 509.04
8.121884650139473, 509.06
8.121589534061444, 509.08
8.121294441170694, 509.10
8.120999371464487, 509.12
8.120704324940094, 509.14
8.120409301594783, 509.16
8.120114301425822, 509.18
8.119819324430479, 509.20
8.119524370606024, 509.22
8.119229439949729, 509.24
8.118934532458862, 509.26
8.118639648130694, 509.28
8.118344786962497, 509.30
8.118049948951544, 509.32
8.117755134095104, 509.34
8.117460342390450, 509.36
8.117165573834859, 509.38
8.116870828425599, 509.40
8.116576106159947, 509.42
8.116281407035176, 509.44
8.115986731048562, 509.46
8.115692078197377, 509.48
8.115397448478900, 509.50
8.115102841890407, 509.52
8.114808258429171, 509.54
8.114513698092471, 509.56
8.114219160877585, 509.58
8.113924646781790, 509.60
8.113630155802362, 509.62
8.113335687936583, 509.64
8.113041243181728, 509.66
8.112746821535081, 509.68
8.112452422993918, 509.70
8.112158047555520, 509.72
8.111863695217169, 509.74
8.111569365976147, 509.76
8.111275059829731, 509.78
8.110980776775206, 509.80
8.110686516809855, 509.82
8.110392279930959, 509.84
8.110098066135802, 509.86
8.109803875421667, 509.88
8.109509707785840, 509.90
8.109215563225604, 509.92
8.108921441738243, 509.94
8.108627343321045, 509.96
8.108333267971293, 509.98
8.108039215686274, 510.00
8.107745186463276, 510.02
8.107451180299584, 510.04
8.107157197192487, 510.06
8.106863237139272, 510.08
8.106569300137227, 510.10
8.106275386183643, 510.12
8.105981495275806, 510.14
8.105687627411008, 510.16
8.105393782586537, 510.18
8.105099960799686, 510.20
8.104806162047744, 510.22
8.104512386328002, 510.24
8.104218633637753, 510.26
8.103924903974288, 510.28
8.103631197334900, 510.30
8.103337513716884, 510.32
8.103043853117530, 510.34
8.102750215534133, 510.36
8.102456600963988, 510.38
8.102163009404389, 510.40
8.101869440852631, 510.42
8.101575895306011, 510.44
8.101282372761823, 510.46
8.100988873217364, 510.48
8.100695396669931, 510.50
8.100401943116822, 510.52
8.100108512555334, 510.54
8.099815104982763, 510.56
8.099521720396412, 510.58
8.099228358793576, 510.60
8.098935020171556, 510.62
8.098641704527651, 510.64
8.098348411859162, 510.66
8.098055142163389, 510.68
8.097761895437635, 510.70
8.097468671679197, 510.72
8.097175470885382, 510.74
8.096882293053488, 510.76
8.096589138180821, 510.78
8.096296006264682, 510.80
8.096002897302377, 510.82
8.095709811291206, 510.84
8.095416748228477, 510.86
8.095123708111494, 510.88
8.094830690937561, 510.90
8.094537696703984, 510.92
8.094244725408071, 510.94
8.093951777047128, 510.96
8.093658851618459, 510.98
8.093365949119374, 511.00
8.093073069547181, 511.02
8.092780212899186, 511.04
8.092487379172701, 511.06
8.092194568365031, 511.08
8.091901780473489, 511.10
8.091609015495383, 511.12
8.091316273428024, 511.14
8.091023554268721, 511.16
8.090730858014789, 511.18
8.090438184663537, 511.20
8.090145534212276, 511.22
8.089852906658320, 511.24
8.089560301998983, 511.26
8.089267720231575, 511.28
8.088975161353412, 511.30
8.088682625361809, 511.32
8.088390112254078, 511.34
8.088097622027535, 511.36
8.087805154679495, 511.38
8.087512710207275, 511.40
8.087220288608188, 511.42
8.086927889879556, 511.44
8.086635514018692, 511.46
8.086343161022914, 511.48
8.086050830889540, 511.50
8.085758523615890, 511.52
8.085466239199279, 511.54
8.085173977637032, 511.56
8.084881738926462, 511.58
8.084589523064894, 511.60
8.084297330049646, 511.62
8.084005159878039, 511.64
8.083713012547394, 511.66
8.083420888055034, 511.68
8.083128786398280, 511.70
8.082836707574454, 511.72
8.082544651580880, 511.74
8.082252618414882, 511.76
8.081960608073782, 511.78
8.081668620554904, 511.80
8.081376655855575, 511.82
8.081084713973118, 511.84
8.080792794904857, 511.86
8.080500898648120, 511.88
8.080209025200235, 511.90
8.079917174558524, 511.92
8.079625346720318, 511.94
8.079333541682944, 511.96
8.079041759443728, 511.98
8.078749999999999, 512.00
8.078458263349088, 512.02
8.078166549488321, 512.04
8.077874858415029, 512.06
8.077583190126543, 512.08
8.077291544620191, 512.10
8.076999921893306, 512.12
8.076708321943219, 512.14
8.076416744767261, 512.16
8.076125190362763, 512.18
8.075833658727060, 512.20
8.075542149857483, 512.22
8.075250663751365, 512.24
8.074959200406044, 512.26
8.074667759818849, 512.28
8.074376341987117, 512.30
8.074084946908181, 512.32
8.073793574579380, 512.34
8.073502224998048, 512.36
8.073210898161520, 512.38
8.072919594067136, 512.40
8.072628312712229, 512.42
8.072337054094136, 512.44
8.072045818210201, 512.46
8.071754605057757, 512.48
8.071463414634147, 512.50
8.071172246936705, 512.52
8.070881101962774, 512.54
8.070589979709693, 512.56
8.070298880174802, 512.58
8.070007803355443, 512.60
8.069716749248956, 512.62
8.069425717852685, 512.64
8.069134709163968, 512.66
8.068843723180152, 512.68
8.068552759898575, 512.70
8.068261819316586, 512.72
8.067970901431524, 512.74
8.067680006240737, 512.76
8.067389133741566, 512.78
8.067098283931358, 512.80
8.066807456807457, 512.82
8.066516652367209, 512.84
8.066225870607964, 512.86
8.065935111527063, 512.88
8.065644375121856, 512.90
8.065353661389691, 512.92
8.065062970327913, 512.94
8.064772301933873, 512.96
8.064481656204920, 512.98
8.064191033138401, 513.00
8.063900432731668, 513.02
8.063609854982069, 513.04
8.063319299886954, 513.06
8.063028767443672, 513.08
8.062738257649581, 513.10
8.062447770502027, 513.12
8.062157305998364, 513.14
8.061866864135942, 513.16
8.061576444912117, 513.18
8.061286048324240, 513.20
8.060995674369666, 513.22
8.060705323045749, 513.24
8.060414994349841, 513.26
8.060124688279302, 513.28
8.059834404831483, 513.30
8.059544144003739, 513.32
8.059253905793431, 513.34
8.058963690197912, 513.36
8.058673497214539, 513.38
8.058383326840671, 513.40
8.058093179073664, 513.42
8.057803053910876, 513.44
8.057512951349667, 513.46
8.057222871387395, 513.48
8.056932814021421, 513.50
8.056642779249104, 513.52
8.056352767067803, 513.54
8.056062777474882, 513.56
8.055772810467696, 513.58
8.055482866043613, 513.60
8.055192944199993, 513.62
8.054903044934195, 513.64
8.054613168243586, 513.66
8.054323314125526, 513.68
8.054033482577379, 513.70
8.053743673596511, 513.72
8.053453887180286, 513.74
8.053164123326066, 513.76
8.052874382031220, 513.78
8.052584663293111, 513.80
8.052294967109104, 513.82
8.052005293476569, 513.84
8.051715642392869, 513.86
8.051426013855375, 513.88
8.051136407861453, 513.90
8.050846824408469, 513.92
8.050557263493792, 513.94
8.050267725114795, 513.96
8.049978209268843, 513.98
8.049688715953307, 514.00
8.049399245165558, 514.02
8.049109796902965, 514.04
8.048820371162900, 514.06
8.048530967942732, 514.08
8.048241587239836, 514.10
8.047952229051583, 514.12
8.047662893375346, 514.14
8.047373580208495, 514.16
8.047084289548408, 514.18
8.046795021392454, 514.20
8.046505775738011, 514.22
8.046216552582452, 514.24
8.045927351923151, 514.26
8.045638173757487, 514.28
8.045349018082831, 514.30
8.045059884896562, 514.32
8.044770774196056, 514.34
8.044481685978692, 514.36
8.044192620241844, 514.38
8.043903576982894, 514.40
8.043614556199215, 514.42
8.043325557888188, 514.44
8.043036582047195, 514.46
8.042747628673611, 514.48
8.042458697764820, 514.50
8.042169789318200, 514.52
8.041880903331132, 514.54
8.041592039800996, 514.56
8.041303198725172, 514.58
8.041014380101048, 514.60
8.040725583926003, 514.62
8.040436810197420, 514.64
8.040148058912681, 514.66
8.039859330069170, 514.68
8.039570623664270, 514.70
8.039281939695368, 514.72
8.038993278159847, 514.74
8.038704639055094, 514.76
8.038416022378492, 514.78
8.038127428127428, 514.80
8.037838856299288, 514.82
8.037550306891461, 514.84
8.037261779901332, 514.86
8.036973275326289, 514.88
8.036684793163721, 514.90
8.036396333411016, 514.92
8.036107896065561, 514.94
8.035819481124747, 514.96
8.035531088585964, 514.98
8.035242718446602, 515.00
8.034954370704050, 515.02
8.034666045355701, 515.04
8.034377742398945, 515.06
8.034089461831170, 515.08
8.033801203649777, 515.10
8.033512967852150, 515.12
8.033224754435688, 515.14
8.032936563397779, 515.16
8.032648394735821, 515.18
8.032360248447205, 515.20
8.032072124529327, 515.22
8.031784022979583, 515.24
8.031495943795365, 515.26
8.031207886974073, 515.28
8.030919852513099, 515.30
8.030631840409841, 515.32
8.030343850661698, 515.34
8.030055883266066, 515.36
8.029767938220342, 515.38
8.029480015521925, 515.40
8.029192115168213, 515.42
8.028904237156603, 515.44
8.028616381484499, 515.46
8.028328548149297, 515.48
8.028040737148400, 515.50
8.027752948479206, 515.52
8.027465182139117, 515.54
8.027177438125534, 515.56
8.026889716435859, 515.58
8.026602017067495, 515.60
8.026314340017842, 515.62
8.026026685284307, 515.64
8.025739052864290, 515.66
8.025451442755198, 515.68
8.025163854954430, 515.70
8.024876289459396, 515.72
8.024588746267499, 515.74
8.024301225376144, 515.76
8.024013726782737, 515.78
8.023726250484685, 515.80
8.023438796479391, 515.82
8.023151364764267, 515.84
8.022863955336719, 515.86
8.022576568194154, 515.88
8.022289203333980, 515.90
8.022001860753607, 515.92
8.021714540450439, 515.94
8.021427242421893, 515.96
8.021139966665375, 515.98
8.020852713178295, 516.00
8.020565481958064, 516.02
8.020278273002093, 516.04
8.019991086307794, 516.06
8.019703921872576, 516.08
8.019416779693858, 516.10
8.019129659769046, 516.12
8.018842562095555, 516.14
8.018555486670801, 516.16
8.018268433492194, 516.18
8.017981402557147, 516.20
8.017694393863081, 516.22
8.017407407407408, 516.24
8.017120443187542, 516.26
8.016833501200900, 516.28
8.016546581444898, 516.30
8.016259683916950, 516.32
8.015972808614478, 516.34
8.015685955534897, 516.36
8.015399124675627, 516.38
8.015112316034083, 516.40
8.014825529607684, 516.42
8.014538765393850, 516.44
8.014252023390000, 516.46
8.013965303593556, 516.48
8.013678606001935, 516.50
8.013391930612562, 516.52
8.013105277422852, 516.54
8.012818646430231, 516.56
8.012532037632118, 516.58
8.012245451025938, 516.60
8.011958886609113, 516.62
8.011672344379065, 516.64
8.011385824333217, 516.66
8.011099326468996, 516.68
8.010812850783820, 516.70
8.010526397275120, 516.72
8.010239965940318, 516.74
8.009953556776841, 516.76
8.009667169782112, 516.78
8.009380804953562, 516.80
8.009094462288610, 516.82
8.008808141784691, 516.84
8.008521843439230, 516.86
8.008235567249653, 516.88
8.007949313213388, 516.90
8.007663081327866, 516.92
8.007376871590512, 516.94
8.007090683998761, 516.96
8.006804518550041, 516.98
8.006518375241779, 517.00
8.006232254071410, 517.02
8.005946155036360, 517.04
8.005660078134067, 517.06
8.005374023361956, 517.08
8.005087990717461, 517.10
8.004801980198019, 517.12
8.004515991801060, 517.14
8.004230025524016, 517.16
8.003944081364322, 517.18
8.003658159319411, 517.20
8.003372259386721, 517.22
8.003086381563683, 517.24
8.002800525847736, 517.26
8.002514692236314, 517.28
8.002228880726852, 517.30
8.001943091316786, 517.32
8.001657324003556, 517.34
8.001371578784598, 517.36
8.001085855657351, 517.38
8.000800154619251, 517.40
8.000514475667737, 517.42
8.000228818800247, 517.44
7.999943184014223, 517.46
7.999657571307104, 517.48
7.999371980676329, 517.50
7.999086412119339, 517.52
7.998800865633575, 517.54
7.998515341216478, 517.56
7.998229838865489, 517.58
7.997944358578053, 517.60
7.997658900351610, 517.62
7.997373464183603, 517.64
7.997088050071476, 517.66
7.996802658012673, 517.68
7.996517288004635, 517.70
7.996231940044812, 517.72
7.995946614130645, 517.74
7.995661310259580, 517.76
7.995376028429063, 517.78
7.995090768636540, 517.80
7.994805530879455, 517.82
7.994520315155260, 517.84
7.994235121461399, 517.86
7.993949949795319, 517.88
7.993664800154471, 517.90
7.993379672536300, 517.92
7.993094566938255, 517.94
7.992809483357788, 517.96
7.992524421792347, 517.98
7.992239382239383, 518.00
7.991954364696344, 518.02
7.991669369160683, 518.04
7.991384395629851, 518.06
7.991099444101297, 518.08
7.990814514572476, 518.10
7.990529607040840, 518.12
7.990244721503841, 518.14
7.989959857958932, 518.16
7.989675016403567, 518.18
7.989390196835198, 518.20
7.989105399251283, 518.22
7.988820623649275, 518.24
7.988535870026628, 518.26
7.988251138380798, 518.28
7.987966428709242, 518.30
7.987681741009415, 518.32
7.987397075278775, 518.34
7.987112431514777, 518.36
7.986827809714882, 518.38
7.986543209876544, 518.40
7.986258631997223, 518.42
7.985974076074377, 518.44
7.985689542105466, 518.46
7.985405030087949, 518.48
7.985120540019286, 518.50
7.984836071896938, 518.52
7.984551625718364, 518.54
7.984267201481026, 518.56
7.983982799182383, 518.58
7.983698418819900, 518.60
7.983414060391038, 518.62
7.983129723893260, 518.64
7.982845409324028, 518.66
7.982561116680806, 518.68
7.982276845961056, 518.70
7.981992597162246, 518.72
7.981708370281837, 518.74
7.981424165317295, 518.76
7.981139982266087, 518.78
7.980855821125676, 518.80
7.980571681893527, 518.82
7.980287564567111, 518.84
7.980003469143893, 518.86
7.979719395621339, 518.88
7.979435343996917, 518.90
7.979151314268096, 518.92
7.978867306432343, 518.94
7.978583320487128, 518.96
7.978299356429920, 518.98
7.978015414258189, 519.00
7.977731493969404, 519.02
7.977447595561037, 519.04
7.977163719030556, 519.06
7.976879864375433, 519.08
7.976596031593142, 519.10
7.976312220681153, 519.12
7.976028431636938, 519.14
7.975744664457971, 519.16
7.975460919141725, 519.18
7.975177195685670, 519.20
7.974893494087285, 519.22
7.974609814344041, 519.24
7.974326156453415, 519.26
7.974042520412880, 519.28
7.973758906219913, 519.30
7.973475313871986, 519.32
7.973191743366581, 519.34
7.972908194701171, 519.36
7.972624667873234, 519.38
7.972341162880247, 519.40
7.972057679719688, 519.42
7.971774218389034, 519.44
7.971490778885766, 519.46
7.971207361207362, 519.48
7.970923965351299, 519.50
7.970640591315060, 519.52
7.970357239096124, 519.54
7.970073908691972, 519.56
7.969790600100080, 519.58
7.969507313317937, 519.60
7.969224048343020, 519.62
7.968940805172813, 519.64
7.968657583804796, 519.66
7.968374384236454, 519.68
7.968091206465268, 519.70
7.967808050488725, 519.72
7.967524916304306, 519.74
7.967241803909497, 519.76
7.966958713301782, 519.78
7.966675644478647, 519.80
7.966392597437574, 519.82
7.966109572176054, 519.84
7.965826568691571, 519.86
7.965543586981611, 519.88
7.965260627043663, 519.90
7.964977688875212, 519.92
7.964694772473747, 519.94
7.964411877836756, 519.96
7.964129004961729, 519.98
7.963846153846154, 520.00
7.963563324487520, 520.02
7.963280516883318, 520.04
7.962997731031036, 520.06
7.962714966928164, 520.08
7.962432224572198, 520.10
7.962149503960624, 520.12
7.961866805090938, 520.14
7.961584127960628, 520.16
7.961301472567190, 520.18
7.961018838908112, 520.20
7.960736226980893, 520.22
7.960453636783023, 520.24
7.960171068311999, 520.26
7.959888521565312, 520.28
7.959605996540458, 520.30
7.959323493234932, 520.32
7.959041011646232, 520.34
7.958758551771850, 520.36
7.958476113609286, 520.38
7.958193697156035, 520.40
7.957911302409594, 520.42
7.957628929367458, 520.44
7.957346578027130, 520.46
7.957064248386105, 520.48
7.956781940441883, 520.50
7.956499654191963, 520.52
7.956217389633842, 520.54
7.955935146765023, 520.56
7.955652925583004, 520.58
7.955370726085286, 520.60
7.955088548269371, 520.62
7.954806392132761, 520.64
7.954524257672954, 520.66
7.954242144887456, 520.68
7.953960053773765, 520.70
7.953677984329390, 520.72
7.953395936551830, 520.74
7.953113910438590, 520.76
7.952831905987174, 520.78
7.952549923195085, 520.80
7.952267962059828, 520.82
7.951986022578911, 520.84
7.951704104749837, 520.86
7.951422208570112, 520.88
7.951140334037244, 520.90
7.950858481148738, 520.92
7.950576649902100, 520.94
7.950294840294840, 520.96
7.950013052324466, 520.98
7.949731285988484, 521.00
7.949449541284404, 521.02
7.949167818209736, 521.04
7.948886116761987, 521.06
7.948604436938665, 521.08
7.948322778737286, 521.10
7.948041142155358, 521.12
7.947759527190390, 521.14
7.947477933839896, 521.16
7.947196362101386, 521.18
7.946914811972371, 521.20
7.946633283450367, 521.22
7.946351776532883, 521.24
7.946070291217435, 521.26
7.945788827501535, 521.28
7.945507385382698, 521.30
7.945225964858436, 521.32
7.944944565926267, 521.34
7.944663188583704, 521.36
7.944381832828264, 521.38
7.944100498657462, 521.40
7.943819186068813, 521.42
7.943537895059833, 521.44
7.943256625628044, 521.46
7.942975377770960, 521.48
7.942694151486098, 521.50
7.942412946770978, 521.52
7.942131763623117, 521.54
7.941850602040035, 521.56
7.941569462019249, 521.58
7.941288343558282, 521.60
7.941007246654653, 521.62
7.940726171305882, 521.64
7.940445117509490, 521.66
7.940164085262998, 521.68
7.939883074563926, 521.70
7.939602085409798, 521.72
7.939321117798137, 521.74
7.939040171726464, 521.76
7.938759247192304, 521.78
7.938478344193179, 521.80
7.938197462726611, 521.82
7.937916602790127, 521.84
7.937635764381252, 521.86
7.937354947497510, 521.88
7.937074152136425, 521.90
7.936793378295525, 521.92
7.936512625972334, 521.94
7.936231895164380, 521.96
7.935951185869190, 521.98
7.935670498084291, 522.00
7.935389831807211, 522.02
7.935109187035477, 522.04
7.934828563766618, 522.06
7.934547961998161, 522.08
7.934267381727638, 522.10
7.933986822952578, 522.12
7.933706285670510, 522.14
7.933425769878965, 522.16
7.933145275575473, 522.18
7.932864802757564, 522.20
7.932584351422772, 522.22
7.932303921568628, 522.24
7.932023513192664, 522.26
7.931743126292411, 522.28
7.931462760865404, 522.30
7.931182416909174, 522.32
7.930902094421258, 522.34
7.930621793399188, 522.36
7.930341513840499, 522.38
7.930061255742727, 522.40
7.929781019103404, 522.42
7.929500803920067, 522.44
7.929220610190254, 522.46
7.928940437911499, 522.48
7.928660287081340, 522.50
7.928380157697314, 522.52
7.928100049756957, 522.54
7.927819963257809, 522.56
7.927539898197405, 522.58
7.927259854573287, 522.60
7.926979832382994, 522.62
7.926699831624063, 522.64
7.926419852294035, 522.66
7.926139894390451, 522.68
7.925859957910848, 522.70
7.925580042852770, 522.72
7.925300149213759, 522.74
7.925020276991354, 522.76
7.924740426183098, 522.78
7.924460596786535, 522.80
7.924180788799204, 522.82
7.923901002218652, 522.84
7.923621237042421, 522.86
7.923341493268055, 522.88
7.923061770893097, 522.90
7.922782069915093, 522.92
7.922502390331586, 522.94
7.922222732140125, 522.96
7.921943095338254, 522.98
7.921663479923518, 523.00
7.921383885893466, 523.02
7.921104313245642, 523.04
7.920824761977594, 523.06
7.920545232086869, 523.08
7.920265723571019, 523.10
7.919986236427588, 523.12
7.919706770654128, 523.14
7.919427326248185, 523.16
7.919147903207310, 523.18
7.918868501529052, 523.20
7.918589121210963, 523.22
7.918309762250592, 523.24
7.918030424645492, 523.26
7.917751108393213, 523.28
7.917471813491306, 523.30
7.917192539937323, 523.32
7.916913287728819, 523.34
7.916634056863344, 523.36
7.916354847338455, 523.38
7.916075659151701, 523.40
7.915796492300639, 523.42
7.915517346782821, 523.44
7.915238222595804, 523.46
7.914959119737143, 523.48
7.914680038204394, 523.50
7.914400977995110, 523.52
7.914121939106851, 523.54
7.913842921537170, 523.56
7.913563925283624, 523.58
7.913284950343773, 523.60
7.913005996715175, 523.62
7.912727064395387, 523.64
7.912448153381966, 523.66
7.912169263672473, 523.68
7.911890395264464, 523.70
7.911611548155503, 523.72
7.911332722343148, 523.74
7.911053917824958, 523.76
7.910775134598496, 523.78
7.910496372661322, 523.80
7.910217632010996, 523.82
7.909938912645083, 523.84
7.909660214561143, 523.86
7.909381537756738, 523.88
7.909102882229433, 523.90
7.908824247976791, 523.92
7.908545634996373, 523.94
7.908267043285747, 523.96
7.907988472842475, 523.98
7.907709923664123, 524.00
7.907431395748254, 524.02
7.907152889092436, 524.04
7.906874403694235, 524.06
7.906595939551213, 524.08
7.906317496660942, 524.10
7.906039075020987, 524.12
7.905760674628916, 524.14
7.905482295482297, 524.16
7.905203937578696, 524.18
7.904925600915680, 524.20
7.904647285490825, 524.22
7.904368991301694, 524.24
7.904090718345859, 524.26
7.903812466620891, 524.28
7.903534236124357, 524.30
7.903256026853829, 524.32
7.902977838806881, 524.34
7.902699671981082, 524.36
7.902421526374004, 524.38
7.902143401983220, 524.40
7.901865298806301, 524.42
7.901587216840820, 524.44
7.901309156084353, 524.46
7.901031116534472, 524.48
7.900753098188751, 524.50
7.900475101044766, 524.52
7.900197125100089, 524.54
7.899919170352296, 524.56
7.899641236798963, 524.58
7.899363324437667, 524.60
7.899085433265983, 524.62
7.898807563281489, 524.64
7.898529714481761, 524.66
7.898251886864376, 524.68
7.897974080426910, 524.70
7.897696295166946, 524.72
7.897418531082060, 524.74
7.897140788169830, 524.76
7.896863066427837, 524.78
7.896585365853659, 524.80
7.896307686444876, 524.82
7.896030028199070, 524.84
7.895752391113821, 524.86
7.895474775186710, 524.88
7.895197180415318, 524.90
7.894919606797227, 524.92
7.894642054330018, 524.94
7.894364523011276, 524.96
7.894087012838584, 524.98
7.893809523809524, 525.00
7.893532055921680, 525.02
7.893254609172636, 525.04
7.892977183559975, 525.06
7.892699779081283, 525.08
7.892422395734146, 525.10
7.892145033516149, 525.12
7.891867692424878, 525.14
7.891590372457919, 525.16
7.891313073612857, 525.18
7.891035795887281, 525.20
7.890758539278778, 525.22
7.890481303784936, 525.24
7.890204089403343, 525.26
7.889926896131588, 525.28
7.889649723967258, 525.30
7.889372572907941, 525.32
7.889095442951231, 525.34
7.888818334094716, 525.36
7.888541246335985, 525.38
7.888264179672631, 525.40
7.887987134102243, 525.42
7.887710109622411, 525.44
7.887433106230731, 525.46
7.887156123924792, 525.48
7.886879162702189, 525.50
7.886602222560512, 525.52
7.886325303497355, 525.54
7.886048405510314, 525.56
7.885771528596979, 525.58
7.885494672754946, 525.60
7.885217837981812, 525.62
7.884941024275170, 525.64
7.884664231632615, 525.66
7.884387460051744, 525.68
7.884110709530150, 525.70
7.883833980065434, 525.72
7.883557271655191, 525.74
7.883280584297018, 525.76
7.883003917988513, 525.78
7.882727272727274, 525.80
7.882450648510897, 525.82
7.882174045336985, 525.84
7.881897463203134, 525.86
7.881620902106945, 525.88
7.881344362046017, 525.90
7.881067843017950, 525.92
7.880791345020344, 525.94
7.880514868050803, 525.96
7.880238412106924, 525.98
7.879961977186312, 526.00
7.879685563286568, 526.02
7.879409170405293, 526.04
7.879132798540091, 526.06
7.878856447688564, 526.08
7.878580117848318, 526.10
7.878303809016955, 526.12
7.878027521192078, 526.14
7.877751254371295, 526.16
7.877475008552207, 526.18
7.877198783732421, 526.20
7.876922579909544, 526.22
7.876646397081180, 526.24
7.876370235244936, 526.26
7.876094094398420, 526.28
7.875817974539237, 526.30
7.875541875664994, 526.32
7.875265797773302, 526.34
7.874989740861768, 526.36
7.874713704927999, 526.38
7.874437689969605, 526.40
7.874161695984196, 526.42
7.873885722969379, 526.44
7.873609770922767, 526.46
7.873333839841969, 526.48
7.873057929724597, 526.50
7.872782040568260, 526.52
7.872506172370571, 526.54
7.872230325129141, 526.56
7.871954498841581, 526.58
7.871678693505507, 526.60
7.871402909118530, 526.62
7.871127145678263, 526.64
7.870851403182320, 526.66
7.870575681628314, 526.68
7.870299981013860, 526.70
7.870024301336573, 526.72
7.869748642594069, 526.74
7.869473004783963, 526.76
7.869197387903870, 526.78
7.868921791951406, 526.80
7.868646216924186, 526.82
7.868370662819832, 526.84
7.868095129635956, 526.86
7.867819617370180, 526.88
7.867544126020118, 526.90
7.867268655583391, 526.92
7.866993206057615, 526.94
7.866717777440413, 526.96
7.866442369729402, 526.98
7.866166982922201, 527.00
7.865891617016433, 527.02
7.865616272009715, 527.04
7.865340947899671, 527.06
7.865065644683919, 527.08
7.864790362360083, 527.10
7.864515100925786, 527.12
7.864239860378648, 527.14
7.863964640716292, 527.16
7.863689441936342, 527.18
7.863414264036418, 527.20
7.863139107014150, 527.22
7.862863970867157, 527.24
7.862588855593066, 527.26
7.862313761189501, 527.28
7.862038687654088, 527.30
7.861763634984450, 527.32
7.861488603178215, 527.34
7.861213592233010, 527.36
7.860938602146461, 527.38
7.860663632916193, 527.40
7.860388684539837, 527.42
7.860113757015015, 527.44
7.859838850339362, 527.46
7.859563964510503, 527.48
7.859289099526067, 527.50
7.859014255383682, 527.52
7.858739432080981, 527.54
7.858464629615590, 527.56
7.858189847985139, 527.58
7.857915087187263, 527.60
7.857640347219590, 527.62
7.857365628079751, 527.64
7.857090929765380, 527.66
7.856816252274107, 527.68
7.856541595603562, 527.70
7.856266959751383, 527.72
7.855992344715201, 527.74
7.855717750492649, 527.76
7.855443177081360, 527.78
7.855168624478971, 527.80
7.854894092683112, 527.82
7.854619581691422, 527.84
7.854345091501535, 527.86
7.854070622111086, 527.88
7.853796173517712, 527.90
7.853521745719049, 527.92
7.853247338712732, 527.94
7.852972952496401, 527.96
7.852698587067692, 527.98
7.852424242424243, 528.00
7.852149918563692, 528.02
7.851875615483676, 528.04
7.851601333181836, 528.06
7.851327071655810, 528.08
7.851052830903238, 528.10
7.850778610921760, 528.12
7.850504411709017, 528.14
7.850230233262648, 528.16
7.849956075580296, 528.18
7.849681938659598, 528.20
7.849407822498201, 528.22
7.849133727093745, 528.24
7.848859652443873, 528.26
7.848585598546226, 528.28
7.848311565398449, 528.30
7.848037552998183, 528.32
7.847763561343075, 528.34
7.847489590430767, 528.36
7.847215640258905, 528.38
7.846941710825133, 528.40
7.846667802127096, 528.42
7.846393914162440, 528.44
7.846120046928812, 528.46
7.845846200423857, 528.48
7.845572374645223, 528.50
7.845298569590556, 528.52
7.845024785257503, 528.54
7.844751021643712, 528.56
7.844477278746831, 528.58
7.844203556564510, 528.60
7.843929855094397, 528.62
7.843656174334141, 528.64
7.843382514281392, 528.66
7.843108874933798, 528.68
7.842835256289010, 528.70
7.842561658344682, 528.72
7.842288081098460, 528.74
7.842014524548000, 528.76
7.841740988690949, 528.78
7.841467473524963, 528.80
7.841193979047691, 528.82
7.840920505256788, 528.84
7.840647052149907, 528.86
7.840373619724701, 528.88
7.840100207978825, 528.90
7.839826816909930, 528.92
7.839553446515672, 528.94
7.839280096793709, 528.96
7.839006767741692, 528.98
7.838733459357278, 529.00
7.838460171638124, 529.02
7.838186904581885, 529.04
7.837913658186218, 529.06
7.837640432448779, 529.08
7.837367227367228, 529.10
7.837094042939220, 529.12
7.836820879162415, 529.14
7.836547736034470, 529.16
7.836274613553045, 529.18
7.836001511715797, 529.20
7.835728430520389, 529.22
7.835455369964477, 529.24
7.835182330045725, 529.26
7.834909310761790, 529.28
7.834636312110336, 529.30
7.834363334089019, 529.32
7.834090376695507, 529.34
7.833817439927460, 529.36
7.833544523782538, 529.38
7.833271628258406, 529.40
7.832998753352727, 529.42
7.832725899063161, 529.44
7.832453065387376, 529.46
7.832180252323034, 529.48
7.831907459867800, 529.50
7.831634688019339, 529.52
7.831361936775315, 529.54
7.831089206133395, 529.56
7.830816496091242, 529.58
7.830543806646526, 529.60
7.830271137796911, 529.62
7.829998489540065, 529.64
7.829725861873656, 529.66
7.829453254795349, 529.68
7.829180668302812, 529.70
7.828908102393718, 529.72
7.828635557065731, 529.74
7.828363032316521, 529.76
7.828090528143758, 529.78
7.827818044545112, 529.80
7.827545581518251, 529.82
7.827273139060848, 529.84
7.827000717170574, 529.86
7.826728315845098, 529.88
7.826455935082092, 529.90
7.826183574879228, 529.92
7.825911235234177, 529.94
7.825638916144615, 529.96
7.825366617608212, 529.98
7.825094339622642, 530.00
7.824822082185579, 530.02
7.824549845294696, 530.04
7.824277628947668, 530.06
7.824005433142167, 530.08
7.823733257875872, 530.10
7.823461103146458, 530.12
7.823188968951598, 530.14
7.822916855288971, 530.16
7.822644762156250, 530.18
7.822372689551113, 530.20
7.822100637471238, 530.22
7.821828605914303, 530.24
7.821556594877985, 530.26
7.821284604359962, 530.28
7.821012634357912, 530.30
7.820740684869512, 530.32
7.820468755892446, 530.34
7.820196847424391, 530.36
7.819924959463027, 530.38
7.819653092006034, 530.40
7.819381245051092, 530.42
7.819109418595882, 530.44
7.818837612638087, 530.46
7.818565827175388, 530.48
7.818294062205467, 530.50
7.818022317726006, 530.52
7.817750593734687, 530.54
7.817478890229193, 530.56
7.817207207207207, 530.58
7.816935544666415, 530.60
7.816663902604501, 530.62
7.816392281019147, 530.64
7.816120679908040, 530.66
7.815849099268863, 530.68
7.815577539099302, 530.70
7.815305999397046, 530.72
7.815034480159778, 530.74
7.814762981385184, 530.76
7.814491503070953, 530.78
7.814220045214771, 530.80
7.813948607814325, 530.82
7.813677190867304, 530.84
7.813405794371397, 530.86
7.813134418324292, 530.88
7.812863062723677, 530.90
7.812591727567242, 530.92
7.812320412852676, 530.94
7.812049118577670, 530.96
7.811777844739915, 530.98
7.811506591337100, 531.00
7.811235358366917, 531.02
7.810964145827057, 531.04
7.810692953715212, 531.06
7.810421782029072, 531.08
7.810150630766334, 531.10
7.809879499924688, 531.12
7.809608389501827, 531.14
7.809337299495445, 531.16
7.809066229903236, 531.18
7.808795180722892, 531.20
7.808524151952110, 531.22
7.808253143588585, 531.24
7.807982155630012, 531.26
7.807711188074085, 531.28
7.807440240918503, 531.30
7.807169314160957, 531.32
7.806898407799149, 531.34
7.806627521830774, 531.36
7.806356656253529, 531.38
7.806085811065111, 531.40
7.805814986263220, 531.42
7.805544181845551, 531.44
7.805273397809807, 531.46
7.805002634153684, 531.48
7.804731890874883, 531.50
7.804461167971103, 531.52
7.804190465440043, 531.54
7.803919783279405, 531.56
7.803649121486888, 531.58
7.803378480060196, 531.60
7.803107858997028, 531.62
7.802837258295088, 531.64
7.802566677952075, 531.66
7.802296117965694, 531.68
7.802025578333646, 531.70
7.801755059053638, 531.72
7.801484560123368, 531.74
7.801214081540545, 531.76
7.800943623302870, 531.78
7.800673185408049, 531.80
7.800402767853785, 531.82
7.800132370637786, 531.84
7.799861993757756, 531.86
7.799591637211401, 531.88
7.799321300996429, 531.90
7.799050985110544, 531.92
7.798780689551453, 531.94
7.798510414316866, 531.96
7.798240159404489, 531.98
7.797969924812031, 532.00
7.797699710537199, 532.02
7.797429516577702, 532.04
7.797159342931249, 532.06
7.796889189595549, 532.08
7.796619056568314, 532.10
7.796348943847253, 532.12
7.796078851430075, 532.14
7.795808779314493, 532.16
7.795538727498216, 532.18
7.795268695978955, 532.20
7.794998684754425, 532.22
7.794728693822336, 532.24
7.794458723180401, 532.26
7.794188772826333, 532.28
7.793918842757845, 532.30
7.793648932972648, 532.32
7.793379043468460, 532.34
7.793109174242994, 532.36
7.792839325293963, 532.38
7.792569496619084, 532.40
7.792299688216071, 532.42
7.792029900082638, 532.44
7.791760132216504, 532.46
7.791490384615384, 532.48
7.791220657276996, 532.50
7.790950950199054, 532.52
7.790681263379278, 532.54
7.790411596815384, 532.56
7.790141950505088, 532.58
7.789872324446113, 532.60
7.789602718636176, 532.62
7.789333133072995, 532.64
7.789063567754290, 532.66
7.788794022677782, 532.68
7.788524497841186, 532.70
7.788254993242228, 532.72
7.787985508878628, 532.74
7.787716044748104, 532.76
7.787446600848381, 532.78
7.787177177177178, 532.80
7.786907773732217, 532.82
7.786638390511222, 532.84
7.786369027511917, 532.86
7.786099684732022, 532.88
7.785830362169263, 532.90
7.785561059821362, 532.92
7.785291777686043, 532.94
7.785022515761033, 532.96
7.784753274044054, 532.98
7.784484052532833, 533.00
7.784214851225095, 533.02
7.783945670118566, 533.04
7.783676509210972, 533.06
7.783407368500037, 533.08
7.783138247983493, 533.10
7.782869147659063, 533.12
7.782600067524478, 533.14
7.782331007577463, 533.16
7.782061967815748, 533.18
7.781792948237059, 533.20
7.781523948839128, 533.22
7.781254969619684, 533.24
7.780986010576455, 533.26
7.780717071707171, 533.28
7.780448153009564, 533.30
7.780179254481362, 533.32
7.779910376120299, 533.34
7.779641517924104, 533.36
7.779372679890510, 533.38
7.779103862017249, 533.40
7.778835064302052, 533.42
7.778566286742651, 533.44
7.778297529336783, 533.46
7.778028792082178, 533.48
7.777760074976571, 533.50
7.777491378017694, 533.52
7.777222701203285, 533.54
7.776954044531076, 533.56
7.776685407998801, 533.58
7.776416791604198, 533.60
7.776148195345002, 533.62
7.775879619218950, 533.64
7.775611063223776, 533.66
7.775342527357219, 533.68
7.775074011617013, 533.70
7.774805516000900, 533.72
7.774537040506614, 533.74
7.774268585131895, 533.76
7.774000149874481, 533.78
7.773731734732110, 533.80
7.773463339702521, 533.82
7.773194964783456, 533.84
7.772926609972652, 533.86
7.772658275267851, 533.88
7.772389960666792, 533.90
7.772121666167217, 533.92
7.771853391766864, 533.94
7.771585137463481, 533.96
7.771316903254804, 533.98
7.771048689138577, 534.00
7.770780495112543, 534.02
7.770512321174444, 534.04
7.770244167322025, 534.06
7.769976033553026, 534.08
7.769707919865194, 534.10
7.769439826256272, 534.12
7.769171752724006, 534.14
7.768903699266138, 534.16
7.768635665880415, 534.18
7.768367652564582, 534.20
7.768099659316387, 534.22
7.767831686133573, 534.24
7.767563733013889, 534.26
7.767295799955081, 534.28
7.767027886954895, 534.30
7.766759994011079, 534.32
7.766492121121384, 534.34
7.766224268283555, 534.36
7.765956435495341, 534.38
7.765688622754491, 534.40
7.765420830058756, 534.42
7.765153057405882, 534.44
7.764885304793624, 534.46
7.764617572219728, 534.48
7.764349859681946, 534.50
7.764082167178030, 534.52
7.763814494705729, 534.54
7.763546842262796, 534.56
7.763279209846982, 534.58
7.763011597456042, 534.60
7.762744005087726, 534.62
7.762476432739788, 534.64
7.762208880409981, 534.66
7.761941348096059, 534.68
7.761673835795773, 534.70
7.761406343506882, 534.72
7.761138871227138, 534.74
7.760871418954298, 534.76
7.760603986686115, 534.78
7.760336574420345, 534.80
7.760069182154743, 534.82
7.759801809887069, 534.84
7.759534457615077, 534.86
7.759267125336525, 534.88
7.758999813049169, 534.90
7.758732520750767, 534.92
7.758465248439077, 534.94
7.758197996111859, 534.96
7.757930763766870, 534.98
7.757663551401870, 535.00
7.757396359014617, 535.02
7.757129186602872, 535.04
7.756862034164394, 535.06
7.756594901696943, 535.08
7.756327789198281, 535.10
7.756060696666169, 535.12
7.755793624098367, 535.14
7.755526571492639, 535.16
7.755259538846744, 535.18
7.754992526158445, 535.20
7.754725533425507, 535.22
7.754458560645692, 535.24
7.754191607816763, 535.26
7.753924674936482, 535.28
7.753657762002616, 535.30
7.753390869012926, 535.32
7.753123995965181, 535.34
7.752857142857143, 535.36
7.752590309686578, 535.38
7.752323496451252, 535.40
7.752056703148931, 535.42
7.751789929777379, 535.44
7.751523176334366, 535.46
7.751256442817659, 535.48
7.750989729225024, 535.50
7.750723035554228, 535.52
7.750456361803041, 535.54
7.750189707969230, 535.56
7.749923074050562, 535.58
7.749656460044809, 535.60
7.749389865949741, 535.62
7.749123291763125, 535.64
7.748856737482733, 535.66
7.748590203106333, 535.68
7.748323688631697, 535.70
7.748057194056597, 535.72
7.747790719378803, 535.74
7.747524264596088, 535.76
7.747257829706223, 535.78
7.746991414706981, 535.80
7.746725019596132, 535.82
7.746458644371454, 535.84
7.746192289030717, 535.86
7.745925953571695, 535.88
7.745659637992163, 535.90
7.745393342289895, 535.92
7.745127066462663, 535.94
7.744860810508246, 535.96
7.744594574424419, 535.98
7.744328358208955, 536.00
7.744062161859633, 536.02
7.743795985374226, 536.04
7.743529828750514, 536.06
7.743263691986271, 536.08
7.742997575079277, 536.10
7.742731478027308, 536.12
7.742465400828142, 536.14
7.742199343479559, 536.16
7.741933305979336, 536.18
7.741667288325251, 536.20
7.741401290515087, 536.22
7.741135312546621, 536.24
7.740869354417634, 536.26
7.740603416125905, 536.28
7.740337497669216, 536.30
7.740071599045346, 536.32
7.739805720252079, 536.34
7.739539861287195, 536.36
7.739274022148477, 536.38
7.739008202833706, 536.40
7.738742403340667, 536.42
7.738476623667139, 536.44
7.738210863810909, 536.46
7.737945123769759, 536.48
7.737679403541473, 536.50
7.737413703123836, 536.52
7.737148022514631, 536.54
7.736882361711646, 536.56
7.736616720712662, 536.58
7.736351099515468, 536.60
7.736085498117849, 536.62
7.735819916517592, 536.64
7.735554354712481, 536.66
7.735288812700307, 536.68
7.735023290478852, 536.70
7.734757788045909, 536.72
7.734492305399263, 536.74
7.734226842536702, 536.76
7.733961399456017, 536.78
7.733695976154993, 536.80
7.733430572631422, 536.82
7.733165188883094, 536.84
7.732899824907797, 536.86
7.732634480703323, 536.88
7.732369156267462, 536.90
7.732103851598004, 536.92
7.731838566692740, 536.94
7.731573301549464, 536.96
7.731308056165966, 536.98
7.731042830540037, 537.00
7.730777624669473, 537.02
7.730512438552064, 537.04
7.730247272185604, 537.06
7.729982125567886, 537.08
7.729716998696705, 537.10
7.729451891569854, 537.12
7.729186804185129, 537.14
7.728921736540324, 537.16
7.728656688633234, 537.18
7.728391660461653, 537.20
7.728126652023380, 537.22
7.727861663316209, 537.24
7.727596694337937, 537.26
7.727331745086362, 537.28
7.727066815559279, 537.30
7.726801905754485, 537.32
7.726537015669781, 537.34
7.726272145302962, 537.36
7.726007294651829, 537.38
7.725742463714180, 537.40
7.725477652487813, 537.42
7.725212860970527, 537.44
7.724948089160123, 537.46
7.724683337054402, 537.48
7.724418604651163, 537.50
7.724153891948207, 537.52
7.723889198943335, 537.54
7.723624525634349, 537.56
7.723359872019048, 537.58
7.723095238095238, 537.60
7.722830623860720, 537.62
7.722566029313295, 537.64
7.722301454450769, 537.66
7.722036899270943, 537.68
7.721772363771620, 537.70
7.721507847950607, 537.72
7.721243351805706, 537.74
7.720978875334723, 537.76
7.720714418535461, 537.78
7.720449981405728, 537.80
7.720185563943327, 537.82
7.719921166146066, 537.84
7.719656788011751, 537.86
7.719392429538187, 537.88
7.719128090723183, 537.90
7.718863771564545, 537.92
7.718599472060081, 537.94
7.718335192207599, 537.96
7.718070932004907, 537.98
7.717806691449814, 538.00
7.717542470540129, 538.02
7.717278269273661, 538.04
7.717014087648218, 538.06
7.716749925661611, 538.08
7.716485783311652, 538.10
7.716221660596150, 538.12
7.715957557512915, 538.14
7.715693474059760, 538.16
7.715429410234495, 538.18
7.715165366034931, 538.20
7.714901341458883, 538.22
7.714637336504162, 538.24
7.714373351168581, 538.26
7.714109385449953, 538.28
7.713845439346090, 538.30
7.713581512854807, 538.32
7.713317605973920, 538.34
7.713053718701241, 538.36
7.712789851034586, 538.38
7.712526002971769, 538.40
7.712262174510606, 538.42
7.711998365648912, 538.44
7.711734576384504, 538.46
7.711470806715198, 538.48
7.711207056638812, 538.50
7.710943326153161, 538.52
7.710679615256064, 538.54
7.710415923945336, 538.56
7.710152252218798, 538.58
7.709888600074267, 538.60
7.709624967509562, 538.62
7.709361354522501, 538.64
7.709097761110906, 538.66
7.708834187272593, 538.68
7.708570633005383, 538.70
7.708307098307098, 538.72
7.708043583175558, 538.74
7.707780087608583, 538.76
7.707516611603995, 538.78
7.707253155159615, 538.80
7.706989718273263, 538.82
7.706726300942766, 538.84
7.706462903165943, 538.86
7.706199524940618, 538.88
7.705936166264614, 538.90
7.705672827135754, 538.92
7.705409507551860, 538.94
7.705146207510762, 538.96
7.704882927010279, 538.98
7.704619666048238, 539.00
7.704356424622463, 539.02
7.704093202730782, 539.04
7.703830000371017, 539.06
7.703566817540995, 539.08
7.703303654238546, 539.10
7.703040510461493, 539.12
7.702777386207664, 539.14
7.702514281474888, 539.16
7.702251196260990, 539.18
7.701988130563798, 539.20
7.701725084381143, 539.22
7.701462057710852, 539.24
7.701199050550755, 539.26
7.700936062898680, 539.28
7.700673094752458, 539.30
7.700410146109916, 539.32
7.700147216968888, 539.34
7.699884307327203, 539.36
7.699621417182692, 539.38
7.699358546533186, 539.40
7.699095695376516, 539.42
7.698832863710514, 539.44
7.698570051533014, 539.46
7.698307258841848, 539.48
7.698044485634847, 539.50
7.697781731909846, 539.52
7.697518997664679, 539.54
7.697256282897176, 539.56
7.696993587605174, 539.58
7.696730911786508, 539.60
7.696468255439012, 539.62
7.696205618560523, 539.64
7.695943001148872, 539.66
7.695680403201899, 539.68
7.695417824717436, 539.70
7.695155265693322, 539.72
7.694892726127395, 539.74
7.694630206017489, 539.76
7.694367705361445, 539.78
7.694105224157096, 539.80
7.693842762402282, 539.82
7.693580320094843, 539.84
7.693317897232616, 539.86
7.693055493813440, 539.88
7.692793109835155, 539.90
7.692530745295600, 539.92
7.692268400192614, 539.94
7.692006074524039, 539.96
7.691743768287714, 539.98
7.691481481481482, 540.00
7.691219214103182, 540.02
7.690956966150656, 540.04
7.690694737621746, 540.06
7.690432528514294, 540.08
7.690170338826143, 540.10
7.689908168555136, 540.12
7.689646017699116, 540.14
7.689383886255925, 540.16
7.689121774223408, 540.18
7.688859681599407, 540.20
7.688597608381770, 540.22
7.688335554568340, 540.24
7.688073520156962, 540.26
7.687811505145481, 540.28
7.687549509531743, 540.30
7.687287533313592, 540.32
7.687025576488877, 540.34
7.686763639055445, 540.36
7.686501721011140, 540.38
7.686239822353812, 540.40
7.685977943081308, 540.42
7.685716083191473, 540.44
7.685454242682160, 540.46
7.685192421551214, 540.48
7.684930619796485, 540.50
7.684668837415822, 540.52
7.684407074407075, 540.54
7.684145330768094, 540.56
7.683883606496726, 540.58
7.683621901590825, 540.60
7.683360216048241, 540.62
7.683098549866825, 540.64
7.682836903044428, 540.66
7.682575275578902, 540.68
7.682313667468097, 540.70
7.682052078709869, 540.72
7.681790509302068, 540.74
7.681528959242548, 540.76
7.681267428529162, 540.78
7.681005917159764, 540.80
7.680744425132207, 540.82
7.680482952444346, 540.84
7.680221499094036, 540.86
7.679960065079131, 540.88
7.679698650397486, 540.90
7.679437255046958, 540.92
7.679175879025400, 540.94
7.678914522330671, 540.96
7.678653184960627, 540.98
7.678391866913124, 541.00
7.678130568186019, 541.02
7.677869288777170, 541.04
7.677608028684435, 541.06
7.677346787905670, 541.08
7.677085566438736, 541.10
7.676824364281490, 541.12
7.676563181431793, 541.14
7.676302017887502, 541.16
7.676040873646477, 541.18
7.675779748706578, 541.20
7.675518643065667, 541.22
7.675257556721602, 541.24
7.674996489672247, 541.26
7.674735441915461, 541.28
7.674474413449105, 541.30
7.674213404271041, 541.32
7.673952414379134, 541.34
7.673691443771243, 541.36
7.673430492445233, 541.38
7.673169560398966, 541.40
7.672908647630306, 541.42
7.672647754137116, 541.44
7.672386879917260, 541.46
7.672126024968605, 541.48
7.671865189289012, 541.50
7.671604372876349, 541.52
7.671343575728478, 541.54
7.671082797843269, 541.56
7.670822039218582, 541.58
7.670561299852290, 541.60
7.670300579742255, 541.62
7.670039878886346, 541.64
7.669779197282429, 541.66
7.669518534928372, 541.68
7.669257891822041, 541.70
7.668997267961308, 541.72
7.668736663344040, 541.74
7.668476077968104, 541.76
7.668215511831371, 541.78
7.667954964931710, 541.80
7.667694437266989, 541.82
7.667433928835081, 541.84
7.667173439633854, 541.86
7.666912969661180, 541.88
7.666652518914930, 541.90
7.666392087392974, 541.92
7.666131675093183, 541.94
7.665871282013432, 541.96
7.665610908151592, 541.98
7.665350553505536, 542.00
7.665090218073134, 542.02
7.664829901852262, 542.04
7.664569604840794, 542.06
7.664309327036600, 542.08
7.664049068437557, 542.10
7.663788829041541, 542.12
7.663528608846424, 542.14
7.663268407850082, 542.16
7.663008226050390, 542.18
7.662748063445223, 542.20
7.662487920032459, 542.22
7.662227795809974, 542.24
7.661967690775644, 542.26
7.661707604927344, 542.28
7.661447538262955, 542.30
7.661187490780351, 542.32
7.660927462477413, 542.34
7.660667453352017, 542.36
7.660407463402043, 542.38
7.660147492625369, 542.40
7.659887541019875, 542.42
7.659627608583437, 542.44
7.659367695313940, 542.46
7.659107801209261, 542.48
7.658847926267281, 542.50
7.658588070485881, 542.52
7.658328233862941, 542.54
7.658068416396344, 542.56
7.657808618083969, 542.58
7.657548838923701, 542.60
7.657289078913420, 542.62
7.657029338051010, 542.64
7.656769616334354, 542.66
7.656509913761334, 542.68
7.656250230329832, 542.70
7.655990566037736, 542.72
7.655730920882927, 542.74
7.655471294863291, 542.76
7.655211687976713, 542.78
7.654952100221077, 542.80
7.654692531594266, 542.82
7.654432982094171, 542.84
7.654173451718675, 542.86
7.653913940465665, 542.88
7.653654448333027, 542.90
7.653394975318649, 542.92
7.653135521420414, 542.94
7.652876086636216, 542.96
7.652616670963940, 542.98
7.652357274401473, 543.00
7.652097896946706, 543.02
7.651838538597526, 543.04
7.651579199351822, 543.06
7.651319879207483, 543.08
7.651060578162401, 543.10
7.650801296214465, 543.12
7.650542033361565, 543.14
7.650282789601591, 543.16
7.650023564932436, 543.18
7.649764359351988, 543.20
7.649505172858142, 543.22
7.649246005448789, 543.24
7.648986857121820, 543.26
7.648727727875129, 543.28
7.648468617706609, 543.30
7.648209526614150, 543.32
7.647950454595649, 543.34
7.647691401648999, 543.36
7.647432367772094, 543.38
7.647173352962827, 543.40
7.646914357219095, 543.42
7.646655380538790, 543.44
7.646396422919810, 543.46
7.646137484360050, 543.48
7.645878564857406, 543.50
7.645619664409774, 543.52
7.645360783015050, 543.54
7.645101920671132, 543.56
7.644843077375915, 543.58
7.644584253127300, 543.60
7.644325447923181, 543.62
7.644066661761460, 543.64
7.643807894640033, 543.66
7.643549146556799, 543.68
7.643290417509656, 543.70
7.643031707496506, 543.72
7.642773016515246, 543.74
7.642514344563779, 543.76
7.642255691640002, 543.78
7.641997057741817, 543.80
7.641738442867124, 543.82
7.641479847013827, 543.84
7.641221270179826, 543.86
7.640962712363022, 543.88
7.640704173561317, 543.90
7.640445653772614, 543.92
7.640187152994815, 543.94
7.639928671225825, 543.96
7.639670208463547, 543.98
7.639411764705883, 544.00
7.639153339950738, 544.02
7.638894934196016, 544.04
7.638636547439622, 544.06
7.638378179679458, 544.08
7.638119830913435, 544.10
7.637861501139454, 544.12
7.637603190355423, 544.14
7.637344898559248, 544.16
7.637086625748834, 544.18
7.636828371922087, 544.20
7.636570137076918, 544.22
7.636311921211231, 544.24
7.636053724322934, 544.26
7.635795546409937, 544.28
7.635537387470146, 544.30
7.635279247501470, 544.32
7.635021126501819, 544.34
7.634763024469102, 544.36
7.634504941401228, 544.38
7.634246877296106, 544.40
7.633988832151648, 544.42
7.633730805965762, 544.44
7.633472798736363, 544.46
7.633214810461357, 544.48
7.632956841138659, 544.50
7.632698890766180, 544.52
7.632440959341831, 544.54
7.632183046863524, 544.56
7.631925153329171, 544.58
7.631667278736687, 544.60
7.631409423083985, 544.62
7.631151586368978, 544.64
7.630893768589580, 544.66
7.630635969743704, 544.68
7.630378189829264, 544.70
7.630120428844177, 544.72
7.629862686786357, 544.74
7.629604963653719, 544.76
7.629347259444180, 544.78
7.629089574155654, 544.80
7.628831907786058, 544.82
7.628574260333309, 544.84
7.628316631795323, 544.86
7.628059022170019, 544.88
7.627801431455313, 544.90
7.627543859649124, 544.92
7.627286306749366, 544.94
7.627028772753963, 544.96
7.626771257660832, 544.98
7.626513761467891, 545.00
7.626256284173058, 545.02
7.625998825774256, 545.04
7.625741386269403, 545.06
7.625483965656417, 545.08
7.625226563933223, 545.10
7.624969181097740, 545.12
7.624711817147889, 545.14
7.624454472081592, 545.16
7.624197145896769, 545.18
7.623939838591342, 545.20
7.623682550163237, 545.22
7.623425280610373, 545.24
7.623168029930675, 545.26
7.622910798122066, 545.28
7.622653585182469, 545.30
7.622396391109807, 545.32
7.622139215902006, 545.34
7.621882059556990, 545.36
7.621624922072684, 545.38
7.621367803447012, 545.40
7.621110703677901, 545.42
7.620853622763273, 545.44
7.620596560701060, 545.46
7.620339517489184, 545.48
7.620082493125573, 545.50
7.619825487608154, 545.52
7.619568500934855, 545.54
7.619311533103601, 545.56
7.619054584112321, 545.58
7.618797653958945, 545.60
7.618540742641399, 545.62
7.618283850157614, 545.64
7.618026976505517, 545.66
7.617770121683039, 545.68
7.617513285688107, 545.70
7.617256468518654, 545.72
7.616999670172610, 545.74
7.616742890647904, 545.76
7.616486129942468, 545.78
7.616229388054233, 545.80
7.615972664981129, 545.82
7.615715960721090, 545.84
7.615459275272048, 545.86
7.615202608631934, 545.88
7.614945960798682, 545.90
7.614689331770224, 545.92
7.614432721544492, 545.94
7.614176130119422, 545.96
7.613919557492949, 545.98
7.613663003663004, 546.00
7.613406468627524, 546.02
7.613149952384441, 546.04
7.612893454931694, 546.06
7.612636976267213, 546.08
7.612380516388940, 546.10
7.612124075294807, 546.12
7.611867652982752, 546.14
7.611611249450712, 546.16
7.611354864696621, 546.18
7.611098498718418, 546.20
7.610842151514042, 546.22
7.610585823081429, 546.24
7.610329513418519, 546.26
7.610073222523249, 546.28
7.609816950393558, 546.30
7.609560697027383, 546.32
7.609304462422667, 546.34
7.609048246577348, 546.36
7.608792049489367, 546.38
7.608535871156662, 546.40
7.608279711577176, 546.42
7.608023570748847, 546.44
7.607767448669619, 546.46
7.607511345337432, 546.48
7.607255260750229, 546.50
7.606999194905951, 546.52
7.606743147802541, 546.54
7.606487119437940, 546.56
7.606231109810092, 546.58
7.605975118916941, 546.60
7.605719146756431, 546.62
7.605463193326504, 546.64
7.605207258625106, 546.66
7.604951342650180, 546.68
7.604695445399670, 546.70
7.604439566871525, 546.72
7.604183707063687, 546.74
7.603927865974103, 546.76
7.603672043600717, 546.78
7.603416239941478, 546.80
7.603160454994330, 546.82
7.602904688757223, 546.84
7.602648941228102, 546.86
7.602393212404915, 546.88
7.602137502285610, 546.90
7.601881810868135, 546.92
7.601626138150436, 546.94
7.601370484130467, 546.96
7.601114848806172, 546.98
7.600859232175503, 547.00
7.600603634236409, 547.02
7.600348054986839, 547.04
7.600092494424744, 547.06
7.599836952548073, 547.08
7.599581429354780, 547.10
7.599325924842813, 547.12
7.599070439010126, 547.14
7.598814971854669, 547.16
7.598559523374393, 547.18
7.598304093567251, 547.20
7.598048682431197, 547.22
7.597793289964184, 547.24
7.597537916164164, 547.26
7.597282561029090, 547.28
7.597027224556917, 547.30
7.596771906745596, 547.32
7.596516607593086, 547.34
7.596261327097340, 547.36
7.596006065256312, 547.38
7.595750822067958, 547.40
7.595495597530234, 547.42
7.595240391641092, 547.44
7.594985204398495, 547.46
7.594730035800395, 547.48
7.594474885844750, 547.50
7.594219754529515, 547.52
7.593964641852651, 547.54
7.593709547812113, 547.56
7.593454472405858, 547.58
7.593199415631848, 547.60
7.592944377488039, 547.62
7.592689357972391, 547.64
7.592434357082863, 547.66
7.592179374817412, 547.68
7.591924411174000, 547.70
7.591669466150588, 547.72
7.591414539745135, 547.74
7.591159631955602, 547.76
7.590904742779949, 547.78
7.590649872216138, 547.80
7.590395020262130, 547.82
7.590140186915888, 547.84
7.589885372175374, 547.86
7.589630576038549, 547.88
7.589375798503377, 547.90
7.589121039567821, 547.92
7.588866299229842, 547.94
7.588611577487407, 547.96
7.588356874338480, 547.98
7.588102189781022, 548.00
7.587847523813000, 548.02
7.587592876432378, 548.04
7.587338247637121, 548.06
7.587083637425193, 548.08
7.586829045794563, 548.10
7.586574472743195, 548.12
7.586319918269056, 548.14
7.586065382370112, 548.16
7.585810865044330, 548.18
7.585556366289675, 548.20
7.585301886104118, 548.22
7.585047424485627, 548.24
7.584792981432168, 548.26
7.584538556941709, 548.28
7.584284151012221, 548.30
7.584029763641669, 548.32
7.583775394828026, 548.34
7.583521044569261, 548.36
7.583266712863344, 548.38
7.583012399708243, 548.40
7.582758105101930, 548.42
7.582503829042374, 548.44
7.582249571527550, 548.46
7.581995332555426, 548.48
7.581741112123975, 548.50
7.581486910231168, 548.52
7.581232726874978, 548.54
7.580978562053377, 548.56
7.580724415764337, 548.58
7.580470288005833, 548.60
7.580216178775838, 548.62
7.579962088072325, 548.64
7.579708015893268, 548.66
7.579453962236641, 548.68
7.579199927100419, 548.70
7.578945910482577, 548.72
7.578691912381092, 548.74
7.578437932793936, 548.76
7.578183971719087, 548.78
7.577930029154520, 548.80
7.577676105098210, 548.82
7.577422199548137, 548.84
7.577168312502278, 548.86
7.576914443958607, 548.88
7.576660593915103, 548.90
7.576406762369745, 548.92
7.576152949320508, 548.94
7.575899154765374, 548.96
7.575645378702321, 548.98
7.575391621129326, 549.00
7.575137882044371, 549.02
7.574884161445433, 549.04
7.574630459330493, 549.06
7.574376775697530, 549.08
7.574123110544527, 549.10
7.573869463869464, 549.12
7.573615835670322, 549.14
7.573362225945081, 549.16
7.573108634691724, 549.18
7.572855061908230, 549.20
7.572601507592585, 549.22
7.572347971742772, 549.24
7.572094454356772, 549.26
7.571840955432567, 549.28
7.571587474968142, 549.30
7.571334012961479, 549.32
7.571080569410565, 549.34
7.570827144313383, 549.36
7.570573737667917, 549.38
7.570320349472152, 549.40
7.570066979724073, 549.42
7.569813628421666, 549.44
7.569560295562916, 549.46
7.569306981145811, 549.48
7.569053685168335, 549.50
7.568800407628476, 549.52
7.568547148524221, 549.54
7.568293907853556, 549.56
7.568040685614469, 549.58
7.567787481804949, 549.60
7.567534296422983, 549.62
7.567281129466561, 549.64
7.567027980933669, 549.66
7.566774850822298, 549.68
7.566521739130435, 549.70
7.566268645856072, 549.72
7.566015570997199, 549.74
7.565762514551805, 549.76
7.565509476517881, 549.78
7.565256456893417, 549.80
7.565003455676403, 549.82
7.564750472864834, 549.84
7.564497508456698, 549.86
7.564244562449989, 549.88
7.563991634842699, 549.90
7.563738725632820, 549.92
7.563485834818343, 549.94
7.563232962397265, 549.96
7.562980108367577, 549.98
7.562727272727273, 550.00
7.562474455474347, 550.02
7.562221656606793, 550.04
7.561968876122606, 550.06
7.561716114019779, 550.08
7.561463370296310, 550.10
7.561210644950193, 550.12
7.560957937979424, 550.14
7.560705249381999, 550.16
7.560452579155913, 550.18
7.560199927299164, 550.20
7.559947293809749, 550.22
7.559694678685664, 550.24
7.559442081924908, 550.26
7.559189503525479, 550.28
7.558936943485373, 550.30
7.558684401802587, 550.32
7.558431878475124, 550.34
7.558179373500981, 550.36
7.557926886878158, 550.38
7.557674418604652, 550.40
7.557421968678464, 550.42
7.557169537097594, 550.44
7.556917123860044, 550.46
7.556664728963813, 550.48
7.556412352406904, 550.50
7.556159994187315, 550.52
7.555907654303049, 550.54
7.555655332752108, 550.56
7.555403029532493, 550.58
7.555150744642209, 550.60
7.554898478079257, 550.62
7.554646229841639, 550.64
7.554393999927361, 550.66
7.554141788334424, 550.68
7.553889595060832, 550.70
7.553637420104590, 550.72
7.553385263463704, 550.74
7.553133125136176, 550.76
7.552881005120012, 550.78
7.552628903413218, 550.80
7.552376820013797, 550.82
7.552124754919759, 550.84
7.551872708129108, 550.86
7.551620679639849, 550.88
7.551368669449992, 550.90
7.551116677557541, 550.92
7.550864703960504, 550.94
7.550612748656889, 550.96
7.550360811644706, 550.98
7.550108892921960, 551.00
7.549856992486662, 551.02
7.549605110336818, 551.04
7.549353246470440, 551.06
7.549101400885534, 551.08
7.548849573580113, 551.10
7.548597764552185, 551.12
7.548345973799761, 551.14
7.548094201320851, 551.16
7.547842447113466, 551.18
7.547590711175617, 551.20
7.547338993505315, 551.22
7.547087294100574, 551.24
7.546835612959403, 551.26
7.546583950079815, 551.28
7.546332305459823, 551.30
7.546080679097439, 551.32
7.545829070990677, 551.34
7.545577481137551, 551.36
7.545325909536073, 551.38
7.545074356184259, 551.40
7.544822821080121, 551.42
7.544571304221674, 551.44
7.544319805606934, 551.46
7.544068325233916, 551.48
7.543816863100635, 551.50
7.543565419205106, 551.52
7.543313993545347, 551.54
7.543062586119372, 551.56
7.542811196925197, 551.58
7.542559825960841, 551.60
7.542308473224321, 551.62
7.542057138713655, 551.64
7.541805822426858, 551.66
7.541554524361950, 551.68
7.541303244516947, 551.70
7.541051982889871, 551.72
7.540800739478740, 551.74
7.540549514281572, 551.76
7.540298307296387, 551.78
7.540047118521204, 551.80
7.539795947954043, 551.82
7.539544795592925, 551.84
7.539293661435871, 551.86
7.539042545480902, 551.88
7.538791447726038, 551.90
7.538540368169301, 551.92
7.538289306808711, 551.94
7.538038263642293, 551.96
7.537787238668068, 551.98
7.537536231884058, 552.00
7.537285243288287, 552.02
7.537034272878778, 552.04
7.536783320653553, 552.06
7.536532386610636, 552.08
7.536281470748053, 552.10
7.536030573063827, 552.12
7.535779693555983, 552.14
7.535528832222545, 552.16
7.535277989061539, 552.18
7.535027164070988, 552.20
7.534776357248923, 552.22
7.534525568593366, 552.24
7.534274798102343, 552.26
7.534024045773884, 552.28
7.533773311606012, 552.30
7.533522595596756, 552.32
7.533271897744143, 552.34
7.533021218046202, 552.36
7.532770556500960, 552.38
7.532519913106445, 552.40
7.532269287860687, 552.42
7.532018680761711, 552.44
7.531768091807551, 552.46
7.531517520996236, 552.48
7.531266968325792, 552.50
7.531016433794252, 552.52
7.530765917399646, 552.54
7.530515419140004, 552.56
7.530264939013355, 552.58
7.530014477017734, 552.60
7.529764033151171, 552.62
7.529513607411698, 552.64
7.529263199797344, 552.66
7.529012810306146, 552.68
7.528762438936131, 552.70
7.528512085685338, 552.72
7.528261750551796, 552.74
7.528011433533541, 552.76
7.527761134628605, 552.78
7.527510853835023, 552.80
7.527260591150826, 552.82
7.527010346574054, 552.84
7.526760120102739, 552.86
7.526509911734916, 552.88
7.526259721468620, 552.90
7.526009549301889, 552.92
7.525759395232756, 552.94
7.525509259259259, 552.96
7.525259141379435, 552.98
7.525009041591320, 553.00
7.524758959892952, 553.02
7.524508896282367, 553.04
7.524258850757604, 553.06
7.524008823316699, 553.08
7.523758813957693, 553.10
7.523508822678624, 553.12
7.523258849477529, 553.14
7.523008894352449, 553.16
7.522758957301422, 553.18
7.522509038322487, 553.20
7.522259137413687, 553.22
7.522009254573061, 553.24
7.521759389798649, 553.26
7.521509543088492, 553.28
7.521259714440630, 553.30
7.521009903853105, 553.32
7.520760111323960, 553.34
7.520510336851236, 553.36
7.520260580432976, 553.38
7.520010842067221, 553.40
7.519761121752015, 553.42
7.519511419485400, 553.44
7.519261735265421, 553.46
7.519012069090121, 553.48
7.518762420957543, 553.50
7.518512790865732, 553.52
7.518263178812734, 553.54
7.518013584796591, 553.56
7.517764008815347, 553.58
7.517514450867052, 553.60
7.517264910949749, 553.62
7.517015389061484, 553.64
7.516765885200305, 553.66
7.516516399364255, 553.68
7.516266931551382, 553.70
7.516017481759734, 553.72
7.515768049987359, 553.74
7.515518636232303, 553.76
7.515269240492615, 553.78
7.515019862766342, 553.80
7.514770503051532, 553.82
7.514521161346237, 553.84
7.514271837648503, 553.86
7.514022531956381, 553.88
7.513773244267919, 553.90
7.513523974581168, 553.92
7.513274722894176, 553.94
7.513025489204996, 553.96
7.512776273511680, 553.98
7.512527075812275, 554.00
7.512277896104834, 554.02
7.512028734387409, 554.04
7.511779590658053, 554.06
7.511530464914814, 554.08
7.511281357155748, 554.10
7.511032267378908, 554.12
7.510783195582344, 554.14
7.510534141764112, 554.16
7.510285105922264, 554.18
7.510036088054854, 554.20
7.509787088159936, 554.22
7.509538106235566, 554.24
7.509289142279797, 554.26
7.509040196290684, 554.28
7.508791268266283, 554.30
7.508542358204647, 554.32
7.508293466103835, 554.34
7.508044591961903, 554.36
7.507795735776904, 554.38
7.507546897546898, 554.40
7.507298077269940, 554.42
7.507049274944087, 554.44
7.506800490567398, 554.46
7.506551724137931, 554.48
7.506302975653742, 554.50
7.506054245112891, 554.52
7.505805532513436, 554.54
7.505556837853434, 554.56
7.505308161130945, 554.58
7.505059502344031, 554.60
7.504810861490751, 554.62
7.504562238569163, 554.64
7.504313633577327, 554.66
7.504065046513306, 554.68
7.503816477375158, 554.70
7.503567926160946, 554.72
7.503319392868732, 554.74
7.503070877496575, 554.76
7.502822380042540, 554.78
7.502573900504688, 554.80
7.502325438881078, 554.82
7.502076995169778, 554.84
7.501828569368850, 554.86
7.501580161476356, 554.88
7.501331771490359, 554.90
7.501083399408925, 554.92
7.500835045230114, 554.94
7.500586708951996, 554.96
7.500338390572633, 554.98
7.500090090090090, 555.00
7.499841807502433, 555.02
7.499593542807727, 555.04
7.499345296004036, 555.06
7.499097067089428, 555.08
7.498848856061971, 555.10
7.498600662919729, 555.12
7.498352487660771, 555.14
7.498104330283162, 555.16
7.497856190784971, 555.18
7.497608069164265, 555.20
7.497359965419113, 555.22
7.497111879547584, 555.24
7.496863811547744, 555.26
7.496615761417663, 555.28
7.496367729155413, 555.30
7.496119714759057, 555.32
7.495871718226672, 555.34
7.495623739556324, 555.36
7.495375778746084, 555.38
7.495127835794023, 555.40
7.494879910698211, 555.42
7.494632003456719, 555.44
7.494384114067620, 555.46
7.494136242528984, 555.48
7.493888388838884, 555.50
7.493640552995393, 555.52
7.493392734996581, 555.54
7.493144934840522, 555.56
7.492897152525289, 555.58
7.492649388048956, 555.60
7.492401641409597, 555.62
7.492153912605285, 555.64
7.491906201634094, 555.66
7.491658508494099, 555.68
7.491410833183372, 555.70
7.491163175699993, 555.72
7.490915536042034, 555.74
7.490667914207572, 555.76
7.490420310194682, 555.78
7.490172724001440, 555.80
7.489925155625921, 555.82
7.489677605066206, 555.84
7.489430072320369, 555.86
7.489182557386487, 555.88
7.488935060262638, 555.90
7.488687580946900, 555.92
7.488440119437349, 555.94
7.488192675732066, 555.96
7.487945249829131, 555.98
7.487697841726619, 556.00
7.487450451422611, 556.02
7.487203078915186, 556.04
7.486955724202425, 556.06
7.486708387282405, 556.08
7.486461068153210, 556.10
7.486213766812918, 556.12
7.485966483259611, 556.14
7.485719217491370, 556.16
7.485471969506276, 556.18
7.485224739302409, 556.20
7.484977526877854, 556.22
7.484730332230692, 556.24
7.484483155359006, 556.26
7.484235996260876, 556.28
7.483988854934389, 556.30
7.483741731377624, 556.32
7.483494625588668, 556.34
7.483247537565605, 556.36
7.483000467306518, 556.38
7.482753414809491, 556.40
7.482506380072608, 556.42
7.482259363093954, 556.44
7.482012363871617, 556.46
7.481765382403680, 556.48
7.481518418688230, 556.50
7.481271472723352, 556.52
7.481024544507134, 556.54
7.480777634037661, 556.56
7.480530741313019, 556.58
7.480283866331297, 556.60
7.480037009090583, 556.62
7.479790169588963, 556.64
7.479543347824525, 556.66
7.479296543795360, 556.68
7.479049757499551, 556.70
7.478802988935191, 556.72
7.478556238100370, 556.74
7.478309504993176, 556.76
7.478062789611696, 556.78
7.477816091954024, 556.80
7.477569412018246, 556.82
7.477322749802457, 556.84
7.477076105304745, 556.86
7.476829478523201, 556.88
7.476582869455918, 556.90
7.476336278100985, 556.92
7.476089704456494, 556.94
7.475843148520540, 556.96
7.475596610291213, 556.98
7.475350089766607, 557.00
7.475103586944814, 557.02
7.474857101823927, 557.04
7.474610634402040, 557.06
7.474364184677246, 557.08
7.474117752647640, 557.10
7.473871338311316, 557.12
7.473624941666368, 557.14
7.473378562710892, 557.16
7.473132201442982, 557.18
7.472885857860732, 557.20
7.472639531962241, 557.22
7.472393223745604, 557.24
7.472146933208916, 557.26
7.471900660350274, 557.28
7.471654405167774, 557.30
7.471408167659513, 557.32
7.471161947823591, 557.34
7.470915745658103, 557.36
7.470669561161147, 557.38
7.470423394330822, 557.40
7.470177245165226, 557.42
7.469931113662456, 557.44
7.469684999820615, 557.46
7.469438903637799, 557.48
7.469192825112108, 557.50
7.468946764241642, 557.52
7.468700721024502, 557.54
7.468454695458786, 557.56
7.468208687542595, 557.58
7.467962697274031, 557.60
7.467716724651196, 557.62
7.467470769672190, 557.64
7.467224832335115, 557.66
7.466978912638073, 557.68
7.466733010579164, 557.70
7.466487126156494, 557.72
7.466241259368164, 557.74
7.465995410212278, 557.76
7.465749578686938, 557.78
7.465503764790248, 557.80
7.465257968520311, 557.82
7.465012189875233, 557.84
7.464766428853117, 557.86
7.464520685452069, 557.88
7.464274959670193, 557.90
7.464029251505593, 557.92
7.463783560956375, 557.94
7.463537888020647, 557.96
7.463292232696513, 557.98
7.463046594982079, 558.00
7.462800974875453, 558.02
7.462555372374741, 558.04
7.462309787478050, 558.06
7.462064220183486, 558.08
7.461818670489159, 558.10
7.461573138393177, 558.12
7.461327623893648, 558.14
7.461082126988678, 558.16
7.460836647676378, 558.18
7.460591185954855, 558.20
7.460345741822221, 558.22
7.460100315276584, 558.24
7.459854906316054, 558.26
7.459609514938741, 558.28
7.459364141142756, 558.30
7.459118784926207, 558.32
7.458873446287209, 558.34
7.458628125223870, 558.36
7.458382821734303, 558.38
7.458137535816619, 558.40
7.457892267468931, 558.42
7.457647016689348, 558.44
7.457401783475987, 558.46
7.457156567826959, 558.48
7.456911369740376, 558.50
7.456666189214353, 558.52
7.456421026247002, 558.54
7.456175880836438, 558.56
7.455930752980772, 558.58
7.455685642678124, 558.60
7.455440549926605, 558.62
7.455195474724331, 558.64
7.454950417069417, 558.66
7.454705376959978, 558.68
7.454460354394129, 558.70
7.454215349369989, 558.72
7.453970361885672, 558.74
7.453725391939295, 558.76
7.453480439528975, 558.78
7.453235504652828, 558.80
7.452990587308972, 558.82
7.452745687495526, 558.84
7.452500805210607, 558.86
7.452255940452334, 558.88
7.452011093218823, 558.90
7.451766263508195, 558.92
7.451521451318567, 558.94
7.451276656648060, 558.96
7.451031879494794, 558.98
7.450787119856888, 559.00
7.450542377732461, 559.02
7.450297653119635, 559.04
7.450052946016529, 559.06
7.449808256421264, 559.08
7.449563584331962, 559.10
7.449318929746745, 559.12
7.449074292663734, 559.14
7.448829673081051, 559.16
7.448585070996818, 559.18
7.448340486409156, 559.20
7.448095919316191, 559.22
7.447851369716044, 559.24
7.447606837606838, 559.26
7.447362322986698, 559.28
7.447117825853747, 559.30
7.446873346206107, 559.32
7.446628884041907, 559.34
7.446384439359268, 559.36
7.446140012156317, 559.38
7.445895602431177, 559.40
7.445651210181975, 559.42
7.445406835406835, 559.44
7.445162478103886, 559.46
7.444918138271252, 559.48
7.444673815907060, 559.50
7.444429511009437, 559.52
7.444185223576510, 559.54
7.443940953606406, 559.56
7.443696701097251, 559.58
7.443452466047177, 559.60
7.443208248454309, 559.62
7.442964048316775, 559.64
7.442719865632706, 559.66
7.442475700400229, 559.68
7.442231552617473, 559.70
7.441987422282570, 559.72
7.441743309393647, 559.74
7.441499213948836, 559.76
7.441255135946265, 559.78
7.441011075384067, 559.80
7.440767032260369, 559.82
7.440523006573307, 559.84
7.440278998321009, 559.86
7.440035007501608, 559.88
7.439791034113235, 559.90
7.439547078154023, 559.92
7.439303139622102, 559.94
7.439059218515608, 559.96
7.438815314832673, 559.98
7.438571428571429, 560.00
7.438327559730010, 560.02
7.438083708306550, 560.04
7.437839874299184, 560.06
7.437596057706042, 560.08
7.437352258525263, 560.10
7.437108476754982, 560.12
7.436864712393331, 560.14
7.436620965438447, 560.16
7.436377235888465, 560.18
7.436133523741520, 560.20
7.435889828995752, 560.22
7.435646151649293, 560.24
7.435402491700282, 560.26
7.435158849146855, 560.28
7.434915223987151, 560.30
7.434671616219303, 560.32
7.434428025841453, 560.34
7.434184452851738, 560.36
7.433940897248296, 560.38
7.433697359029265, 560.40
7.433453838192785, 560.42
7.433210334736992, 560.44
7.432966848660029, 560.46
7.432723379960034, 560.48
7.432479928635147, 560.50
7.432236494683509, 560.52
7.431993078103258, 560.54
7.431749678892537, 560.56
7.431506297049484, 560.58
7.431262932572244, 560.60
7.431019585458956, 560.62
7.430776255707763, 560.64
7.430532943316805, 560.66
7.430289648284227, 560.68
7.430046370608168, 560.70
7.429803110286774, 560.72
7.429559867318187, 560.74
7.429316641700550, 560.76
7.429073433432006, 560.78
7.428830242510700, 560.80
7.428587068934774, 560.82
7.428343912702375, 560.84
7.428100773811646, 560.86
7.427857652260734, 560.88
7.427614548047781, 560.90
7.427371461170934, 560.92
7.427128391628337, 560.94
7.426885339418140, 560.96
7.426642304538486, 560.98
7.426399286987523, 561.00
7.426156286763396, 561.02
7.425913303864253, 561.04
7.425670338288241, 561.06
7.425427390033507, 561.08
7.425184459098200, 561.10
7.424941545480467, 561.12
7.424698649178459, 561.14
7.424455770190320, 561.16
7.424212908514203, 561.18
7.423970064148254, 561.20
7.423727237090624, 561.22
7.423484427339463, 561.24
7.423241634892920, 561.26
7.422998859749145, 561.28
7.422756101906290, 561.30
7.422513361362502, 561.32
7.422270638115937, 561.34
7.422027932164743, 561.36
7.421785243507072, 561.38
7.421542572141076, 561.40
7.421299918064908, 561.42
7.421057281276717, 561.44
7.420814661774659, 561.46
7.420572059556886, 561.48
7.420329474621550, 561.50
7.420086906966805, 561.52
7.419844356590804, 561.54
7.419601823491702, 561.56
7.419359307667651, 561.58
7.419116809116809, 561.60
7.418874327837328, 561.62
7.418631863827363, 561.64
7.418389417085070, 561.66
7.418146987608604, 561.68
7.417904575396118, 561.70
7.417662180445774, 561.72
7.417419802755724, 561.74
7.417177442324125, 561.76
7.416935099149134, 561.78
7.416692773228908, 561.80
7.416450464561603, 561.82
7.416208173145379, 561.84
7.415965898978393, 561.86
7.415723642058803, 561.88
7.415481402384766, 561.90
7.415239179954443, 561.92
7.414996974765989, 561.94
7.414754786817567, 561.96
7.414512616107335, 561.98
7.414270462633453, 562.00
7.414028326394079, 562.02
7.413786207387376, 562.04
7.413544105611502, 562.06
7.413302021064617, 562.08
7.413059953744885, 562.10
7.412817903650466, 562.12
7.412575870779522, 562.14
7.412333855130213, 562.16
7.412091856700702, 562.18
7.411849875489150, 562.20
7.411607911493721, 562.22
7.411365964712578, 562.24
7.411124035143884, 562.26
7.410882122785801, 562.28
7.410640227636494, 562.30
7.410398349694124, 562.32
7.410156488956859, 562.34
7.409914645422861, 562.36
7.409672819090296, 562.38
7.409431009957326, 562.40
7.409189218022120, 562.42
7.408947443282838, 562.44
7.408705685737653, 562.46
7.408463945384725, 562.48
7.408222222222222, 562.50
7.407980516248312, 562.52
7.407738827461159, 562.54
7.407497155858931, 562.56
7.407255501439795, 562.58
7.407013864201920, 562.60
7.406772244143472, 562.62
7.406530641262620, 562.64
7.406289055557531, 562.66
7.406047487026375, 562.68
7.405805935667318, 562.70
7.405564401478533, 562.72
7.405322884458187, 562.74
7.405081384604450, 562.76
7.404839901915492, 562.78
7.404598436389482, 562.80
7.404356988024590, 562.82
7.404115556818989, 562.84
7.403874142770849, 562.86
7.403632745878340, 562.88
7.403391366139634, 562.90
7.403150003552904, 562.92
7.402908658116318, 562.94
7.402667329828051, 562.96
7.402426018686277, 562.98
7.402184724689166, 563.00
7.401943447834891, 563.02
7.401702188121626, 563.04
7.401460945547544, 563.06
7.401219720110819, 563.08
7.400978511809625, 563.10
7.400737320642137, 563.12
7.400496146606528, 563.14
7.400254989700974, 563.16
7.400013849923649, 563.18
7.399772727272727, 563.20
7.399531621746386, 563.22
7.399290533342803, 563.24
7.399049462060150, 563.26
7.398808407896606, 563.28
7.398567370850347, 563.30
7.398326350919548, 563.32
7.398085348102390, 563.34
7.397844362397047, 563.36
7.397603393801697, 563.38
7.397362442314519, 563.40
7.397121507933692, 563.42
7.396880590657390, 563.44
7.396639690483797, 563.46
7.396398807411089, 563.48
7.396157941437445, 563.50
7.395917092561046, 563.52
7.395676260780069, 563.54
7.395435446092697, 563.56
7.395194648497108, 563.58
7.394953867991483, 563.60
7.394713104574004, 563.62
7.394472358242851, 563.64
7.394231628996204, 563.66
7.393990916832246, 563.68
7.393750221749158, 563.70
7.393509543745122, 563.72
7.393268882818321, 563.74
7.393028238966937, 563.76
7.392787612189152, 563.78
7.392547002483151, 563.80
7.392306409847114, 563.82
7.392065834279228, 563.84
7.391825275777675, 563.86
7.391584734340640, 563.88
7.391344209966307, 563.90
7.391103702652860, 563.92
7.390863212398481, 563.94
7.390622739201362, 563.96
7.390382283059683, 563.98
7.390141843971631, 564.00
7.389901421935393, 564.02
7.389661016949153, 564.04
7.389420629011100, 564.06
7.389180258119415, 564.08
7.388939904272292, 564.10
7.388699567467915, 564.12
7.388459247704471, 564.14
7.388218944980149, 564.16
7.387978659293133, 564.18
7.387738390641617, 564.20
7.387498139023785, 564.22
7.387257904437828, 564.24
7.387017686881935, 564.26
7.386777486354293, 564.28
7.386537302853093, 564.30
7.386297136376525, 564.32
7.386056986922777, 564.34
7.385816854490042, 564.36
7.385576739076509, 564.38
7.385336640680369, 564.40
7.385096559299813, 564.42
7.384856494933031, 564.44
7.384616447578217, 564.46
7.384376417233560, 564.48
7.384136403897254, 564.50
7.383896407567492, 564.52
7.383656428242464, 564.54
7.383416465920364, 564.56
7.383176520599384, 564.58
7.382936592277718, 564.60
7.382696680953562, 564.62
7.382456786625107, 564.64
7.382216909290547, 564.66
7.381977048948077, 564.68
7.381737205595892, 564.70
7.381497379232186, 564.72
7.381257569855155, 564.74
7.381017777462993, 564.76
7.380778002053898, 564.78
7.380538243626063, 564.80
7.380298502177686, 564.82
7.380058777706961, 564.84
7.379819070212088, 564.86
7.379579379691262, 564.88
7.379339706142681, 564.90
7.379100049564541, 564.92
7.378860409955039, 564.94
7.378620787312376, 564.96
7.378381181634748, 564.98
7.378141592920354, 565.00
7.377902021167393, 565.02
7.377662466374063, 565.04
7.377422928538564, 565.06
7.377183407659093, 565.08
7.376943903733853, 565.10
7.376704416761042, 565.12
7.376464946738862, 565.14
7.376225493665511, 565.16
7.375986057539190, 565.18
7.375746638358103, 565.20
7.375507236120448, 565.22
7.375267850824429, 565.24
7.375028482468245, 565.26
7.374789131050099, 565.28
7.374549796568195, 565.30
7.374310479020733, 565.32
7.374071178405915, 565.34
7.373831894721947, 565.36
7.373592627967032, 565.38
7.373353378139371, 565.40
7.373114145237170, 565.42
7.372874929258630, 565.44
7.372635730201959, 565.46
7.372396548065360, 565.48
7.372157382847038, 565.50
7.371918234545197, 565.52
7.371679103158044, 565.54
7.371439988683783, 565.56
7.371200891120619, 565.58
7.370961810466761, 565.60
7.370722746720413, 565.62
7.370483699879783, 565.64
7.370244669943076, 565.66
7.370005656908499, 565.68
7.369766660774261, 565.70
7.369527681538570, 565.72
7.369288719199632, 565.74
7.369049773755656, 565.76
7.368810845204851, 565.78
7.368571933545423, 565.80
7.368333038775583, 565.82
7.368094160893539, 565.84
7.367855299897501, 565.86
7.367616455785679, 565.88
7.367377628556283, 565.90
7.367138818207521, 565.92
7.366900024737604, 565.94
7.366661248144745, 565.96
7.366422488427153, 565.98
7.366183745583039, 566.00
7.365945019610615, 566.02
7.365706310508092, 566.04
7.365467618273682, 566.06
7.365228942905596, 566.08
7.364990284402049, 566.10
7.364751642761252, 566.12
7.364513017981419, 566.14
7.364274410060761, 566.16
7.364035818997491, 566.18
7.363797244789827, 566.20
7.363558687435979, 566.22
7.363320146934162, 566.24
7.363081623282591, 566.26
7.362843116479481, 566.28
7.362604626523045, 566.30
7.362366153411500, 566.32
7.362127697143059, 566.34
7.361889257715941, 566.36
7.361650835128359, 566.38
7.361412429378531, 566.40
7.361174040464673, 566.42
7.360935668385001, 566.44
7.360697313137733, 566.46
7.360458974721085, 566.48
7.360220653133275, 566.50
7.359982348372521, 566.52
7.359744060437039, 566.54
7.359505789325050, 566.56
7.359267535034770, 566.58
7.359029297564420, 566.60
7.358791076912216, 566.62
7.358552873076381, 566.64
7.358314686055131, 566.66
7.358076515846686, 566.68
7.357838362449267, 566.70
7.357600225861096, 566.72
7.357362106080390, 566.74
7.357124003105372, 566.76
7.356885916934261, 566.78
7.356647847565280, 566.80
7.356409794996649, 566.82
7.356171759226590, 566.84
7.355933740253326, 566.86
7.355695738075078, 566.88
7.355457752690070, 566.90
7.355219784096523, 566.92
7.354981832292658, 566.94
7.354743897276704, 566.96
7.354505979046880, 566.98
7.354268077601411, 567.00
7.354030192938521, 567.02
7.353792325056435, 567.04
7.353554473953374, 567.06
7.353316639627566, 567.08
7.353078822077235, 567.10
7.352841021300607, 567.12
7.352603237295906, 567.14
7.352365470061359, 567.16
7.352127719595190, 567.18
7.351889985895627, 567.20
7.351652268960897, 567.22
7.351414568789226, 567.24
7.351176885378839, 567.26
7.350939218727966, 567.28
7.350701568834832, 567.30
7.350463935697667, 567.32
7.350226319314697, 567.34
7.349988719684151, 567.36
7.349751136804259, 567.38
7.349513570673247, 567.40
7.349276021289346, 567.42
7.349038488650782, 567.44
7.348800972755789, 567.46
7.348563473602594, 567.48
7.348325991189427, 567.50
7.348088525514520, 567.52
7.347851076576101, 567.54
7.347613644372402, 567.56
7.347376228901653, 567.58
7.347138830162086, 567.60
7.346901448151933, 567.62
7.346664082869425, 567.64
7.346426734312794, 567.66
7.346189402480270, 567.68
7.345952087370089, 567.70
7.345714788980484, 567.72
7.345477507309684, 567.74
7.345240242355925, 567.76
7.345002994117441, 567.78
7.344765762592463, 567.80
7.344528547779227, 567.82
7.344291349675965, 567.84
7.344054168280914, 567.86
7.343817003592308, 567.88
7.343579855608382, 567.90
7.343342724327371, 567.92
7.343105609747508, 567.94
7.342868511867032, 567.96
7.342631430684179, 567.98
7.342394366197183, 568.00
7.342157318404282, 568.02
7.341920287303711, 568.04
7.341683272893709, 568.06
7.341446275172511, 568.08
7.341209294138356, 568.10
7.340972329789482, 568.12
7.340735382124125, 568.14
7.340498451140524, 568.16
7.340261536836917, 568.18
7.340024639211545, 568.20
7.339787758262645, 568.22
7.339550893988456, 568.24
7.339314046387218, 568.26
7.339077215457170, 568.28
7.338840401196552, 568.30
7.338603603603604, 568.32
7.338366822676567, 568.34
7.338130058413681, 568.36
7.337893310813189, 568.38
7.337656579873329, 568.40
7.337419865592344, 568.42
7.337183167968475, 568.44
7.336946486999965, 568.46
7.336709822685055, 568.48
7.336473175021988, 568.50
7.336236544009006, 568.52
7.335999929644353, 568.54
7.335763331926271, 568.56
7.335526750853002, 568.58
7.335290186422793, 568.60
7.335053638633886, 568.62
7.334817107484525, 568.64
7.334580592972955, 568.66
7.334344095097419, 568.68
7.334107613856163, 568.70
7.333871149247432, 568.72
7.333634701269473, 568.74
7.333398269920529, 568.76
7.333161855198847, 568.78
7.332925457102673, 568.80
7.332689075630253, 568.82
7.332452710779832, 568.84
7.332216362549661, 568.86
7.331980030937983, 568.88
7.331743715943048, 568.90
7.331507417563103, 568.92
7.331271135796393, 568.94
7.331034870641170, 568.96
7.330798622095680, 568.98
7.330562390158173, 569.00
7.330326174826896, 569.02
7.330089976100099, 569.04
7.329853793976032, 569.06
7.329617628452941, 569.08
7.329381479529081, 569.10
7.329145347202699, 569.12
7.328909231472046, 569.14
7.328673132335372, 569.16
7.328437049790927, 569.18
7.328200983836964, 569.20
7.327964934471733, 569.22
7.327728901693487, 569.24
7.327492885500475, 569.26
7.327256885890951, 569.28
7.327020902863167, 569.30
7.326784936415374, 569.32
7.326548986545825, 569.34
7.326313053252775, 569.36
7.326077136534477, 569.38
7.325841236389182, 569.40
7.325605352815146, 569.42
7.325369485810620, 569.44
7.325133635373863, 569.46
7.324897801503126, 569.48
7.324661984196664, 569.50
7.324426183452733, 569.52
7.324190399269587, 569.54
7.323954631645481, 569.56
7.323718880578672, 569.58
7.323483146067415, 569.60
7.323247428109968, 569.62
7.323011726704586, 569.64
7.322776041849525, 569.66
7.322540373543041, 569.68
7.322304721783395, 569.70
7.322069086568841, 569.72
7.321833467897638, 569.74
7.321597865768043, 569.76
7.321362280178315, 569.78
7.321126711126712, 569.80
7.320891158611492, 569.82
7.320655622630914, 569.84
7.320420103183238, 569.86
7.320184600266723, 569.88
7.319949113879629, 569.90
7.319713644020214, 569.92
7.319478190686739, 569.94
7.319242753877465, 569.96
7.319007333590652, 569.98
7.318771929824562, 570.00
7.318536542577454, 570.02
7.318301171847590, 570.04
7.318065817633233, 570.06
7.317830479932641, 570.08
7.317595158744080, 570.10
7.317359854065811, 570.12
7.317124565896096, 570.14
7.316889294233198, 570.16
7.316654039075379, 570.18
7.316418800420904, 570.20
7.316183578268037, 570.22
7.315948372615040, 570.24
7.315713183460177, 570.26
7.315478010801712, 570.28
7.315242854637911, 570.30
7.315007714967037, 570.32
7.314772591787355, 570.34
7.314537485097132, 570.36
7.314302394894632, 570.38
7.314067321178121, 570.40
7.313832263945865, 570.42
7.313597223196129, 570.44
7.313362198927181, 570.46
7.313127191137288, 570.48
7.312892199824716, 570.50
7.312657224987731, 570.52
7.312422266624602, 570.54
7.312187324733596, 570.56
7.311952399312980, 570.58
7.311717490361024, 570.60
7.311482597875995, 570.62
7.311247721856162, 570.64
7.311012862299794, 570.66
7.310778019205158, 570.68
7.310543192570528, 570.70
7.310308382394169, 570.72
7.310073588674353, 570.74
7.309838811409350, 570.76
7.309604050597429, 570.78
7.309369306236861, 570.80
7.309134578325918, 570.82
7.308899866862869, 570.84
7.308665171845987, 570.86
7.308430493273543, 570.88
7.308195831143808, 570.90
7.307961185455055, 570.92
7.307726556205555, 570.94
7.307491943393583, 570.96
7.307257347017408, 570.98
7.307022767075307, 571.00
7.306788203565550, 571.02
7.306553656486411, 571.04
7.306319125836166, 571.06
7.306084611613084, 571.08
7.305850113815444, 571.10
7.305615632441519, 571.12
7.305381167489583, 571.14
7.305146718957911, 571.16
7.304912286844777, 571.18
7.304677871148459, 571.20
7.304443471867232, 571.22
7.304209088999370, 571.24
7.303974722543151, 571.26
7.303740372496850, 571.28
7.303506038858744, 571.30
7.303271721627111, 571.32
7.303037420800224, 571.34
7.302803136376365, 571.36
7.302568868353810, 571.38
7.302334616730837, 571.40
7.302100381505723, 571.42
7.301866162676746, 571.44
7.301631960242187, 571.46
7.301397774200322, 571.48
7.301163604549432, 571.50
7.300929451287795, 571.52
7.300695314413690, 571.54
7.300461193925398, 571.56
7.300227089821197, 571.58
7.299993002099370, 571.60
7.299758930758196, 571.62
7.299524875795956, 571.64
7.299290837210930, 571.66
7.299056815001399, 571.68
7.298822809165646, 571.70
7.298588819701952, 571.72
7.298354846608598, 571.74
7.298120889883868, 571.76
7.297886949526042, 571.78
7.297653025533404, 571.80
7.297419117904236, 571.82
7.297185226636821, 571.84
7.296951351729445, 571.86
7.296717493180388, 571.88
7.296483650987936, 571.90
7.296249825150372, 571.92
7.296016015665979, 571.94
7.295782222533044, 571.96
7.295548445749851, 571.98
7.295314685314685, 572.00
7.295080941225832, 572.02
7.294847213481575, 572.04
7.294613502080202, 572.06
7.294379807019997, 572.08
7.294146128299248, 572.10
7.293912465916241, 572.12
7.293678819869263, 572.14
7.293445190156600, 572.16
7.293211576776539, 572.18
7.292977979727368, 572.20
7.292744399007375, 572.22
7.292510834614848, 572.24
7.292277286548073, 572.26
7.292043754805341, 572.28
7.291810239384938, 572.30
7.291576740285156, 572.32
7.291343257504280, 572.34
7.291109791040604, 572.36
7.290876340892415, 572.38
7.290642907058002, 572.40
7.290409489535657, 572.42
7.290176088323666, 572.44
7.289942703420326, 572.46
7.289709334823924, 572.48
7.289475982532752, 572.50
7.289242646545099, 572.52
7.289009326859260, 572.54
7.288776023473523, 572.56
7.288542736386182, 572.58
7.288309465595529, 572.60
7.288076211099857, 572.62
7.287842972897458, 572.64
7.287609750986625, 572.66
7.287376545365649, 572.68
7.287143356032827, 572.70
7.286910182986451, 572.72
7.286677026224814, 572.74
7.286443885746212, 572.76
7.286210761548937, 572.78
7.285977653631286, 572.80
7.285744561991551, 572.82
7.285511486628029, 572.84
7.285278427539015, 572.86
7.285045384722804, 572.88
7.284812358177693, 572.90
7.284579347901976, 572.92
7.284346353893950, 572.94
7.284113376151913, 572.96
7.283880414674160, 572.98
7.283647469458988, 573.00
7.283414540504695, 573.02
7.283181627809578, 573.04
7.282948731371934, 573.06
7.282715851190060, 573.08
7.282482987262258, 573.10
7.282250139586823, 573.12
7.282017308162055, 573.14
7.281784492986253, 573.16
7.281551694057713, 573.18
7.281318911374738, 573.20
7.281086144935627, 573.22
7.280853394738679, 573.24
7.280620660782193, 573.26
7.280387943064472, 573.28
7.280155241583814, 573.30
7.279922556338520, 573.32
7.279689887326891, 573.34
7.279457234547230, 573.36
7.279224597997838, 573.38
7.278991977677014, 573.40
7.278759373583064, 573.42
7.278526785714285, 573.44
7.278294214068985, 573.46
7.278061658645463, 573.48
7.277829119442023, 573.50
7.277596596456968, 573.52
7.277364089688601, 573.54
7.277131599135227, 573.56
7.276899124795146, 573.58
7.276666666666666, 573.60
7.276434224748091, 573.62
7.276201799037724, 573.64
7.275969389533871, 573.66
7.275736996234834, 573.68
7.275504619138923, 573.70
7.275272258244440, 573.72
7.275039913549691, 573.74
7.274807585052984, 573.76
7.274575272752624, 573.78
7.274342976646916, 573.80
7.274110696734168, 573.82
7.273878433012686, 573.84
7.273646185480779, 573.86
7.273413954136753, 573.88
7.273181738978916, 573.90
7.272949540005577, 573.92
7.272717357215040, 573.94
7.272485190605617, 573.96
7.272253040175616, 573.98
7.272020905923346, 574.00
7.271788787847114, 574.02
7.271556685945231, 574.04
7.271324600216007, 574.06
7.271092530657748, 574.08
7.270860477268768, 574.10
7.270628440047378, 574.12
7.270396418991884, 574.14
7.270164414100599, 574.16
7.269932425371834, 574.18
7.269700452803901, 574.20
7.269468496395110, 574.22
7.269236556143773, 574.24
7.269004632048202, 574.26
7.268772724106708, 574.28
7.268540832317605, 574.30
7.268308956679205, 574.32
7.268077097189818, 574.34
7.267845253847761, 574.36
7.267613426651346, 574.38
7.267381615598886, 574.40
7.267149820688696, 574.42
7.266918041919086, 574.44
7.266686279288375, 574.46
7.266454532794875, 574.48
7.266222802436902, 574.50
7.265991088212769, 574.52
7.265759390120793, 574.54
7.265527708159288, 574.56
7.265296042326569, 574.58
7.265064392620954, 574.60
7.264832759040758, 574.62
7.264601141584297, 574.64
7.264369540249888, 574.66
7.264137955035846, 574.68
7.263906385940491, 574.70
7.263674832962138, 574.72
7.263443296099106, 574.74
7.263211775349712, 574.76
7.262980270712273, 574.78
7.262748782185109, 574.80
7.262517309766537, 574.82
7.262285853454874, 574.84
7.262054413248443, 574.86
7.261822989145561, 574.88
7.261591581144548, 574.90
7.261360189243722, 574.92
7.261128813441402, 574.94
7.260897453735912, 574.96
7.260666110125570, 574.98
7.260434782608696, 575.00
7.260203471183612, 575.02
7.259972175848637, 575.04
7.259740896602095, 575.06
7.259509633442303, 575.08
7.259278386367589, 575.10
7.259047155376270, 575.12
7.258815940466669, 575.14
7.258584741637111, 575.16
7.258353558885913, 575.18
7.258122392211405, 575.20
7.257891241611905, 575.22
7.257660107085738, 575.24
7.257428988631228, 575.26
7.257197886246698, 575.28
7.256966799930472, 575.30
7.256735729680874, 575.32
7.256504675496228, 575.34
7.256273637374862, 575.36
7.256042615315097, 575.38
7.255811609315259, 575.40
7.255580619373676, 575.42
7.255349645488669, 575.44
7.255118687658569, 575.46
7.254887745881699, 575.48
7.254656820156386, 575.50
7.254425910480957, 575.52
7.254195016853738, 575.54
7.253964139273057, 575.56
7.253733277737239, 575.58
7.253502432244614, 575.60
7.253271602793510, 575.62
7.253040789382253, 575.64
7.252809992009173, 575.66
7.252579210672596, 575.68
7.252348445370853, 575.70
7.252117696102272, 575.72
7.251886962865182, 575.74
7.251656245657913, 575.76
7.251425544478795, 575.78
7.251194859326156, 575.80
7.250964190198327, 575.82
7.250733537093637, 575.84
7.250502900010419, 575.86
7.250272278947003, 575.88
7.250041673901720, 575.90
7.249811084872900, 575.92
7.249580511858874, 575.94
7.249349954857976, 575.96
7.249119413868537, 575.98
7.248888888888890, 576.00
7.248658379917365, 576.02
7.248427886952296, 576.04
7.248197409992016, 576.06
7.247966949034856, 576.08
7.247736504079153, 576.10
7.247506075123239, 576.12
7.247275662165446, 576.14
7.247045265204111, 576.16
7.246814884237565, 576.18
7.246584519264144, 576.20
7.246354170282184, 576.22
7.246123837290019, 576.24
7.245893520285983, 576.26
7.245663219268412, 576.28
7.245432934235642, 576.30
7.245202665186008, 576.32
7.244972412117847, 576.34
7.244742175029495, 576.36
7.244511953919289, 576.38
7.244281748785566, 576.40
7.244051559626662, 576.42
7.243821386440913, 576.44
7.243591229226659, 576.46
7.243361087982237, 576.48
7.243130962705985, 576.50
7.242900853396240, 576.52
7.242670760051341, 576.54
7.242440682669628, 576.56
7.242210621249436, 576.58
7.241980575789109, 576.60
7.241750546286983, 576.62
7.241520532741399, 576.64
7.241290535150696, 576.66
7.241060553513213, 576.68
7.240830587827293, 576.70
7.240600638091275, 576.72
7.240370704303499, 576.74
7.240140786462307, 576.76
7.239910884566040, 576.78
7.239680998613038, 576.80
7.239451128601645, 576.82
7.239221274530199, 576.84
7.238991436397046, 576.86
7.238761614200527, 576.88
7.238531807938985, 576.90
7.238302017610762, 576.92
7.238072243214199, 576.94
7.237842484747643, 576.96
7.237612742209436, 576.98
7.237383015597921, 577.00
7.237153304911442, 577.02
7.236923610148344, 577.04
7.236693931306971, 577.06
7.236464268385665, 577.08
7.236234621382776, 577.10
7.236004990296646, 577.12
7.235775375125620, 577.14
7.235545775868045, 577.16
7.235316192522263, 577.18
7.235086625086625, 577.20
7.234857073559475, 577.22
7.234627537939159, 577.24
7.234398018224025, 577.26
7.234168514412418, 577.28
7.233939026502686, 577.30
7.233709554493176, 577.32
7.233480098382236, 577.34
7.233250658168214, 577.36
7.233021233849458, 577.38
7.232791825424316, 577.40
7.232562432891137, 577.42
7.232333056248268, 577.44
7.232103695494060, 577.46
7.231874350626861, 577.48
7.231645021645022, 577.50
7.231415708546891, 577.52
7.231186411330818, 577.54
7.230957129995153, 577.56
7.230727864538245, 577.58
7.230498614958448, 577.60
7.230269381254112, 577.62
7.230040163423586, 577.64
7.229810961465223, 577.66
7.229581775377371, 577.68
7.229352605158386, 577.70
7.229123450806619, 577.72
7.228894312320421, 577.74
7.228665189698145, 577.76
7.228436082938143, 577.78
7.228206992038769, 577.80
7.227977916998374, 577.82
7.227748857815312, 577.84
7.227519814487938, 577.86
7.227290787014605, 577.88
7.227061775393667, 577.90
7.226832779623478, 577.92
7.226603799702391, 577.94
7.226374835628763, 577.96
7.226145887400948, 577.98
7.225916955017301, 578.00
7.225688038476178, 578.02
7.225459137775934, 578.04
7.225230252914923, 578.06
7.225001383891502, 578.08
7.224772530704031, 578.10
7.224543693350862, 578.12
7.224314871830353, 578.14
7.224086066140861, 578.16
7.223857276280743, 578.18
7.223628502248356, 578.20
7.223399744042061, 578.22
7.223171001660210, 578.24
7.222942275101166, 578.26
7.222713564363285, 578.28
7.222484869444926, 578.30
7.222256190344447, 578.32
7.222027527060207, 578.34
7.221798879590566, 578.36
7.221570247933885, 578.38
7.221341632088521, 578.40
7.221113032052834, 578.42
7.220884447825185, 578.44
7.220655879403934, 578.46
7.220427326787443, 578.48
7.220198789974071, 578.50
7.219970268962180, 578.52
7.219741763750131, 578.54
7.219513274336284, 578.56
7.219284800719001, 578.58
7.219056342896647, 578.60
7.218827900867582, 578.62
7.218599474630167, 578.64
7.218371064182768, 578.66
7.218142669523743, 578.68
7.217914290651460, 578.70
7.217685927564280, 578.72
7.217457580260566, 578.74
7.217229248738684, 578.76
7.217000932996994, 578.78
7.216772633033864, 578.80
7.216544348847656, 578.82
7.216316080436735, 578.84
7.216087827799468, 578.86
7.215859590934218, 578.88
7.215631369839351, 578.90
7.215403164513233, 578.92
7.215174974954226, 578.94
7.214946801160702, 578.96
7.214718643131024, 578.98
7.214490500863558, 579.00
7.214262374356673, 579.02
7.214034263608732, 579.04
7.213806168618106, 579.06
7.213578089383160, 579.08
7.213350025902262, 579.10
7.213121978173781, 579.12
7.212893946196084, 579.14
7.212665929967540, 579.16
7.212437929486515, 579.18
7.212209944751381, 579.20
7.211981975760506, 579.22
7.211754022512258, 579.24
7.211526085005007, 579.26
7.211298163237123, 579.28
7.211070257206975, 579.30
7.210842366912933, 579.32
7.210614492353367, 579.34
7.210386633526650, 579.36
7.210158790431151, 579.38
7.209930963065241, 579.40
7.209703151427290, 579.42
7.209475355515670, 579.44
7.209247575328754, 579.46
7.209019810864914, 579.48
7.208792062122519, 579.50
7.208564329099945, 579.52
7.208336611795563, 579.54
7.208108910207745, 579.56
7.207881224334863, 579.58
7.207653554175294, 579.60
7.207425899727408, 579.62
7.207198260989580, 579.64
7.206970637960184, 579.66
7.206743030637592, 579.68
7.206515439020182, 579.70
7.206287863106327, 579.72
7.206060302894401, 579.74
7.205832758382780, 579.76
7.205605229569837, 579.78
7.205377716453951, 579.80
7.205150219033494, 579.82
7.204922737306843, 579.84
7.204695271272376, 579.86
7.204467820928468, 579.88
7.204240386273496, 579.90
7.204012967305836, 579.92
7.203785564023864, 579.94
7.203558176425960, 579.96
7.203330804510500, 579.98
7.203103448275862, 580.00
7.202876107720424, 580.02
7.202648782842563, 580.04
7.202421473640658, 580.06
7.202194180113088, 580.08
7.201966902258231, 580.10
7.201739640074468, 580.12
7.201512393560176, 580.14
7.201285162713734, 580.16
7.201057947533523, 580.18
7.200830748017925, 580.20
7.200603564165316, 580.22
7.200376395974080, 580.24
7.200149243442596, 580.26
7.199922106569243, 580.28
7.199694985352405, 580.30
7.199467879790461, 580.32
7.199240789881793, 580.34
7.199013715624785, 580.36
7.198786657017816, 580.38
7.198559614059270, 580.40
7.198332586747529, 580.42
7.198105575080973, 580.44
7.197878579057988, 580.46
7.197651598676957, 580.48
7.197424633936262, 580.50
7.197197684834287, 580.52
7.196970751369415, 580.54
7.196743833540031, 580.56
7.196516931344517, 580.58
7.196290044781261, 580.60
7.196063173848644, 580.62
7.195836318545054, 580.64
7.195609478868874, 580.66
7.195382654818489, 580.68
7.195155846392285, 580.70
7.194929053588648, 580.72
7.194702276405965, 580.74
7.194475514842621, 580.76
7.194248768897001, 580.78
7.194022038567494, 580.80
7.193795323852486, 580.82
7.193568624750362, 580.84
7.193341941259512, 580.86
7.193115273378323, 580.88
7.192888621105182, 580.90
7.192661984438478, 580.92
7.192435363376596, 580.94
7.192208757917929, 580.96
7.191982168060862, 580.98
7.191755593803787, 581.00
7.191529035145090, 581.02
7.191302492083162, 581.04
7.191075964616392, 581.06
7.190849452743167, 581.08
7.190622956461882, 581.10
7.190396475770926, 581.12
7.190170010668687, 581.14
7.189943561153556, 581.16
7.189717127223924, 581.18
7.189490708878183, 581.20
7.189264306114724, 581.22
7.189037918931938, 581.24
7.188811547328219, 581.26
7.188585191301955, 581.28
7.188358850851540, 581.30
7.188132525975368, 581.32
7.187906216671827, 581.34
7.187679922939314, 581.36
7.187453644776222, 581.38
7.187227382180943, 581.40
7.187001135151871, 581.42
7.186774903687397, 581.44
7.186548687785918, 581.46
7.186322487445828, 581.48
7.186096302665520, 581.50
7.185870133443390, 581.52
7.185643979777832, 581.54
7.185417841667241, 581.56
7.185191719110010, 581.58
7.184965612104540, 581.60
7.184739520649221, 581.62
7.184513444742453, 581.64
7.184287384382630, 581.66
7.184061339568147, 581.68
7.183835310297404, 581.70
7.183609296568796, 581.72
7.183383298380720, 581.74
7.183157315731574, 581.76
7.182931348619753, 581.78
7.182705397043659, 581.80
7.182479461001686, 581.82
7.182253540492232, 581.84
7.182027635513697, 581.86
7.181801746064481, 581.88
7.181575872142981, 581.90
7.181350013747595, 581.92
7.181124170876722, 581.94
7.180898343528765, 581.96
7.180672531702120, 581.98
7.180446735395189, 582.00
7.180220954606371, 582.02
7.179995189334067, 582.04
7.179769439576677, 582.06
7.179543705332600, 582.08
7.179317986600241, 582.10
7.179092283377998, 582.12
7.178866595664274, 582.14
7.178640923457469, 582.16
7.178415266755986, 582.18
7.178189625558227, 582.20
7.177963999862595, 582.22
7.177738389667491, 582.24
7.177512794971319, 582.26
7.177287215772481, 582.28
7.177061652069381, 582.30
7.176836103860421, 582.32
7.176610571144005, 582.34
7.176385053918539, 582.36
7.176159552182424, 582.38
7.175934065934067, 582.40
7.175708595171870, 582.42
7.175483139894237, 582.44
7.175257700099578, 582.46
7.175032275786293, 582.48
7.174806866952790, 582.50
7.174581473597474, 582.52
7.174356095718750, 582.54
7.174130733315025, 582.56
7.173905386384702, 582.58
7.173680054926193, 582.60
7.173454738937902, 582.62
7.173229438418235, 582.64
7.173004153365600, 582.66
7.172778883778403, 582.68
7.172553629655054, 582.70
7.172328390993959, 582.72
7.172103167793527, 582.74
7.171877960052166, 582.76
7.171652767768284, 582.78
7.171427590940289, 582.80
7.171202429566591, 582.82
7.170977283645597, 582.84
7.170752153175719, 582.86
7.170527038155367, 582.88
7.170301938582948, 582.90
7.170076854456873, 582.92
7.169851785775551, 582.94
7.169626732537395, 582.96
7.169401694740815, 582.98
7.169176672384220, 583.00
7.168951665466023, 583.02
7.168726673984633, 583.04
7.168501697938463, 583.06
7.168276737325924, 583.08
7.168051792145429, 583.10
7.167826862395390, 583.12
7.167601948074219, 583.14
7.167377049180328, 583.16
7.167152165712130, 583.18
7.166927297668038, 583.20
7.166702445046466, 583.22
7.166477607845827, 583.24
7.166252786064534, 583.26
7.166027979701002, 583.28
7.165803188753644, 583.30
7.165578413220874, 583.32
7.165353653101107, 583.34
7.165128908392759, 583.36
7.164904179094244, 583.38
7.164679465203977, 583.40
7.164454766720374, 583.42
7.164230083641848, 583.44
7.164005415966819, 583.46
7.163780763693700, 583.48
7.163556126820908, 583.50
7.163331505346861, 583.52
7.163106899269974, 583.54
7.162882308588664, 583.56
7.162657733301347, 583.58
7.162433173406443, 583.60
7.162208628902368, 583.62
7.161984099787540, 583.64
7.161759586060378, 583.66
7.161535087719298, 583.68
7.161310604762720, 583.70
7.161086137189063, 583.72
7.160861684996745, 583.74
7.160637248184186, 583.76
7.160412826749804, 583.78
7.160188420692019, 583.80
7.159964030009251, 583.82
7.159739654699917, 583.84
7.159515294762444, 583.86
7.159290950195246, 583.88
7.159066620996747, 583.90
7.158842307165366, 583.92
7.158618008699523, 583.94
7.158393725597644, 583.96
7.158169457858146, 583.98
7.157945205479453, 584.00
7.157720968459985, 584.02
7.157496746798166, 584.04
7.157272540492416, 584.06
7.157048349541158, 584.08
7.156824173942818, 584.10
7.156600013695816, 584.12
7.156375868798576, 584.14
7.156151739249522, 584.16
7.155927625047074, 584.18
7.155703526189661, 584.20
7.155479442675705, 584.22
7.155255374503628, 584.24
7.155031321671859, 584.26
7.154807284178819, 584.28
7.154583262022935, 584.30
7.154359255202630, 584.32
7.154135263716330, 584.34
7.153911287562462, 584.36
7.153687326739450, 584.38
7.153463381245722, 584.40
7.153239451079703, 584.42
7.153015536239819, 584.44
7.152791636724498, 584.46
7.152567752532166, 584.48
7.152343883661249, 584.50
7.152120030110177, 584.52
7.151896191877374, 584.54
7.151672368961271, 584.56
7.151448561360293, 584.58
7.151224769072870, 584.60
7.151000992097431, 584.62
7.150777230432404, 584.64
7.150553484076216, 584.66
7.150329753027297, 584.68
7.150106037284077, 584.70
7.149882336844986, 584.72
7.149658651708452, 584.74
7.149434981872906, 584.76
7.149211327336777, 584.78
7.148987688098496, 584.80
7.148764064156493, 584.82
7.148540455509199, 584.84
7.148316862155045, 584.86
7.148093284092464, 584.88
7.147869721319885, 584.90
7.147646173835739, 584.92
7.147422641638459, 584.94
7.147199124726477, 584.96
7.146975623098226, 584.98
7.146752136752137, 585.00
7.146528665686644, 585.02
7.146305209900179, 585.04
7.146081769391174, 585.06
7.145858344158063, 585.08
7.145634934199283, 585.10
7.145411539513263, 585.12
7.145188160098439, 585.14
7.144964795953245, 585.16
7.144741447076113, 585.18
7.144518113465482, 585.20
7.144294795119784, 585.22
7.144071492037455, 585.24
7.143848204216930, 585.26
7.143624931656643, 585.28
7.143401674355032, 585.30
7.143178432310532, 585.32
7.142955205521577, 585.34
7.142731993986606, 585.36
7.142508797704056, 585.38
7.142285616672361, 585.40
7.142062450889960, 585.42
7.141839300355288, 585.44
7.141616165066785, 585.46
7.141393045022888, 585.48
7.141169940222032, 585.50
7.140946850662659, 585.52
7.140723776343205, 585.54
7.140500717262109, 585.56
7.140277673417808, 585.58
7.140054644808743, 585.60
7.139831631433353, 585.62
7.139608633290076, 585.64
7.139385650377353, 585.66
7.139162682693621, 585.68
7.138939730237323, 585.70
7.138716793006897, 585.72
7.138493871000786, 585.74
7.138270964217427, 585.76
7.138048072655264, 585.78
7.137825196312735, 585.80
7.137602335188284, 585.82
7.137379489280350, 585.84
7.137156658587376, 585.86
7.136933843107804, 585.88
7.136711042840076, 585.90
7.136488257782633, 585.92
7.136265487933918, 585.94
7.136042733292375, 585.96
7.135819993856446, 585.98
7.135597269624574, 586.00
7.135374560595202, 586.02
7.135151866766774, 586.04
7.134929188137734, 586.06
7.134706524706525, 586.08
7.134483876471592, 586.10
7.134261243431379, 586.12
7.134038625584332, 586.14
7.133816022928894, 586.16
7.133593435463509, 586.18
7.133370863186625, 586.20
7.133148306096687, 586.22
7.132925764192140, 586.24
7.132703237471429, 586.26
7.132480725933002, 586.28
7.132258229575304, 586.30
7.132035748396781, 586.32
7.131813282395879, 586.34
7.131590831571049, 586.36
7.131368395920735, 586.38
7.131145975443384, 586.40
7.130923570137445, 586.42
7.130701180001364, 586.44
7.130478805033591, 586.46
7.130256445232575, 586.48
7.130034100596760, 586.50
7.129811771124600, 586.52
7.129589456814540, 586.54
7.129367157665031, 586.56
7.129144873674520, 586.58
7.128922604841459, 586.60
7.128700351164297, 586.62
7.128478112641484, 586.64
7.128255889271470, 586.66
7.128033681052703, 586.68
7.127811487983637, 586.70
7.127589310062722, 586.72
7.127367147288408, 586.74
7.127144999659145, 586.76
7.126922867173388, 586.78
7.126700749829585, 586.80
7.126478647626190, 586.82
7.126256560561652, 586.84
7.126034488634428, 586.86
7.125812431842967, 586.88
7.125590390185722, 586.90
7.125368363661147, 586.92
7.125146352267693, 586.94
7.124924356003816, 586.96
7.124702374867969, 586.98
7.124480408858603, 587.00
7.124258457974175, 587.02
7.124036522213138, 587.04
7.123814601573946, 587.06
7.123592696055052, 587.08
7.123370805654914, 587.10
7.123148930371985, 587.12
7.122927070204722, 587.14
7.122705225151578, 587.16
7.122483395211008, 587.18
7.122261580381471, 587.20
7.122039780661422, 587.22
7.121817996049316, 587.24
7.121596226543610, 587.26
7.121374472142761, 587.28
7.121152732845225, 587.30
7.120931008649459, 587.32
7.120709299553921, 587.34
7.120487605557069, 587.36
7.120265926657360, 587.38
7.120044262853252, 587.40
7.119822614143203, 587.42
7.119600980525671, 587.44
7.119379361999115, 587.46
7.119157758561994, 587.48
7.118936170212766, 587.50
7.118714596949892, 587.52
7.118493038771829, 587.54
7.118271495677038, 587.56
7.118049967663977, 587.58
7.117828454731110, 587.60
7.117606956876894, 587.62
7.117385474099789, 587.64
7.117164006398258, 587.66
7.116942553770759, 587.68
7.116721116215756, 587.70
7.116499693731709, 587.72
7.116278286317079, 587.74
7.116056893970328, 587.76
7.115835516689919, 587.78
7.115614154474311, 587.80
7.115392807321970, 587.82
7.115171475231356, 587.84
7.114950158200933, 587.86
7.114728856229163, 587.88
7.114507569314510, 587.90
7.114286297455437, 587.92
7.114065040650406, 587.94
7.113843798897884, 587.96
7.113622572196333, 587.98
7.113401360544218, 588.00
7.113180163940003, 588.02
7.112958982382152, 588.04
7.112737815869130, 588.06
7.112516664399402, 588.08
7.112295527971433, 588.10
7.112074406583691, 588.12
7.111853300234639, 588.14
7.111632208922742, 588.16
7.111411132646468, 588.18
7.111190071404284, 588.20
7.110969025194655, 588.22
7.110747994016048, 588.24
7.110526977866930, 588.26
7.110305976745768, 588.28
7.110084990651029, 588.30
7.109864019581181, 588.32
7.109643063534691, 588.34
7.109422122510028, 588.36
7.109201196505660, 588.38
7.108980285520055, 588.40
7.108759389551682, 588.42
7.108538508599008, 588.44
7.108317642660504, 588.46
7.108096791734638, 588.48
7.107875955819881, 588.50
7.107655134914702, 588.52
7.107434329017569, 588.54
7.107213538126955, 588.56
7.106992762241326, 588.58
7.106772001359158, 588.60
7.106551255478917, 588.62
7.106330524599076, 588.64
7.106109808718106, 588.66
7.105889107834477, 588.68
7.105668421946662, 588.70
7.105447751053132, 588.72
7.105227095152359, 588.74
7.105006454242816, 588.76
7.104785828322973, 588.78
7.104565217391305, 588.80
7.104344621446283, 588.82
7.104124040486380, 588.84
7.103903474510070, 588.86
7.103682923515827, 588.88
7.103462387502123, 588.90
7.103241866467433, 588.92
7.103021360410228, 588.94
7.102800869328987, 588.96
7.102580393222181, 588.98
7.102359932088286, 589.00
7.102139485925775, 589.02
7.101919054733126, 589.04
7.101698638508812, 589.06
7.101478237251307, 589.08
7.101257850959090, 589.10
7.101037479630635, 589.12
7.100817123264420, 589.14
7.100596781858918, 589.16
7.100376455412607, 589.18
7.100156143923964, 589.20
7.099935847391467, 589.22
7.099715565813590, 589.24
7.099495299188813, 589.26
7.099275047515613, 589.28
7.099054810792467, 589.30
7.098834589017852, 589.32
7.098614382190247, 589.34
7.098394190308131, 589.36
7.098174013369983, 589.38
7.097953851374280, 589.40
7.097733704319501, 589.42
7.097513572204126, 589.44
7.097293455026635, 589.46
7.097073352785506, 589.48
7.096853265479220, 589.50
7.096633193106256, 589.52
7.096413135665095, 589.54
7.096193093154217, 589.56
7.095973065572102, 589.58
7.095753052917232, 589.60
7.095533055188088, 589.62
7.095313072383149, 589.64
7.095093104500900, 589.66
7.094873151539818, 589.68
7.094653213498389, 589.70
7.094433290375093, 589.72
7.094213382168413, 589.74
7.093993488876832, 589.76
7.093773610498831, 589.78
7.093553747032893, 589.80
7.093333898477503, 589.82
7.093114064831140, 589.84
7.092894246092293, 589.86
7.092674442259443, 589.88
7.092454653331074, 589.90
7.092234879305670, 589.92
7.092015120181713, 589.94
7.091795375957692, 589.96
7.091575646632089, 589.98
7.091355932203390, 590.00
7.091136232670079, 590.02
7.090916548030643, 590.04
7.090696878283565, 590.06
7.090477223427332, 590.08
7.090257583460430, 590.10
7.090037958381346, 590.12
7.089818348188566, 590.14
7.089598752880575, 590.16
7.089379172455860, 590.18
7.089159606912911, 590.20
7.088940056250212, 590.22
7.088720520466251, 590.24
7.088500999559517, 590.26
7.088281493528496, 590.28
7.088062002371676, 590.30
7.087842526087547, 590.32
7.087623064674594, 590.34
7.087403618131310, 590.36
7.087184186456181, 590.38
7.086964769647697, 590.40
7.086745367704347, 590.42
7.086525980624619, 590.44
7.086306608407004, 590.46
7.086087251049993, 590.48
7.085867908552075, 590.50
7.085648580911739, 590.52
7.085429268127477, 590.54
7.085209970197779, 590.56
7.084990687121135, 590.58
7.084771418896038, 590.60
7.084552165520979, 590.62
7.084332926994447, 590.64
7.084113703314936, 590.66
7.083894494480937, 590.68
7.083675300490943, 590.70
7.083456121343445, 590.72
7.083236957036937, 590.74
7.083017807569910, 590.76
7.082798672940858, 590.78
7.082579553148275, 590.80
7.082360448190651, 590.82
7.082141358066481, 590.84
7.081922282774261, 590.86
7.081703222312483, 590.88
7.081484176679642, 590.90
7.081265145874231, 590.92
7.081046129894744, 590.94
7.080827128739678, 590.96
7.080608142407526, 590.98
7.080389170896785, 591.00
7.080170214205950, 591.02
7.079951272333514, 591.04
7.079732345277976, 591.06
7.079513433037829, 591.08
7.079294535611572, 591.10
7.079075652997700, 591.12
7.078856785194709, 591.14
7.078637932201096, 591.16
7.078419094015358, 591.18
7.078200270635994, 591.20
7.077981462061500, 591.22
7.077762668290373, 591.24
7.077543889321111, 591.26
7.077325125152213, 591.28
7.077106375782176, 591.30
7.076887641209498, 591.32
7.076668921432678, 591.34
7.076450216450216, 591.36
7.076231526260611, 591.38
7.076012850862361, 591.40
7.075794190253966, 591.42
7.075575544433923, 591.44
7.075356913400737, 591.46
7.075138297152905, 591.48
7.074919695688926, 591.50
7.074701109007304, 591.52
7.074482537106536, 591.54
7.074263979985125, 591.56
7.074045437641570, 591.58
7.073826910074374, 591.60
7.073608397282039, 591.62
7.073389899263065, 591.64
7.073171416015955, 591.66
7.072952947539210, 591.68
7.072734493831334, 591.70
7.072516054890826, 591.72
7.072297630716193, 591.74
7.072079221305935, 591.76
7.071860826658556, 591.78
7.071642446772559, 591.80
7.071424081646447, 591.82
7.071205731278724, 591.84
7.070987395667895, 591.86
7.070769074812462, 591.88
7.070550768710931, 591.90
7.070332477361807, 591.92
7.070114200763591, 591.94
7.069895938914791, 591.96
7.069677691813912, 591.98
7.069459459459460, 592.00
7.069241241849938, 592.02
7.069023038983853, 592.04
7.068804850859711, 592.06
7.068586677476016, 592.08
7.068368518831279, 592.10
7.068150374924002, 592.12
7.067932245752695, 592.14
7.067714131315861, 592.16
7.067496031612009, 592.18
7.067277946639648, 592.20
7.067059876397285, 592.22
7.066841820883426, 592.24
7.066623780096579, 592.26
7.066405754035254, 592.28
7.066187742697958, 592.30
7.065969746083200, 592.32
7.065751764189486, 592.34
7.065533797015329, 592.36
7.065315844559236, 592.38
7.065097906819717, 592.40
7.064879983795281, 592.42
7.064662075484437, 592.44
7.064444181885697, 592.46
7.064226302997570, 592.48
7.064008438818566, 592.50
7.063790589347196, 592.52
7.063572754581970, 592.54
7.063354934521399, 592.56
7.063137129163994, 592.58
7.062919338508268, 592.60
7.062701562552732, 592.62
7.062483801295897, 592.64
7.062266054736274, 592.66
7.062048322872376, 592.68
7.061830605702716, 592.70
7.061612903225806, 592.72
7.061395215440159, 592.74
7.061177542344288, 592.76
7.060959883936706, 592.78
7.060742240215926, 592.80
7.060524611180461, 592.82
7.060306996828824, 592.84
7.060089397159532, 592.86
7.059871812171098, 592.88
7.059654241862034, 592.90
7.059436686230859, 592.92
7.059219145276082, 592.94
7.059001618996223, 592.96
7.058784107389794, 592.98
7.058566610455312, 593.00
7.058349128191293, 593.02
7.058131660596251, 593.04
7.057914207668702, 593.06
7.057696769407163, 593.08
7.057479345810150, 593.10
7.057261936876181, 593.12
7.057044542603770, 593.14
7.056827162991437, 593.16
7.056609798037695, 593.18
7.056392447741065, 593.20
7.056175112100064, 593.22
7.055957791113209, 593.24
7.055740484779018, 593.26
7.055523193096009, 593.28
7.055305916062701, 593.30
7.055088653677612, 593.32
7.054871405939259, 593.34
7.054654172846164, 593.36
7.054436954396846, 593.38
7.054219750589822, 593.40
7.054002561423613, 593.42
7.053785386896737, 593.44
7.053568227007718, 593.46
7.053351081755072, 593.48
7.053133951137322, 593.50
7.052916835152987, 593.52
7.052699733800587, 593.54
7.052482647078645, 593.56
7.052265574985680, 593.58
7.052048517520216, 593.60
7.051831474680773, 593.62
7.051614446465872, 593.64
7.051397432874036, 593.66
7.051180433903786, 593.68
7.050963449553646, 593.70
7.050746479822139, 593.72
7.050529524707785, 593.74
7.050312584209109, 593.76
7.050095658324633, 593.78
7.049878747052881, 593.80
7.049661850392376, 593.82
7.049444968341641, 593.84
7.049228100899202, 593.86
7.049011248063582, 593.88
7.048794409833306, 593.90
7.048577586206897, 593.92
7.048360777182880, 593.94
7.048143982759782, 593.96
7.047927202936126, 593.98
7.047710437710438, 594.00
7.047493687081244, 594.02
7.047276951047068, 594.04
7.047060229606438, 594.06
7.046843522757878, 594.08
7.046626830499916, 594.10
7.046410152831078, 594.12
7.046193489749891, 594.14
7.045976841254881, 594.16
7.045760207344576, 594.18
7.045543588017503, 594.20
7.045326983272189, 594.22
7.045110393107162, 594.24
7.044893817520951, 594.26
7.044677256512083, 594.28
7.044460710079085, 594.30
7.044244178220488, 594.32
7.044027660934819, 594.34
7.043811158220607, 594.36
7.043594670076383, 594.38
7.043378196500673, 594.40
7.043161737492010, 594.42
7.042945293048920, 594.44
7.042728863169936, 594.46
7.042512447853587, 594.48
7.042296047098402, 594.50
7.042079660902914, 594.52
7.041863289265652, 594.54
7.041646932185146, 594.56
7.041430589659928, 594.58
7.041214261688530, 594.60
7.040997948269483, 594.62
7.040781649401319, 594.64
7.040565365082569, 594.66
7.040349095311764, 594.68
7.040132840087439, 594.70
7.039916599408125, 594.72
7.039700373272354, 594.74
7.039484161678661, 594.76
7.039267964625576, 594.78
7.039051782111635, 594.80
7.038835614135370, 594.82
7.038619460695313, 594.84
7.038403321790001, 594.86
7.038187197417967, 594.88
7.037971087577745, 594.90
7.037754992267868, 594.92
7.037538911486872, 594.94
7.037322845233293, 594.96
7.037106793505664, 594.98
7.036890756302522, 595.00
7.036674733622400, 595.02
7.036458725463835, 595.04
7.036242731825363, 595.06
7.036026752705518, 595.08
7.035810788102840, 595.10
7.035594838015863, 595.12
7.035378902443123, 595.14
7.035162981383158, 595.16
7.034947074834504, 595.18
7.034731182795698, 595.20
7.034515305265280, 595.22
7.034299442241785, 595.24
7.034083593723752, 595.26
7.033867759709717, 595.28
7.033651940198220, 595.30
7.033436135187799, 595.32
7.033220344676991, 595.34
7.033004568664338, 595.36
7.032788807148377, 595.38
7.032573060127646, 595.40
7.032357327600686, 595.42
7.032141609566035, 595.44
7.031925906022235, 595.46
7.031710216967825, 595.48
7.031494542401344, 595.50
7.031278882321333, 595.52
7.031063236726333, 595.54
7.030847605614884, 595.56
7.030631988985527, 595.58
7.030416386836803, 595.60
7.030200799167255, 595.62
7.029985225975422, 595.64
7.029769667259847, 595.66
7.029554123019071, 595.68
7.029338593251636, 595.70
7.029123077956087, 595.72
7.028907577130964, 595.74
7.028692090774809, 595.76
7.028476618886167, 595.78
7.028261161463579, 595.80
7.028045718505590, 595.82
7.027830290010741, 595.84
7.027614875977579, 595.86
7.027399476404645, 595.88
7.027184091290485, 595.90
7.026968720633643, 595.92
7.026753364432660, 595.94
7.026538022686086, 595.96
7.026322695392463, 595.98
7.026107382550336, 596.00
7.025892084158250, 596.02
7.025676800214751, 596.04
7.025461530718385, 596.06
7.025246275667696, 596.08
7.025031035061231, 596.10
7.024815808897538, 596.12
7.024600597175160, 596.14
7.024385399892647, 596.16
7.024170217048542, 596.18
7.023955048641396, 596.20
7.023739894669752, 596.22
7.023524755132161, 596.24
7.023309630027169, 596.26
7.023094519353324, 596.28
7.022879423109174, 596.30
7.022664341293266, 596.32
7.022449273904148, 596.34
7.022234220940372, 596.36
7.022019182400483, 596.38
7.021804158283032, 596.40
7.021589148586568, 596.42
7.021374153309637, 596.44
7.021159172450793, 596.46
7.020944206008584, 596.48
7.020729253981560, 596.50
7.020514316368270, 596.52
7.020299393167265, 596.54
7.020084484377096, 596.56
7.019869589996312, 596.58
7.019654710023467, 596.60
7.019439844457109, 596.62
7.019224993295790, 596.64
7.019010156538062, 596.66
7.018795334182476, 596.68
7.018580526227585, 596.70
7.018365732671940, 596.72
7.018150953514094, 596.74
7.017936188752598, 596.76
7.017721438386006, 596.78
7.017506702412869, 596.80
7.017291980831742, 596.82
7.017077273641177, 596.84
7.016862580839728, 596.86
7.016647902425949, 596.88
7.016433238398392, 596.90
7.016218588755613, 596.92
7.016003953496163, 596.94
7.015789332618601, 596.96
7.015574726121478, 596.98
7.015360134003350, 597.00
7.015145556262772, 597.02
7.014930992898299, 597.04
7.014716443908486, 597.06
7.014501909291887, 597.08
7.014287389047061, 597.10
7.014072883172562, 597.12
7.013858391666946, 597.14
7.013643914528770, 597.16
7.013429451756589, 597.18
7.013215003348962, 597.20
7.013000569304444, 597.22
7.012786149621593, 597.24
7.012571744298966, 597.26
7.012357353335120, 597.28
7.012142976728613, 597.30
7.011928614478003, 597.32
7.011714266581846, 597.34
7.011499933038704, 597.36
7.011285613847133, 597.38
7.011071309005692, 597.40
7.010857018512939, 597.42
7.010642742367434, 597.44
7.010428480567737, 597.46
7.010214233112405, 597.48
7.010000000000001, 597.50
7.009785781229080, 597.52
7.009571576798207, 597.54
7.009357386705938, 597.56
7.009143210950834, 597.58
7.008929049531459, 597.60
7.008714902446371, 597.62
7.008500769694130, 597.64
7.008286651273300, 597.66
7.008072547182438, 597.68
7.007858457420110, 597.70
7.007644381984876, 597.72
7.007430320875297, 597.74
7.007216274089936, 597.76
7.007002241627355, 597.78
7.006788223486117, 597.80
7.006574219664783, 597.82
7.006360230161916, 597.84
7.006146254976081, 597.86
7.005932294105841, 597.88
7.005718347549758, 597.90
7.005504415306397, 597.92
7.005290497374318, 597.94
7.005076593752090, 597.96
7.004862704438276, 597.98
7.004648829431439, 598.00
7.004434968730143, 598.02
7.004221122332955, 598.04
7.004007290238438, 598.06
7.003793472445158, 598.08
7.003579668951680, 598.10
7.003365879756571, 598.12
7.003152104858395, 598.14
7.002938344255718, 598.16
7.002724597947106, 598.18
7.002510865931127, 598.20
7.002297148206345, 598.22
7.002083444771330, 598.24
7.001869755624646, 598.26
7.001656080764860, 598.28
7.001442420190541, 598.30
7.001228773900255, 598.32
7.001015141892569, 598.34
7.000801524166054, 598.36
7.000587920719275, 598.38
7.000374331550803, 598.40
7.000160756659203, 598.42
6.999947196043045, 598.44
6.999733649700899, 598.46
6.999520117631333, 598.48
6.999306599832916, 598.50
6.999093096304217, 598.52
6.998879607043808, 598.54
6.998666132050255, 598.56
6.998452671322129, 598.58
6.998239224858002, 598.60
6.998025792656444, 598.62
6.997812374716023, 598.64
6.997598971035313, 598.66
6.997385581612881, 598.68
6.997172206447303, 598.70
6.996958845537146, 598.72
6.996745498880983, 598.74
6.996532166477387, 598.76
6.996318848324928, 598.78
6.996105544422178, 598.80
6.995892254767710, 598.82
6.995678979360096, 598.84
6.995465718197909, 598.86
6.995252471279723, 598.88
6.995039238604108, 598.90
6.994826020169639, 598.92
6.994612815974889, 598.94
6.994399626018432, 598.96
6.994186450298842, 598.98
6.993973288814692, 599.00
6.993760141564556, 599.02
6.993547008547009, 599.04
6.993333889760626, 599.06
6.993120785203979, 599.08
6.992907694875647, 599.10
6.992694618774203, 599.12
6.992481556898221, 599.14
6.992268509246279, 599.16
6.992055475816949, 599.18
6.991842456608811, 599.20
6.991629451620440, 599.22
6.991416460850410, 599.24
6.991203484297301, 599.26
6.990990521959685, 599.28
6.990777573836143, 599.30
6.990564639925250, 599.32
6.990351720225582, 599.34
6.990138814735718, 599.36
6.989925923454236, 599.38
6.989713046379713, 599.40
6.989500183510728, 599.42
6.989287334845856, 599.44
6.989074500383679, 599.46
6.988861680122773, 599.48
6.988648874061719, 599.50
6.988436082199093, 599.52
6.988223304533476, 599.54
6.988010541063447, 599.56
6.987797791787584, 599.58
6.987585056704470, 599.60
6.987372335812681, 599.62
6.987159629110800, 599.64
6.986946936597406, 599.66
6.986734258271078, 599.68
6.986521594130398, 599.70
6.986308944173948, 599.72
6.986096308400307, 599.74
6.985883686808057, 599.76
6.985671079395779, 599.78
6.985458486162055, 599.80
6.985245907105466, 599.82
6.985033342224593, 599.84
6.984820791518021, 599.86
6.984608254984330, 599.88
6.984395732622104, 599.90
6.984183224429925, 599.92
6.983970730406374, 599.94
6.983758250550037, 599.96
6.983545784859495, 599.98
6.983333333333333, 600.00
6.983120895970135, 600.02
6.982908472768483, 600.04
6.982696063726961, 600.06
6.982483668844154, 600.08
6.982271288118647, 600.10
6.982058921549024, 600.12
6.981846569133869, 600.14
6.981634230871768, 600.16
6.981421906761304, 600.18
6.981209596801066, 600.20
6.980997300989637, 600.22
6.980785019325603, 600.24
6.980572751807551, 600.26
6.980360498434065, 600.28
6.980148259203732, 600.30
6.979936034115140, 600.32
6.979723823166872, 600.34
6.979511626357519, 600.36
6.979299443685666, 600.38
6.979087275149901, 600.40
6.978875120748810, 600.42
6.978662980480981, 600.44
6.978450854345002, 600.46
6.978238742339462, 600.48
6.978026644462948, 600.50
6.977814560714048, 600.52
6.977602491091352, 600.54
6.977390435593447, 600.56
6.977178394218922, 600.58
6.976966366966367, 600.60
6.976754353834371, 600.62
6.976542354821524, 600.64
6.976330369926415, 600.66
6.976118399147633, 600.68
6.975906442483769, 600.70
6.975694499933414, 600.72
6.975482571495156, 600.74
6.975270657167588, 600.76
6.975058756949299, 600.78
6.974846870838882, 600.80
6.974634998834927, 600.82
6.974423140936023, 600.84
6.974211297140765, 600.86
6.973999467447744, 600.88
6.973787651855551, 600.90
6.973575850362778, 600.92
6.973364062968017, 600.94
6.973152289669861, 600.96
6.972940530466905, 600.98
6.972728785357737, 601.00
6.972517054340954, 601.02
6.972305337415148, 601.04
6.972093634578911, 601.06
6.971881945830837, 601.08
6.971670271169523, 601.10
6.971458610593559, 601.12
6.971246964101541, 601.14
6.971035331692063, 601.16
6.970823713363718, 601.18
6.970612109115103, 601.20
6.970400518944812, 601.22
6.970188942851441, 601.24
6.969977380833583, 601.26
6.969765832889836, 601.28
6.969554299018793, 601.30
6.969342779219052, 601.32
6.969131273489207, 601.34
6.968919781827857, 601.36
6.968708304233596, 601.38
6.968496840705022, 601.40
6.968285391240731, 601.42
6.968073955839318, 601.44
6.967862534499385, 601.46
6.967651127219526, 601.48
6.967439733998337, 601.50
6.967228354834420, 601.52
6.967016989726369, 601.54
6.966805638672785, 601.56
6.966594301672263, 601.58
6.966382978723404, 601.60
6.966171669824806, 601.62
6.965960374975069, 601.64
6.965749094172789, 601.66
6.965537827416567, 601.68
6.965326574705002, 601.70
6.965115336036694, 601.72
6.964904111410243, 601.74
6.964692900824249, 601.76
6.964481704277311, 601.78
6.964270521768030, 601.80
6.964059353295006, 601.82
6.963848198856839, 601.84
6.963637058452132, 601.86
6.963425932079485, 601.88
6.963214819737498, 601.90
6.963003721424775, 601.92
6.962792637139914, 601.94
6.962581566881521, 601.96
6.962370510648195, 601.98
6.962159468438538, 602.00
6.961948440251155, 602.02
6.961737426084646, 602.04
6.961526425937615, 602.06
6.961315439808663, 602.08
6.961104467696396, 602.10
6.960893509599416, 602.12
6.960682565516326, 602.14
6.960471635445729, 602.16
6.960260719386230, 602.18
6.960049817336433, 602.20
6.959838929294942, 602.22
6.959628055260361, 602.24
6.959417195231296, 602.26
6.959206349206350, 602.28
6.958995517184128, 602.30
6.958784699163236, 602.32
6.958573895142279, 602.34
6.958363105119862, 602.36
6.958152329094592, 602.38
6.957941567065074, 602.40
6.957730819029914, 602.42
6.957520084987716, 602.44
6.957309364937092, 602.46
6.957098658876643, 602.48
6.956887966804979, 602.50
6.956677288720707, 602.52
6.956466624622433, 602.54
6.956255974508763, 602.56
6.956045338378306, 602.58
6.955834716229671, 602.60
6.955624108061465, 602.62
6.955413513872296, 602.64
6.955202933660771, 602.66
6.954992367425499, 602.68
6.954781815165091, 602.70
6.954571276878152, 602.72
6.954360752563295, 602.74
6.954150242219126, 602.76
6.953939745844256, 602.78
6.953729263437293, 602.80
6.953518794996850, 602.82
6.953308340521532, 602.84
6.953097900009952, 602.86
6.952887473460723, 602.88
6.952677060872451, 602.90
6.952466662243748, 602.92
6.952256277573224, 602.94
6.952045906859493, 602.96
6.951835550101165, 602.98
6.951625207296850, 603.00
6.951414878445160, 603.02
6.951204563544708, 603.04
6.950994262594104, 603.06
6.950783975591961, 603.08
6.950573702536893, 603.10
6.950363443427510, 603.12
6.950153198262427, 603.14
6.949942967040255, 603.16
6.949732749759607, 603.18
6.949522546419098, 603.20
6.949312357017340, 603.22
6.949102181552948, 603.24
6.948892020024534, 603.26
6.948681872430713, 603.28
6.948471738770099, 603.30
6.948261619041306, 603.32
6.948051513242947, 603.34
6.947841421373641, 603.36
6.947631343432001, 603.38
6.947421279416639, 603.40
6.947211229326175, 603.42
6.947001193159220, 603.44
6.946791170914394, 603.46
6.946581162590309, 603.48
6.946371168185585, 603.50
6.946161187698834, 603.52
6.945951221128674, 603.54
6.945741268473723, 603.56
6.945531329732596, 603.58
6.945321404903910, 603.60
6.945111493986283, 603.62
6.944901596978332, 603.64
6.944691713878674, 603.66
6.944481844685926, 603.68
6.944271989398707, 603.70
6.944062148015637, 603.72
6.943852320535330, 603.74
6.943642506956407, 603.76
6.943432707277486, 603.78
6.943222921497186, 603.80
6.943013149614124, 603.82
6.942803391626921, 603.84
6.942593647534196, 603.86
6.942383917334570, 603.88
6.942174201026661, 603.90
6.941964498609088, 603.92
6.941754810080472, 603.94
6.941545135439433, 603.96
6.941335474684593, 603.98
6.941125827814570, 604.00
6.940916194827986, 604.02
6.940706575723462, 604.04
6.940496970499620, 604.06
6.940287379155079, 604.08
6.940077801688462, 604.10
6.939868238098391, 604.12
6.939658688383488, 604.14
6.939449152542373, 604.16
6.939239630573669, 604.18
6.939030122476002, 604.20
6.938820628247989, 604.22
6.938611147888256, 604.24
6.938401681395426, 604.26
6.938192228768122, 604.28
6.937982790004965, 604.30
6.937773365104581, 604.32
6.937563954065592, 604.34
6.937354556886624, 604.36
6.937145173566300, 604.38
6.936935804103244, 604.40
6.936726448496080, 604.42
6.936517106743431, 604.44
6.936307778843926, 604.46
6.936098464796189, 604.48
6.935889164598843, 604.50
6.935679878250514, 604.52
6.935470605749827, 604.54
6.935261347095409, 604.56
6.935052102285884, 604.58
6.934842871319881, 604.60
6.934633654196024, 604.62
6.934424450912941, 604.64
6.934215261469256, 604.66
6.934006085863597, 604.68
6.933796924094592, 604.70
6.933587776160868, 604.72
6.933378642061051, 604.74
6.933169521793769, 604.76
6.932960415357651, 604.78
6.932751322751323, 604.80
6.932542243973415, 604.82
6.932333179022551, 604.84
6.932124127897365, 604.86
6.931915090596482, 604.88
6.931706067118532, 604.90
6.931497057462145, 604.92
6.931288061625946, 604.94
6.931079079608569, 604.96
6.930870111408642, 604.98
6.930661157024794, 605.00
6.930452216455655, 605.02
6.930243289699855, 605.04
6.930034376756026, 605.06
6.929825477622794, 605.08
6.929616592298793, 605.10
6.929407720782655, 605.12
6.929198863073008, 605.14
6.928990019168485, 605.16
6.928781189067715, 605.18
6.928572372769333, 605.20
6.928363570271967, 605.22
6.928154781574252, 605.24
6.927946006674818, 605.26
6.927737245572298, 605.28
6.927528498265324, 605.30
6.927319764752529, 605.32
6.927111045032544, 605.34
6.926902339104005, 605.36
6.926693646965543, 605.38
6.926484968615791, 605.40
6.926276304053385, 605.42
6.926067653276955, 605.44
6.925859016285139, 605.46
6.925650393076568, 605.48
6.925441783649877, 605.50
6.925233188003700, 605.52
6.925024606136672, 605.54
6.924816038047428, 605.56
6.924607483734602, 605.58
6.924398943196830, 605.60
6.924190416432747, 605.62
6.923981903440988, 605.64
6.923773404220190, 605.66
6.923564918768987, 605.68
6.923356447086016, 605.70
6.923147989169913, 605.72
6.922939545019315, 605.74
6.922731114632859, 605.76
6.922522698009179, 605.78
6.922314295146914, 605.80
6.922105906044701, 605.82
6.921897530701175, 605.84
6.921689169114977, 605.86
6.921480821284743, 605.88
6.921272487209111, 605.90
6.921064166886718, 605.92
6.920855860316203, 605.94
6.920647567496204, 605.96
6.920439288425361, 605.98
6.920231023102311, 606.00
6.920022771525693, 606.02
6.919814533694146, 606.04
6.919606309606310, 606.06
6.919398099260824, 606.08
6.919189902656328, 606.10
6.918981719791461, 606.12
6.918773550664864, 606.14
6.918565395275175, 606.16
6.918357253621036, 606.18
6.918149125701088, 606.20
6.917941011513972, 606.22
6.917732911058327, 606.24
6.917524824332795, 606.26
6.917316751336017, 606.28
6.917108692066634, 606.30
6.916900646523289, 606.32
6.916692614704621, 606.34
6.916484596609275, 606.36
6.916276592235892, 606.38
6.916068601583114, 606.40
6.915860624649584, 606.42
6.915652661433942, 606.44
6.915444711934835, 606.46
6.915236776150904, 606.48
6.915028854080791, 606.50
6.914820945723142, 606.52
6.914613051076599, 606.54
6.914405170139806, 606.56
6.914197302911405, 606.58
6.913989449390043, 606.60
6.913781609574363, 606.62
6.913573783463010, 606.64
6.913365971054628, 606.66
6.913158172347861, 606.68
6.912950387341355, 606.70
6.912742616033755, 606.72
6.912534858423707, 606.74
6.912327114509856, 606.76
6.912119384290848, 606.78
6.911911667765327, 606.80
6.911703964931942, 606.82
6.911496275789335, 606.84
6.911288600336157, 606.86
6.911080938571052, 606.88
6.910873290492669, 606.90
6.910665656099652, 606.92
6.910458035390648, 606.94
6.910250428364307, 606.96
6.910042835019276, 606.98
6.909835255354201, 607.00
6.909627689367731, 607.02
6.909420137058514, 607.04
6.909212598425198, 607.06
6.909005073466429, 607.08
6.908797562180860, 607.10
6.908590064567137, 607.12
6.908382580623909, 607.14
6.908175110349826, 607.16
6.907967653743535, 607.18
6.907760210803689, 607.20
6.907552781528935, 607.22
6.907345365917924, 607.24
6.907137963969305, 607.26
6.906930575681729, 607.28
6.906723201053846, 607.30
6.906515840084306, 607.32
6.906308492771759, 607.34
6.906101159114858, 607.36
6.905893839112253, 607.38
6.905686532762595, 607.40
6.905479240064536, 607.42
6.905271961016726, 607.44
6.905064695617819, 607.46
6.904857443866465, 607.48
6.904650205761317, 607.50
6.904442981301028, 607.52
6.904235770484249, 607.54
6.904028573309633, 607.56
6.903821389775832, 607.58
6.903614219881501, 607.60
6.903407063625292, 607.62
6.903199921005859, 607.64
6.902992792021855, 607.66
6.902785676671932, 607.68
6.902578574954747, 607.70
6.902371486868953, 607.72
6.902164412413203, 607.74
6.901957351586153, 607.76
6.901750304386456, 607.78
6.901543270812768, 607.80
6.901336250863744, 607.82
6.901129244538036, 607.84
6.900922251834304, 607.86
6.900715272751201, 607.88
6.900508307287383, 607.90
6.900301355441506, 607.92
6.900094417212225, 607.94
6.899887492598197, 607.96
6.899680581598079, 607.98
6.899473684210527, 608.00
6.899266800434197, 608.02
6.899059930267747, 608.04
6.898853073709832, 608.06
6.898646230759111, 608.08
6.898439401414241, 608.10
6.898232585673880, 608.12
6.898025783536686, 608.14
6.897818995001316, 608.16
6.897612220066427, 608.18
6.897405458730680, 608.20
6.897198710992733, 608.22
6.896991976851243, 608.24
6.896785256304870, 608.26
6.896578549352273, 608.28
6.896371855992110, 608.30
6.896165176223041, 608.32
6.895958510043726, 608.34
6.895751857452824, 608.36
6.895545218448996, 608.38
6.895338593030901, 608.40
6.895131981197200, 608.42
6.894925382946552, 608.44
6.894718798277619, 608.46
6.894512227189061, 608.48
6.894305669679540, 608.50
6.894099125747716, 608.52
6.893892595392251, 608.54
6.893686078611806, 608.56
6.893479575405041, 608.58
6.893273085770621, 608.60
6.893066609707207, 608.62
6.892860147213460, 608.64
6.892653698288044, 608.66
6.892447262929618, 608.68
6.892240841136849, 608.70
6.892034432908398, 608.72
6.891828038242928, 608.74
6.891621657139103, 608.76
6.891415289595585, 608.78
6.891208935611039, 608.80
6.891002595184128, 608.82
6.890796268313514, 608.84
6.890589954997865, 608.86
6.890383655235843, 608.88
6.890177369026113, 608.90
6.889971096367340, 608.92
6.889764837258186, 608.94
6.889558591697320, 608.96
6.889352359683405, 608.98
6.889146141215107, 609.00
6.888939936291091, 609.02
6.888733744910023, 609.04
6.888527567070569, 609.06
6.888321402771393, 609.08
6.888115252011164, 609.10
6.887909114788548, 609.12
6.887702991102210, 609.14
6.887496880950819, 609.16
6.887290784333038, 609.18
6.887084701247538, 609.20
6.886878631692984, 609.22
6.886672575668046, 609.24
6.886466533171388, 609.26
6.886260504201681, 609.28
6.886054488757591, 609.30
6.885848486837787, 609.32
6.885642498440936, 609.34
6.885436523565708, 609.36
6.885230562210772, 609.38
6.885024614374795, 609.40
6.884818680056448, 609.42
6.884612759254397, 609.44
6.884406851967316, 609.46
6.884200958193870, 609.48
6.883995077932732, 609.50
6.883789211182570, 609.52
6.883583357942055, 609.54
6.883377518209858, 609.56
6.883171691984645, 609.58
6.882965879265092, 609.60
6.882760080049867, 609.62
6.882554294337642, 609.64
6.882348522127088, 609.66
6.882142763416874, 609.68
6.881937018205675, 609.70
6.881731286492160, 609.72
6.881525568275003, 609.74
6.881319863552874, 609.76
6.881114172324446, 609.78
6.880908494588390, 609.80
6.880702830343381, 609.82
6.880497179588088, 609.84
6.880291542321189, 609.86
6.880085918541353, 609.88
6.879880308247254, 609.90
6.879674711437566, 609.92
6.879469128110961, 609.94
6.879263558266116, 609.96
6.879058001901702, 609.98
6.878852459016394, 610.00
6.878646929608866, 610.02
6.878441413677792, 610.04
6.878235911221848, 610.06
6.878030422239706, 610.08
6.877824946730044, 610.10
6.877619484691536, 610.12
6.877414036122858, 610.14
6.877208601022684, 610.16
6.877003179389688, 610.18
6.876797771222550, 610.20
6.876592376519944, 610.22
6.876386995280545, 610.24
6.876181627503032, 610.26
6.875976273186079, 610.28
6.875770932328364, 610.30
6.875565604928563, 610.32
6.875360290985353, 610.34
6.875154990497411, 610.36
6.874949703463416, 610.38
6.874744429882045, 610.40
6.874539169751975, 610.42
6.874333923071882, 610.44
6.874128689840449, 610.46
6.873923470056349, 610.48
6.873718263718264, 610.50
6.873513070824871, 610.52
6.873307891374849, 610.54
6.873102725366877, 610.56
6.872897572799633, 610.58
6.872692433671799, 610.60
6.872487307982051, 610.62
6.872282195729071, 610.64
6.872077096911539, 610.66
6.871872011528132, 610.68
6.871666939577534, 610.70
6.871461881058423, 610.72
6.871256835969480, 610.74
6.871051804309386, 610.76
6.870846786076821, 610.78
6.870641781270466, 610.80
6.870436789889003, 610.82
6.870231811931111, 610.84
6.870026847395476, 610.86
6.869821896280776, 610.88
6.869616958585694, 610.90
6.869412034308912, 610.92
6.869207123449111, 610.94
6.869002226004976, 610.96
6.868797341975188, 610.98
6.868592471358429, 611.00
6.868387614153384, 611.02
6.868182770358733, 611.04
6.867977939973162, 611.06
6.867773122995352, 611.08
6.867568319423990, 611.10
6.867363529257757, 611.12
6.867158752495337, 611.14
6.866953989135415, 611.16
6.866749239176674, 611.18
6.866544502617801, 611.20
6.866339779457478, 611.22
6.866135069694392, 611.24
6.865930373327227, 611.26
6.865725690354666, 611.28
6.865521020775398, 611.30
6.865316364588105, 611.32
6.865111721791474, 611.34
6.864907092384192, 611.36
6.864702476364945, 611.38
6.864497873732418, 611.40
6.864293284485298, 611.42
6.864088708622268, 611.44
6.863884146142021, 611.46
6.863679597043239, 611.48
6.863475061324612, 611.50
6.863270538984826, 611.52
6.863066030022567, 611.54
6.862861534436524, 611.56
6.862657052225384, 611.58
6.862452583387835, 611.60
6.862248127922567, 611.62
6.862043685828265, 611.64
6.861839257103620, 611.66
6.861634841747319, 611.68
6.861430439758051, 611.70
6.861226051134506, 611.72
6.861021675875372, 611.74
6.860817313979338, 611.76
6.860612965445095, 611.78
6.860408630271332, 611.80
6.860204308456737, 611.82
6.860000000000000, 611.84
6.859795704899814, 611.86
6.859591423154868, 611.88
6.859387154763851, 611.90
6.859182899725455, 611.92
6.858978658038369, 611.94
6.858774429701287, 611.96
6.858570214712899, 611.98
6.858366013071896, 612.00
6.858161824776968, 612.02
6.857957649826809, 612.04
6.857753488220110, 612.06
6.857549339955561, 612.08
6.857345205031858, 612.10
6.857141083447690, 612.12
6.856936975201751, 612.14
6.856732880292735, 612.16
6.856528798719331, 612.18
6.856324730480235, 612.20
6.856120675574140, 612.22
6.855916633999739, 612.24
6.855712605755725, 612.26
6.855508590840793, 612.28
6.855304589253635, 612.30
6.855100600992946, 612.32
6.854896626057419, 612.34
6.854692664445751, 612.36
6.854488716156635, 612.38
6.854284781188766, 612.40
6.854080859540839, 612.42
6.853876951211547, 612.44
6.853673056199589, 612.46
6.853469174503657, 612.48
6.853265306122450, 612.50
6.853061451054660, 612.52
6.852857609298986, 612.54
6.852653780854121, 612.56
6.852449965718763, 612.58
6.852246163891610, 612.60
6.852042375371356, 612.62
6.851838600156699, 612.64
6.851634838246336, 612.66
6.851431089638963, 612.68
6.851227354333279, 612.70
6.851023632327980, 612.72
6.850819923621764, 612.74
6.850616228213330, 612.76
6.850412546101374, 612.78
6.850208877284596, 612.80
6.850005221761693, 612.82
6.849801579531362, 612.84
6.849597950592305, 612.86
6.849394334943219, 612.88
6.849190732582803, 612.90
6.848987143509757, 612.92
6.848783567722778, 612.94
6.848580005220569, 612.96
6.848376456001827, 612.98
6.848172920065253, 613.00
6.847969397409547, 613.02
6.847765888033408, 613.04
6.847562391935537, 613.06
6.847358909114634, 613.08
6.847155439569401, 613.10
6.846951983298539, 613.12
6.846748540300747, 613.14
6.846545110574728, 613.16
6.846341694119181, 613.18
6.846138290932811, 613.20
6.845934901014318, 613.22
6.845731524362403, 613.24
6.845528160975769, 613.26
6.845324810853119, 613.28
6.845121473993153, 613.30
6.844918150394575, 613.32
6.844714840056087, 613.34
6.844511542976393, 613.36
6.844308259154195, 613.38
6.844104988588198, 613.40
6.843901731277103, 613.42
6.843698487219614, 613.44
6.843495256414436, 613.46
6.843292038860272, 613.48
6.843088834555828, 613.50
6.842885643499805, 613.52
6.842682465690909, 613.54
6.842479301127845, 613.56
6.842276149809316, 613.58
6.842073011734029, 613.60
6.841869886900688, 613.62
6.841666775307998, 613.64
6.841463676954666, 613.66
6.841260591839395, 613.68
6.841057519960893, 613.70
6.840854461317865, 613.72
6.840651415909017, 613.74
6.840448383733055, 613.76
6.840245364788687, 613.78
6.840042359074618, 613.80
6.839839366589555, 613.82
6.839636387332204, 613.84
6.839433421301274, 613.86
6.839230468495471, 613.88
6.839027528913505, 613.90
6.838824602554079, 613.92
6.838621689415904, 613.94
6.838418789497687, 613.96
6.838215902798137, 613.98
6.838013029315961, 614.00
6.837810169049868, 614.02
6.837607321998568, 614.04
6.837404488160767, 614.06
6.837201667535174, 614.08
6.836998860120501, 614.10
6.836796065915457, 614.12
6.836593284918749, 614.14
6.836390517129088, 614.16
6.836187762545181, 614.18
6.835985021165744, 614.20
6.835782292989482, 614.22
6.835579578015109, 614.24
6.835376876241331, 614.26
6.835174187666863, 614.28
6.834971512290412, 614.30
6.834768850110692, 614.32
6.834566201126412, 614.34
6.834363565336285, 614.36
6.834160942739022, 614.38
6.833958333333334, 614.40
6.833755737117933, 614.42
6.833553154091530, 614.44
6.833350584252840, 614.46
6.833148027600573, 614.48
6.832945484133442, 614.50
6.832742953850160, 614.52
6.832540436749439, 614.54
6.832337932829993, 614.56
6.832135442090533, 614.58
6.831932964529775, 614.60
6.831730500146432, 614.62
6.831528048939217, 614.64
6.831325610906844, 614.66
6.831123186048025, 614.68
6.830920774361477, 614.70
6.830718375845914, 614.72
6.830515990500049, 614.74
6.830313618322598, 614.76
6.830111259312275, 614.78
6.829908913467795, 614.80
6.829706580787874, 614.82
6.829504261271225, 614.84
6.829301954916566, 614.86
6.829099661722613, 614.88
6.828897381688080, 614.90
6.828695114811683, 614.92
6.828492861092139, 614.94
6.828290620528165, 614.96
6.828088393118476, 614.98
6.827886178861789, 615.00
6.827683977756822, 615.02
6.827481789802290, 615.04
6.827279614996912, 615.06
6.827077453339403, 615.08
6.826875304828484, 615.10
6.826673169462869, 615.12
6.826471047241279, 615.14
6.826268938162430, 615.16
6.826066842225040, 615.18
6.825864759427828, 615.20
6.825662689769513, 615.22
6.825460633248814, 615.24
6.825258589864448, 615.26
6.825056559615136, 615.28
6.824854542499595, 615.30
6.824652538516546, 615.32
6.824450547664705, 615.34
6.824248569942798, 615.36
6.824046605349540, 615.38
6.823844653883653, 615.40
6.823642715543857, 615.42
6.823440790328871, 615.44
6.823238878237416, 615.46
6.823036979268213, 615.48
6.822835093419984, 615.50
6.822633220691448, 615.52
6.822431361081327, 615.54
6.822229514588344, 615.56
6.822027681211216, 615.58
6.821825860948668, 615.60
6.821624053799422, 615.62
6.821422259762199, 615.64
6.821220478835722, 615.66
6.821018711018711, 615.68
6.820816956309891, 615.70
6.820615214707984, 615.72
6.820413486211713, 615.74
6.820211770819800, 615.76
6.820010068530969, 615.78
6.819808379343944, 615.80
6.819606703257446, 615.82
6.819405040270200, 615.84
6.819203390380931, 615.86
6.819001753588362, 615.88
6.818800129891216, 615.90
6.818598519288220, 615.92
6.818396921778095, 615.94
6.818195337359569, 615.96
6.817993766031365, 615.98
6.817792207792208, 616.00
6.817590662640824, 616.02
6.817389130575937, 616.04
6.817187611596274, 616.06
6.816986105700559, 616.08
6.816784612887519, 616.10
6.816583133155879, 616.12
6.816381666504366, 616.14
6.816180212931707, 616.16
6.815978772436625, 616.18
6.815777345017851, 616.20
6.815575930674110, 616.22
6.815374529404129, 616.24
6.815173141206634, 616.26
6.814971766080354, 616.28
6.814770404024015, 616.30
6.814569055036346, 616.32
6.814367719116072, 616.34
6.814166396261925, 616.36
6.813965086472631, 616.38
6.813763789746918, 616.40
6.813562506083516, 616.42
6.813361235481150, 616.44
6.813159977938552, 616.46
6.812958733454451, 616.48
6.812757502027575, 616.50
6.812556283656654, 616.52
6.812355078340417, 616.54
6.812153886077593, 616.56
6.811952706866911, 616.58
6.811751540707103, 616.60
6.811550387596900, 616.62
6.811349247535029, 616.64
6.811148120520222, 616.66
6.810947006551209, 616.68
6.810745905626723, 616.70
6.810544817745492, 616.72
6.810343742906249, 616.74
6.810142681107725, 616.76
6.809941632348650, 616.78
6.809740596627757, 616.80
6.809539573943777, 616.82
6.809338564295441, 616.84
6.809137567681484, 616.86
6.808936584100636, 616.88
6.808735613551629, 616.90
6.808534656033198, 616.92
6.808333711544072, 616.94
6.808132780082987, 616.96
6.807931861648676, 616.98
6.807730956239871, 617.00
6.807530063855305, 617.02
6.807329184493713, 617.04
6.807128318153827, 617.06
6.806927464834382, 617.08
6.806726624534111, 617.10
6.806525797251751, 617.12
6.806324982986033, 617.14
6.806124181735693, 617.16
6.805923393499465, 617.18
6.805722618276086, 617.20
6.805521856064288, 617.22
6.805321106862809, 617.24
6.805120370670382, 617.26
6.804919647485744, 617.28
6.804718937307631, 617.30
6.804518240134777, 617.32
6.804317555965918, 617.34
6.804116884799793, 617.36
6.803916226635136, 617.38
6.803715581470684, 617.40
6.803514949305174, 617.42
6.803314330137341, 617.44
6.803113723965925, 617.46
6.802913130789661, 617.48
6.802712550607287, 617.50
6.802511983417542, 617.52
6.802311429219160, 617.54
6.802110888010882, 617.56
6.801910359791444, 617.58
6.801709844559586, 617.60
6.801509342314045, 617.62
6.801308853053559, 617.64
6.801108376776869, 617.66
6.800907913482710, 617.68
6.800707463169823, 617.70
6.800507025836949, 617.72
6.800306601482824, 617.74
6.800106190106191, 617.76
6.799905791705786, 617.78
6.799705406280350, 617.80
6.799505033828624, 617.82
6.799304674349346, 617.84
6.799104327841259, 617.86
6.798903994303101, 617.88
6.798703673733614, 617.90
6.798503366131539, 617.92
6.798303071495615, 617.94
6.798102789824584, 617.96
6.797902521117188, 617.98
6.797702265372169, 618.00
6.797502022588266, 618.02
6.797301792764223, 618.04
6.797101575898781, 618.06
6.796901371990681, 618.08
6.796701181038667, 618.10
6.796501003041481, 618.12
6.796300837997865, 618.14
6.796100685906562, 618.16
6.795900546766314, 618.18
6.795700420575865, 618.20
6.795500307333959, 618.22
6.795300207039338, 618.24
6.795100119690745, 618.26
6.794900045286925, 618.28
6.794699983826622, 618.30
6.794499935308579, 618.32
6.794299899731540, 618.34
6.794099877094250, 618.36
6.793899867395453, 618.38
6.793699870633895, 618.40
6.793499886808319, 618.42
6.793299915917469, 618.44
6.793099957960094, 618.46
6.792900012934937, 618.48
6.792700080840744, 618.50
6.792500161676260, 618.52
6.792300255440231, 618.54
6.792100362131403, 618.56
6.791900481748521, 618.58
6.791700614290333, 618.60
6.791500759755586, 618.62
6.791300918143024, 618.64
6.791101089451396, 618.66
6.790901273679446, 618.68
6.790701470825925, 618.70
6.790501680889578, 618.72
6.790301903869154, 618.74
6.790102139763398, 618.76
6.789902388571059, 618.78
6.789702650290886, 618.80
6.789502924921626, 618.82
6.789303212462026, 618.84
6.789103512910836, 618.86
6.788903826266805, 618.88
6.788704152528680, 618.90
6.788504491695211, 618.92
6.788304843765147, 618.94
6.788105208737236, 618.96
6.787905586610230, 618.98
6.787705977382876, 619.00
6.787506381053924, 619.02
6.787306797622125, 619.04
6.787107227086229, 619.06
6.786907669444982, 619.08
6.786708124697141, 619.10
6.786508592841453, 619.12
6.786309073876668, 619.14
6.786109567801538, 619.16
6.785910074614812, 619.18
6.785710594315245, 619.20
6.785511126901586, 619.22
6.785311672372586, 619.24
6.785112230726997, 619.26
6.784912801963571, 619.28
6.784713386081060, 619.30
6.784513983078216, 619.32
6.784314592953789, 619.34
6.784115215706536, 619.36
6.783915851335206, 619.38
6.783716499838554, 619.40
6.783517161215332, 619.42
6.783317835464290, 619.44
6.783118522584187, 619.46
6.782919222573772, 619.48
6.782719935431800, 619.50
6.782520661157025, 619.52
6.782321399748201, 619.54
6.782122151204081, 619.56
6.781922915523419, 619.58
6.781723692704971, 619.60
6.781524482747491, 619.62
6.781325285649732, 619.64
6.781126101410451, 619.66
6.780926930028402, 619.68
6.780727771502340, 619.70
6.780528625831020, 619.72
6.780329493013199, 619.74
6.780130373047632, 619.76
6.779931265933073, 619.78
6.779732171668281, 619.80
6.779533090252009, 619.82
6.779334021683015, 619.84
6.779134965960056, 619.86
6.778935923081887, 619.88
6.778736893047267, 619.90
6.778537875854949, 619.92
6.778338871503694, 619.94
6.778139879992257, 619.96
6.777940901319398, 619.98
6.777741935483871, 620.00
6.777542982484436, 620.02
6.777344042319851, 620.04
6.777145114988873, 620.06
6.776946200490260, 620.08
6.776747298822770, 620.10
6.776548409985164, 620.12
6.776349533976199, 620.14
6.776150670794634, 620.16
6.775951820439227, 620.18
6.775752982908739, 620.20
6.775554158201929, 620.22
6.775355346317554, 620.24
6.775156547254378, 620.26
6.774957761011157, 620.28
6.774758987586653, 620.30
6.774560226979625, 620.32
6.774361479188832, 620.34
6.774162744213037, 620.36
6.773964022051001, 620.38
6.773765312701483, 620.40
6.773566616163245, 620.42
6.773367932435046, 620.44
6.773169261515649, 620.46
6.772970603403817, 620.48
6.772771958098308, 620.50
6.772573325597886, 620.52
6.772374705901313, 620.54
6.772176099007349, 620.56
6.771977504914757, 620.58
6.771778923622301, 620.60
6.771580355128743, 620.62
6.771381799432844, 620.64
6.771183256533368, 620.66
6.770984726429077, 620.68
6.770786209118737, 620.70
6.770587704601108, 620.72
6.770389212874956, 620.74
6.770190733939043, 620.76
6.769992267792133, 620.78
6.769793814432990, 620.80
6.769595373860379, 620.82
6.769396946073062, 620.84
6.769198531069806, 620.86
6.769000128849376, 620.88
6.768801739410534, 620.90
6.768603362752046, 620.92
6.768404998872676, 620.94
6.768206647771193, 620.96
6.768008309446359, 620.98
6.767809983896941, 621.00
6.767611671121704, 621.02
6.767413371119413, 621.04
6.767215083888836, 621.06
6.767016809428737, 621.08
6.766818547737884, 621.10
6.766620298815044, 621.12
6.766422062658982, 621.14
6.766223839268466, 621.16
6.766025628642261, 621.18
6.765827430779137, 621.20
6.765629245677860, 621.22
6.765431073337197, 621.24
6.765232913755916, 621.26
6.765034766932785, 621.28
6.764836632866571, 621.30
6.764638511556043, 621.32
6.764440402999968, 621.34
6.764242307197116, 621.36
6.764044224146256, 621.38
6.763846153846155, 621.40
6.763648096295582, 621.42
6.763450051493305, 621.44
6.763252019438097, 621.46
6.763054000128725, 621.48
6.762855993563958, 621.50
6.762657999742567, 621.52
6.762460018663321, 621.54
6.762262050324989, 621.56
6.762064094726343, 621.58
6.761866151866152, 621.60
6.761668221743188, 621.62
6.761470304356219, 621.64
6.761272399704019, 621.66
6.761074507785356, 621.68
6.760876628599003, 621.70
6.760678762143731, 621.72
6.760480908418310, 621.74
6.760283067421514, 621.76
6.760085239152112, 621.78
6.759887423608879, 621.80
6.759689620790583, 621.82
6.759491830695999, 621.84
6.759294053323900, 621.86
6.759096288673057, 621.88
6.758898536742242, 621.90
6.758700797530230, 621.92
6.758503071035791, 621.94
6.758305357257702, 621.96
6.758107656194733, 621.98
6.757909967845659, 622.00
6.757712292209254, 622.02
6.757514629284291, 622.04
6.757316979069544, 622.06
6.757119341563786, 622.08
6.756921716765794, 622.10
6.756724104674340, 622.12
6.756526505288199, 622.14
6.756328918606147, 622.16
6.756131344626956, 622.18
6.755933783349406, 622.20
6.755736234772267, 622.22
6.755538698894317, 622.24
6.755341175714332, 622.26
6.755143665231087, 622.28
6.754946167443356, 622.30
6.754748682349917, 622.32
6.754551209949545, 622.34
6.754353750241018, 622.36
6.754156303223112, 622.38
6.753958868894602, 622.40
6.753761447254266, 622.42
6.753564038300881, 622.44
6.753366642033223, 622.46
6.753169258450071, 622.48
6.752971887550201, 622.50
6.752774529332392, 622.52
6.752577183795419, 622.54
6.752379850938063, 622.56
6.752182530759099, 622.58
6.751985223257308, 622.60
6.751787928431467, 622.62
6.751590646280355, 622.64
6.751393376802750, 622.66
6.751196119997430, 622.68
6.750998875863177, 622.70
6.750801644398766, 622.72
6.750604425602980, 622.74
6.750407219474598, 622.76
6.750210026012397, 622.78
6.750012845215158, 622.80
6.749815677081662, 622.82
6.749618521610686, 622.84
6.749421378801014, 622.86
6.749224248651426, 622.88
6.749027131160701, 622.90
6.748830026327619, 622.92
6.748632934150962, 622.94
6.748435854629511, 622.96
6.748238787762047, 622.98
6.748041733547351, 623.00
6.747844691984207, 623.02
6.747647663071392, 623.04
6.747450646807692, 623.06
6.747253643191885, 623.08
6.747056652222757, 623.10
6.746859673899089, 623.12
6.746662708219662, 623.14
6.746465755183261, 623.16
6.746268814788665, 623.18
6.746071887034660, 623.20
6.745874971920029, 623.22
6.745678069443553, 623.24
6.745481179604018, 623.26
6.745284302400206, 623.28
6.745087437830901, 623.30
6.744890585894886, 623.32
6.744693746590945, 623.34
6.744496919917864, 623.36
6.744300105874427, 623.38
6.744103304459417, 623.40
6.743906515671618, 623.42
6.743709739509816, 623.44
6.743512975972797, 623.46
6.743316225059345, 623.48
6.743119486768244, 623.50
6.742922761098281, 623.52
6.742726048048241, 623.54
6.742529347616911, 623.56
6.742332659803073, 623.58
6.742135984605516, 623.60
6.741939322023027, 623.62
6.741742672054391, 623.64
6.741546034698394, 623.66
6.741349409953822, 623.68
6.741152797819464, 623.70
6.740956198294106, 623.72
6.740759611376535, 623.74
6.740563037065538, 623.76
6.740366475359903, 623.78
6.740169926258416, 623.80
6.739973389759868, 623.82
6.739776865863042, 623.84
6.739580354566730, 623.86
6.739383855869719, 623.88
6.739187369770797, 623.90
6.738990896268753, 623.92
6.738794435362374, 623.94
6.738597987050452, 623.96
6.738401551331774, 623.98
6.738205128205129, 624.00
6.738008717669306, 624.02
6.737812319723095, 624.04
6.737615934365286, 624.06
6.737419561594668, 624.08
6.737223201410030, 624.10
6.737026853810165, 624.12
6.736830518793861, 624.14
6.736634196359908, 624.16
6.736437886507097, 624.18
6.736241589234219, 624.20
6.736045304540066, 624.22
6.735849032423427, 624.24
6.735652772883094, 624.26
6.735456525917858, 624.28
6.735260291526511, 624.30
6.735064069707843, 624.32
6.734867860460646, 624.34
6.734671663783715, 624.36
6.734475479675838, 624.38
6.734279308135811, 624.40
6.734083149162424, 624.42
6.733887002754468, 624.44
6.733690868910739, 624.46
6.733494747630028, 624.48
6.733298638911129, 624.50
6.733102542752834, 624.52
6.732906459153938, 624.54
6.732710388113232, 624.56
6.732514329629511, 624.58
6.732318283701569, 624.60
6.732122250328199, 624.62
6.731926229508197, 624.64
6.731730221240356, 624.66
6.731534225523467, 624.68
6.731338242356331, 624.70
6.731142271737738, 624.72
6.730946313666485, 624.74
6.730750368141367, 624.76
6.730554435161177, 624.78
6.730358514724712, 624.80
6.730162606830768, 624.82
6.729966711478139, 624.84
6.729770828665622, 624.86
6.729574958392011, 624.88
6.729379100656105, 624.90
6.729183255456699, 624.92
6.728987422792588, 624.94
6.728791602662571, 624.96
6.728595795065442, 624.98
6.728400000000001, 625.00
6.728204217465041, 625.02
6.728008447459363, 625.04
6.727812689981763, 625.06
6.727616945031036, 625.08
6.727421212605983, 625.10
6.727225492705401, 625.12
6.727029785328087, 625.14
6.726834090472839, 625.16
6.726638408138456, 625.18
6.726442738323736, 625.20
6.726247081027479, 625.22
6.726051436248481, 625.24
6.725855803985542, 625.26
6.725660184237462, 625.28
6.725464577003040, 625.30
6.725268982281073, 625.32
6.725073400070362, 625.34
6.724877830369707, 625.36
6.724682273177908, 625.38
6.724486728493765, 625.40
6.724291196316076, 625.42
6.724095676643643, 625.44
6.723900169475266, 625.46
6.723704674809746, 625.48
6.723509192645883, 625.50
6.723313722982479, 625.52
6.723118265818334, 625.54
6.722922821152248, 625.56
6.722727388983023, 625.58
6.722531969309463, 625.60
6.722336562130367, 625.62
6.722141167444537, 625.64
6.721945785250776, 625.66
6.721750415547883, 625.68
6.721555058334665, 625.70
6.721359713609921, 625.72
6.721164381372455, 625.74
6.720969061621069, 625.76
6.720773754354566, 625.78
6.720578459571749, 625.80
6.720383177271421, 625.82
6.720187907452384, 625.84
6.719992650113444, 625.86
6.719797405253404, 625.88
6.719602172871066, 625.90
6.719406952965236, 625.92
6.719211745534715, 625.94
6.719016550578312, 625.96
6.718821368094828, 625.98
6.718626198083068, 626.00
6.718431040541836, 626.02
6.718235895469939, 626.04
6.718040762866180, 626.06
6.717845642729364, 626.08
6.717650535058297, 626.10
6.717455439851786, 626.12
6.717260357108635, 626.14
6.717065286827649, 626.16
6.716870229007633, 626.18
6.716675183647397, 626.20
6.716480150745745, 626.22
6.716285130301482, 626.24
6.716090122313417, 626.26
6.715895126780355, 626.28
6.715700143701103, 626.30
6.715505173074468, 626.32
6.715310214899256, 626.34
6.715115269174277, 626.36
6.714920335898337, 626.38
6.714725415070244, 626.40
6.714530506688804, 626.42
6.714335610752825, 626.44
6.714140727261118, 626.46
6.713945856212489, 626.48
6.713750997605747, 626.50
6.713556151439700, 626.52
6.713361317713155, 626.54
6.713166496424924, 626.56
6.712971687573813, 626.58
6.712776891158634, 626.60
6.712582107178195, 626.62
6.712387335631304, 626.64
6.712192576516772, 626.66
6.711997829833408, 626.68
6.711803095580022, 626.70
6.711608373755425, 626.72
6.711413664358426, 626.74
6.711218967387836, 626.76
6.711024282842465, 626.78
6.710829610721124, 626.80
6.710634951022623, 626.82
6.710440303745773, 626.84
6.710245668889385, 626.86
6.710051046452272, 626.88
6.709856436433244, 626.90
6.709661838831112, 626.92
6.709467253644687, 626.94
6.709272680872783, 626.96
6.709078120514211, 626.98
6.708883572567784, 627.00
6.708689037032312, 627.02
6.708494513906610, 627.04
6.708300003189488, 627.06
6.708105504879760, 627.08
6.707911018976240, 627.10
6.707716545477740, 627.12
6.707522084383073, 627.14
6.707327635691052, 627.16
6.707133199400491, 627.18
6.706938775510204, 627.20
6.706744364019005, 627.22
6.706549964925706, 627.24
6.706355578229124, 627.26
6.706161203928071, 627.28
6.705966842021362, 627.30
6.705772492507812, 627.32
6.705578155386234, 627.34
6.705383830655445, 627.36
6.705189518314260, 627.38
6.704995218361493, 627.40
6.704800930795959, 627.42
6.704606655616473, 627.44
6.704412392821853, 627.46
6.704218142410913, 627.48
6.704023904382471, 627.50
6.703829678735340, 627.52
6.703635465468337, 627.54
6.703441264580280, 627.56
6.703247076069983, 627.58
6.703052899936266, 627.60
6.702858736177943, 627.62
6.702664584793832, 627.64
6.702470445782749, 627.66
6.702276319143512, 627.68
6.702082204874940, 627.70
6.701888102975849, 627.72
6.701694013445057, 627.74
6.701499936281381, 627.76
6.701305871483641, 627.78
6.701111819050654, 627.80
6.700917778981237, 627.82
6.700723751274210, 627.84
6.700529735928392, 627.86
6.700335732942601, 627.88
6.700141742315656, 627.90
6.699947764046376, 627.92
6.699753798133579, 627.94
6.699559844576088, 627.96
6.699365903372719, 627.98
6.699171974522294, 628.00
6.698978058023631, 628.02
6.698784153875550, 628.04
6.698590262076872, 628.06
6.698396382626417, 628.08
6.698202515523006, 628.10
6.698008660765459, 628.12
6.697814818352597, 628.14
6.697620988283241, 628.16
6.697427170556209, 628.18
6.697233365170328, 628.20
6.697039572124415, 628.22
6.696845791417293, 628.24
6.696652023047784, 628.26
6.696458267014707, 628.28
6.696264523316888, 628.30
6.696070791953145, 628.32
6.695877072922303, 628.34
6.695683366223184, 628.36
6.695489671854610, 628.38
6.695295989815405, 628.40
6.695102320104390, 628.42
6.694908662720387, 628.44
6.694715017662222, 628.46
6.694521384928717, 628.48
6.694327764518696, 628.50
6.694134156430981, 628.52
6.693940560664397, 628.54
6.693746977217768, 628.56
6.693553406089917, 628.58
6.693359847279670, 628.60
6.693166300785848, 628.62
6.692972766607280, 628.64
6.692779244742787, 628.66
6.692585735191194, 628.68
6.692392237951328, 628.70
6.692198753022013, 628.72
6.692005280402074, 628.74
6.691811820090337, 628.76
6.691618372085626, 628.78
6.691424936386769, 628.80
6.691231512992590, 628.82
6.691038101901914, 628.84
6.690844703113571, 628.86
6.690651316626384, 628.88
6.690457942439180, 628.90
6.690264580550786, 628.92
6.690071230960028, 628.94
6.689877893665733, 628.96
6.689684568666730, 628.98
6.689491255961845, 629.00
6.689297955549904, 629.02
6.689104667429735, 629.04
6.688911391600167, 629.06
6.688718128060025, 629.08
6.688524876808139, 629.10
6.688331637843337, 629.12
6.688138411164447, 629.14
6.687945196770298, 629.16
6.687751994659716, 629.18
6.687558804831532, 629.20
6.687365627284574, 629.22
6.687172462017672, 629.24
6.686979309029654, 629.26
6.686786168319349, 629.28
6.686593039885588, 629.30
6.686399923727198, 629.32
6.686206819843010, 629.34
6.686013728231854, 629.36
6.685820648892562, 629.38
6.685627581823960, 629.40
6.685434527024881, 629.42
6.685241484494154, 629.44
6.685048454230611, 629.46
6.684855436233081, 629.48
6.684662430500397, 629.50
6.684469437031390, 629.52
6.684276455824889, 629.54
6.684083486879726, 629.56
6.683890530194733, 629.58
6.683697585768742, 629.60
6.683504653600584, 629.62
6.683311733689092, 629.64
6.683118826033098, 629.66
6.682925930631431, 629.68
6.682733047482929, 629.70
6.682540176586420, 629.72
6.682347317940738, 629.74
6.682154471544716, 629.76
6.681961637397187, 629.78
6.681768815496984, 629.80
6.681576005842940, 629.82
6.681383208433888, 629.84
6.681190423268663, 629.86
6.680997650346098, 629.88
6.680804889665027, 629.90
6.680612141224283, 629.92
6.680419405022700, 629.94
6.680226681059115, 629.96
6.680033969332360, 629.98
6.679841269841270, 630.00
6.679648582584680, 630.02
6.679455907561425, 630.04
6.679263244770341, 630.06
6.679070594210259, 630.08
6.678877955880020, 630.10
6.678685329778455, 630.12
6.678492715904403, 630.14
6.678300114256698, 630.16
6.678107524834174, 630.18
6.677914947635671, 630.20
6.677722382660024, 630.22
6.677529829906068, 630.24
6.677337289372640, 630.26
6.677144761058578, 630.28
6.676952244962717, 630.30
6.676759741083895, 630.32
6.676567249420947, 630.34
6.676374769972714, 630.36
6.676182302738032, 630.38
6.675989847715736, 630.40
6.675797404904667, 630.42
6.675604974303661, 630.44
6.675412555911556, 630.46
6.675220149727192, 630.48
6.675027755749405, 630.50
6.674835373977035, 630.52
6.674643004408920, 630.54
6.674450647043899, 630.56
6.674258301880808, 630.58
6.674065968918490, 630.60
6.673873648155784, 630.62
6.673681339591527, 630.64
6.673489043224559, 630.66
6.673296759053719, 630.68
6.673104487077850, 630.70
6.672912227295789, 630.72
6.672719979706377, 630.74
6.672527744308454, 630.76
6.672335521100860, 630.78
6.672143310082435, 630.80
6.671951111252022, 630.82
6.671758924608459, 630.84
6.671566750150588, 630.86
6.671374587877251, 630.88
6.671182437787288, 630.90
6.670990299879541, 630.92
6.670798174152851, 630.94
6.670606060606061, 630.96
6.670413959238011, 630.98
6.670221870047544, 631.00
6.670029793033502, 631.02
6.669837728194727, 631.04
6.669645675530061, 631.06
6.669453635038347, 631.08
6.669261606718428, 631.10
6.669069590569147, 631.12
6.668877586589347, 631.14
6.668685594777870, 631.16
6.668493615133559, 631.18
6.668301647655260, 631.20
6.668109692341814, 631.22
6.667917749192067, 631.24
6.667725818204860, 631.26
6.667533899379040, 631.28
6.667341992713450, 631.30
6.667150098206933, 631.32
6.666958215858333, 631.34
6.666766345666498, 631.36
6.666574487630270, 631.38
6.666382641748496, 631.40
6.666190808020019, 631.42
6.665998986443684, 631.44
6.665807177018339, 631.46
6.665615379742826, 631.48
6.665423594615994, 631.50
6.665231821636686, 631.52
6.665040060803750, 631.54
6.664848312116031, 631.56
6.664656575572374, 631.58
6.664464851171628, 631.60
6.664273138912638, 631.62
6.664081438794250, 631.64
6.663889750815312, 631.66
6.663698074974670, 631.68
6.663506411271173, 631.70
6.663314759703666, 631.72
6.663123120270998, 631.74
6.662931492972015, 631.76
6.662739877805566, 631.78
6.662548274770498, 631.80
6.662356683865659, 631.82
6.662165105089896, 631.84
6.661973538442060, 631.86
6.661781983920998, 631.88
6.661590441525559, 631.90
6.661398911254590, 631.92
6.661207393106940, 631.94
6.661015887081461, 631.96
6.660824393176999, 631.98
6.660632911392406, 632.00
6.660441441726528, 632.02
6.660249984178217, 632.04
6.660058538746322, 632.06
6.659867105429693, 632.08
6.659675684227179, 632.10
6.659484275137633, 632.12
6.659292878159902, 632.14
6.659101493292838, 632.16
6.658910120535290, 632.18
6.658718759886112, 632.20
6.658527411344153, 632.22
6.658336074908263, 632.24
6.658144750577295, 632.26
6.657953438350098, 632.28
6.657762138225527, 632.30
6.657570850202430, 632.32
6.657379574279660, 632.34
6.657188310456069, 632.36
6.656997058730511, 632.38
6.656805819101835, 632.40
6.656614591568895, 632.42
6.656423376130542, 632.44
6.656232172785630, 632.46
6.656040981533013, 632.48
6.655849802371542, 632.50
6.655658635300070, 632.52
6.655467480317451, 632.54
6.655276337422538, 632.56
6.655085206614183, 632.58
6.654894087891242, 632.60
6.654702981252569, 632.62
6.654511886697017, 632.64
6.654320804223438, 632.66
6.654129733830688, 632.68
6.653938675517622, 632.70
6.653747629283095, 632.72
6.653556595125960, 632.74
6.653365573045073, 632.76
6.653174563039287, 632.78
6.652983565107459, 632.80
6.652792579248445, 632.82
6.652601605461096, 632.84
6.652410643744272, 632.86
6.652219694096828, 632.88
6.652028756517618, 632.90
6.651837831005499, 632.92
6.651646917559326, 632.94
6.651456016177957, 632.96
6.651265126860248, 632.98
6.651074249605055, 633.00
6.650883384411236, 633.02
6.650692531277645, 633.04
6.650501690203141, 633.06
6.650310861186580, 633.08
6.650120044226821, 633.10
6.649929239322719, 633.12
6.649738446473134, 633.14
6.649547665676923, 633.16
6.649356896932941, 633.18
6.649166140240051, 633.20
6.648975395597107, 633.22
6.648784663002969, 633.24
6.648593942456495, 633.26
6.648403233956544, 633.28
6.648212537501974, 633.30
6.648021853091645, 633.32
6.647831180724413, 633.34
6.647640520399142, 633.36
6.647449872114687, 633.38
6.647259235869909, 633.40
6.647068611663668, 633.42
6.646877999494822, 633.44
6.646687399362233, 633.46
6.646496811264760, 633.48
6.646306235201263, 633.50
6.646115671170603, 633.52
6.645925119171640, 633.54
6.645734579203233, 633.56
6.645544051264245, 633.58
6.645353535353536, 633.60
6.645163031469966, 633.62
6.644972539612398, 633.64
6.644782059779693, 633.66
6.644591591970711, 633.68
6.644401136184314, 633.70
6.644210692419365, 633.72
6.644020260674725, 633.74
6.643829840949255, 633.76
6.643639433241820, 633.78
6.643449037551279, 633.80
6.643258653876496, 633.82
6.643068282216332, 633.84
6.642877922569653, 633.86
6.642687574935319, 633.88
6.642497239312195, 633.90
6.642306915699143, 633.92
6.642116604095024, 633.94
6.641926304498707, 633.96
6.641736016909051, 633.98
6.641545741324921, 634.00
6.641355477745182, 634.02
6.641165226168697, 634.04
6.640974986594330, 634.06
6.640784759020944, 634.08
6.640594543447406, 634.10
6.640404339872579, 634.12
6.640214148295329, 634.14
6.640023968714520, 634.16
6.639833801129017, 634.18
6.639643645537685, 634.20
6.639453501939390, 634.22
6.639263370332997, 634.24
6.639073250717372, 634.26
6.638883143091380, 634.28
6.638693047453887, 634.30
6.638502963803759, 634.32
6.638312892139862, 634.34
6.638122832461064, 634.36
6.637932784766229, 634.38
6.637742749054225, 634.40
6.637552725323919, 634.42
6.637362713574175, 634.44
6.637172713803865, 634.46
6.636982726011852, 634.48
6.636792750197006, 634.50
6.636602786358193, 634.52
6.636412834494280, 634.54
6.636222894604136, 634.56
6.636032966686627, 634.58
6.635843050740625, 634.60
6.635653146764994, 634.62
6.635463254758604, 634.64
6.635273374720323, 634.66
6.635083506649019, 634.68
6.634893650543564, 634.70
6.634703806402824, 634.72
6.634513974225667, 634.74
6.634324154010965, 634.76
6.634134345757586, 634.78
6.633944549464399, 634.80
6.633754765130274, 634.82
6.633564992754080, 634.84
6.633375232334688, 634.86
6.633185483870968, 634.88
6.632995747361790, 634.90
6.632806022806023, 634.92
6.632616310202539, 634.94
6.632426609550208, 634.96
6.632236920847901, 634.98
6.632047244094489, 635.00
6.631857579288842, 635.02
6.631667926429832, 635.04
6.631478285516330, 635.06
6.631288656547206, 635.08
6.631099039521335, 635.10
6.630909434437587, 635.12
6.630719841294833, 635.14
6.630530260091946, 635.16
6.630340690827796, 635.18
6.630151133501260, 635.20
6.629961588111206, 635.22
6.629772054656508, 635.24
6.629582533136039, 635.26
6.629393023548672, 635.28
6.629203525893280, 635.30
6.629014040168735, 635.32
6.628824566373910, 635.34
6.628635104507681, 635.36
6.628445654568920, 635.38
6.628256216556500, 635.40
6.628066790469297, 635.42
6.627877376306182, 635.44
6.627687974066031, 635.46
6.627498583747719, 635.48
6.627309205350119, 635.50
6.627119838872106, 635.52
6.626930484312553, 635.54
6.626741141670339, 635.56
6.626551810944334, 635.58
6.626362492133417, 635.60
6.626173185236462, 635.62
6.625983890252344, 635.64
6.625794607179939, 635.66
6.625605336018122, 635.68
6.625416076765770, 635.70
6.625226829421758, 635.72
6.625037593984962, 635.74
6.624848370454260, 635.76
6.624659158828526, 635.78
6.624469959106638, 635.80
6.624280771287472, 635.82
6.624091595369904, 635.84
6.623902431352814, 635.86
6.623713279235076, 635.88
6.623524139015569, 635.90
6.623335010693170, 635.92
6.623145894266755, 635.94
6.622956789735204, 635.96
6.622767697097393, 635.98
6.622578616352202, 636.00
6.622389547498507, 636.02
6.622200490535187, 636.04
6.622011445461121, 636.06
6.621822412275185, 636.08
6.621633390976262, 636.10
6.621444381563228, 636.12
6.621255384034962, 636.14
6.621066398390343, 636.16
6.620877424628250, 636.18
6.620688462747563, 636.20
6.620499512747163, 636.22
6.620310574625927, 636.24
6.620121648382737, 636.26
6.619932734016471, 636.28
6.619743831526010, 636.30
6.619554940910235, 636.32
6.619366062168023, 636.34
6.619177195298259, 636.36
6.618988340299821, 636.38
6.618799497171591, 636.40
6.618610665912448, 636.42
6.618421846521274, 636.44
6.618233038996951, 636.46
6.618044243338361, 636.48
6.617855459544383, 636.50
6.617666687613901, 636.52
6.617477927545795, 636.54
6.617289179338948, 636.56
6.617100442992240, 636.58
6.616911718504555, 636.60
6.616723005874777, 636.62
6.616534305101784, 636.64
6.616345616184463, 636.66
6.616156939121693, 636.68
6.615968273912361, 636.70
6.615779620555347, 636.72
6.615590979049534, 636.74
6.615402349393807, 636.76
6.615213731587048, 636.78
6.615025125628142, 636.80
6.614836531515971, 636.82
6.614647949249419, 636.84
6.614459378827372, 636.86
6.614270820248713, 636.88
6.614082273512325, 636.90
6.613893738617096, 636.92
6.613705215561906, 636.94
6.613516704345642, 636.96
6.613328204967189, 636.98
6.613139717425432, 637.00
6.612951241719256, 637.02
6.612762777847546, 637.04
6.612574325809187, 637.06
6.612385885603064, 637.08
6.612197457228064, 637.10
6.612009040683074, 637.12
6.611820635966978, 637.14
6.611632243078662, 637.16
6.611443862017012, 637.18
6.611255492780916, 637.20
6.611067135369260, 637.22
6.610878789780931, 637.24
6.610690456014813, 637.26
6.610502134069797, 637.28
6.610313823944768, 637.30
6.610125525638613, 637.32
6.609937239150218, 637.34
6.609748964478474, 637.36
6.609560701622266, 637.38
6.609372450580484, 637.40
6.609184211352013, 637.42
6.608995983935743, 637.44
6.608807768330561, 637.46
6.608619564535358, 637.48
6.608431372549020, 637.50
6.608243192370436, 637.52
6.608055023998495, 637.54
6.607866867432086, 637.56
6.607678722670096, 637.58
6.607490589711418, 637.60
6.607302468554939, 637.62
6.607114359199548, 637.64
6.606926261644137, 637.66
6.606738175887592, 637.68
6.606550101928806, 637.70
6.606362039766669, 637.72
6.606173989400070, 637.74
6.605985950827898, 637.76
6.605797924049046, 637.78
6.605609909062403, 637.80
6.605421905866860, 637.82
6.605233914461307, 637.84
6.605045934844637, 637.86
6.604857967015740, 637.88
6.604670010973507, 637.90
6.604482066716830, 637.92
6.604294134244600, 637.94
6.604106213555709, 637.96
6.603918304649048, 637.98
6.603730407523511, 638.00
6.603542522177989, 638.02
6.603354648611373, 638.04
6.603166786822556, 638.06
6.602978936810431, 638.08
6.602791098573891, 638.10
6.602603272111828, 638.12
6.602415457423136, 638.14
6.602227654506708, 638.16
6.602039863361433, 638.18
6.601852083986211, 638.20
6.601664316379932, 638.22
6.601476560541490, 638.24
6.601288816469777, 638.26
6.601101084163690, 638.28
6.600913363622122, 638.30
6.600725654843966, 638.32
6.600537957828116, 638.34
6.600350272573469, 638.36
6.600162599078919, 638.38
6.599974937343359, 638.40
6.599787287365685, 638.42
6.599599649144790, 638.44
6.599412022679573, 638.46
6.599224407968927, 638.48
6.599036805011747, 638.50
6.598849213806929, 638.52
6.598661634353370, 638.54
6.598474066649963, 638.56
6.598286510695606, 638.58
6.598098966489196, 638.60
6.597911434029626, 638.62
6.597723913315797, 638.64
6.597536404346601, 638.66
6.597348907120937, 638.68
6.597161421637701, 638.70
6.596973947895791, 638.72
6.596786485894104, 638.74
6.596599035631536, 638.76
6.596411597106986, 638.78
6.596224170319349, 638.80
6.596036755267526, 638.82
6.595849351950410, 638.84
6.595661960366904, 638.86
6.595474580515903, 638.88
6.595287212396307, 638.90
6.595099856007012, 638.92
6.594912511346918, 638.94
6.594725178414924, 638.96
6.594537857209929, 638.98
6.594350547730830, 639.00
6.594163249976527, 639.02
6.593975963945920, 639.04
6.593788689637907, 639.06
6.593601427051387, 639.08
6.593414176185260, 639.10
6.593226937038428, 639.12
6.593039709609789, 639.14
6.592852493898242, 639.16
6.592665289902688, 639.18
6.592478097622028, 639.20
6.592290917055161, 639.22
6.592103748200989, 639.24
6.591916591058411, 639.26
6.591729445626330, 639.28
6.591542311903646, 639.30
6.591355189889258, 639.32
6.591168079582069, 639.34
6.590980980980981, 639.36
6.590793894084895, 639.38
6.590606818892712, 639.40
6.590419755403335, 639.42
6.590232703615664, 639.44
6.590045663528603, 639.46
6.589858635141052, 639.48
6.589671618451916, 639.50
6.589484613460096, 639.52
6.589297620164494, 639.54
6.589110638564014, 639.56
6.588923668657556, 639.58
6.588736710444028, 639.60
6.588549763922329, 639.62
6.588362829091365, 639.64
6.588175905950036, 639.66
6.587988994497248, 639.68
6.587802094731906, 639.70
6.587615206652910, 639.72
6.587428330259168, 639.74
6.587241465549582, 639.76
6.587054612523056, 639.78
6.586867771178494, 639.80
6.586680941514802, 639.82
6.586494123530882, 639.84
6.586307317225644, 639.86
6.586120522597987, 639.88
6.585933739646820, 639.90
6.585746968371047, 639.92
6.585560208769572, 639.94
6.585373460841303, 639.96
6.585186724585143, 639.98
6.585000000000000, 640.00
6.584813287084780, 640.02
6.584626585838386, 640.04
6.584439896259727, 640.06
6.584253218347706, 640.08
6.584066552101234, 640.10
6.583879897519215, 640.12
6.583693254600557, 640.14
6.583506623344165, 640.16
6.583320003748946, 640.18
6.583133395813809, 640.20
6.582946799537659, 640.22
6.582760214919405, 640.24
6.582573641957955, 640.26
6.582387080652215, 640.28
6.582200531001094, 640.30
6.582013993003499, 640.32
6.581827466658337, 640.34
6.581640951964520, 640.36
6.581454448920954, 640.38
6.581267957526546, 640.40
6.581081477780208, 640.42
6.580895009680845, 640.44
6.580708553227367, 640.46
6.580522108418686, 640.48
6.580335675253709, 640.50
6.580149253731344, 640.52
6.579962843850502, 640.54
6.579776445610092, 640.56
6.579590059009023, 640.58
6.579403684046206, 640.60
6.579217320720552, 640.62
6.579030969030970, 640.64
6.578844628976369, 640.66
6.578658300555659, 640.68
6.578471983767754, 640.70
6.578285678611562, 640.72
6.578099385085994, 640.74
6.577913103189962, 640.76
6.577726832922377, 640.78
6.577540574282148, 640.80
6.577354327268188, 640.82
6.577168091879408, 640.84
6.576981868114721, 640.86
6.576795655973037, 640.88
6.576609455453269, 640.90
6.576423266554329, 640.92
6.576237089275127, 640.94
6.576050923614578, 640.96
6.575864769571593, 640.98
6.575678627145086, 641.00
6.575492496333968, 641.02
6.575306377137153, 641.04
6.575120269553553, 641.06
6.574934173582080, 641.08
6.574748089221650, 641.10
6.574562016471176, 641.12
6.574375955329570, 641.14
6.574189905795746, 641.16
6.574003867868617, 641.18
6.573817841547099, 641.20
6.573631826830105, 641.22
6.573445823716550, 641.24
6.573259832205346, 641.26
6.573073852295410, 641.28
6.572887883985655, 641.30
6.572701927274996, 641.32
6.572515982162348, 641.34
6.572330048646626, 641.36
6.572144126726746, 641.38
6.571958216401622, 641.40
6.571772317670170, 641.42
6.571586430531305, 641.44
6.571400554983943, 641.46
6.571214691027000, 641.48
6.571028838659393, 641.50
6.570842997880035, 641.52
6.570657168687846, 641.54
6.570471351081739, 641.56
6.570285545060631, 641.58
6.570099750623442, 641.60
6.569913967769085, 641.62
6.569728196496478, 641.64
6.569542436804539, 641.66
6.569356688692182, 641.68
6.569170952158330, 641.70
6.568985227201895, 641.72
6.568799513821797, 641.74
6.568613812016954, 641.76
6.568428121786282, 641.78
6.568242443128701, 641.80
6.568056776043128, 641.82
6.567871120528481, 641.84
6.567685476583679, 641.86
6.567499844207640, 641.88
6.567314223399284, 641.90
6.567128614157528, 641.92
6.566943016481291, 641.94
6.566757430369494, 641.96
6.566571855821054, 641.98
6.566386292834891, 642.00
6.566200741409926, 642.02
6.566015201545076, 642.04
6.565829673239262, 642.06
6.565644156491403, 642.08
6.565458651300420, 642.10
6.565273157665234, 642.12
6.565087675584764, 642.14
6.564902205057930, 642.16
6.564716746083652, 642.18
6.564531298660853, 642.20
6.564345862788453, 642.22
6.564160438465372, 642.24
6.563975025690531, 642.26
6.563789624462852, 642.28
6.563604234781256, 642.30
6.563418856644664, 642.32
6.563233490051998, 642.34
6.563048135002179, 642.36
6.562862791494132, 642.38
6.562677459526775, 642.40
6.562492139099033, 642.42
6.562306830209825, 642.44
6.562121532858077, 642.46
6.561936247042710, 642.48
6.561750972762646, 642.50
6.561565710016810, 642.52
6.561380458804122, 642.54
6.561195219123507, 642.56
6.561009990973886, 642.58
6.560824774354186, 642.60
6.560639569263328, 642.62
6.560454375700237, 642.64
6.560269193663835, 642.66
6.560084023153046, 642.68
6.559898864166796, 642.70
6.559713716704008, 642.72
6.559528580763606, 642.74
6.559343456344514, 642.76
6.559158343445659, 642.78
6.558973242065962, 642.80
6.558788152204350, 642.82
6.558603073859747, 642.84
6.558418007031080, 642.86
6.558232951717272, 642.88
6.558047907917251, 642.90
6.557862875629939, 642.92
6.557677854854263, 642.94
6.557492845589151, 642.96
6.557307847833525, 642.98
6.557122861586315, 643.00
6.556937886846444, 643.02
6.556752923612840, 643.04
6.556567971884428, 643.06
6.556383031660135, 643.08
6.556198102938890, 643.10
6.556013185719618, 643.12
6.555828280001244, 643.14
6.555643385782698, 643.16
6.555458503062906, 643.18
6.555273631840796, 643.20
6.555088772115295, 643.22
6.554903923885330, 643.24
6.554719087149831, 643.26
6.554534261907723, 643.28
6.554349448157937, 643.30
6.554164645899398, 643.32
6.553979855131035, 643.34
6.553795075851778, 643.36
6.553610308060556, 643.38
6.553425551756296, 643.40
6.553240806937926, 643.42
6.553056073604377, 643.44
6.552871351754577, 643.46
6.552686641387456, 643.48
6.552501942501943, 643.50
6.552317255096967, 643.52
6.552132579171459, 643.54
6.551947914724346, 643.56
6.551763261754560, 643.58
6.551578620261032, 643.60
6.551393990242690, 643.62
6.551209371698466, 643.64
6.551024764627289, 643.66
6.550840169028088, 643.68
6.550655584899798, 643.70
6.550471012241347, 643.72
6.550286451051667, 643.74
6.550101901329689, 643.76
6.549917363074343, 643.78
6.549732836284561, 643.80
6.549548320959275, 643.82
6.549363817097415, 643.84
6.549179324697916, 643.86
6.548994843759707, 643.88
6.548810374281722, 643.90
6.548625916262891, 643.92
6.548441469702146, 643.94
6.548257034598422, 643.96
6.548072610950650, 643.98
6.547888198757764, 644.00
6.547703798018696, 644.02
6.547519408732377, 644.04
6.547335030897743, 644.06
6.547150664513725, 644.08
6.546966309579258, 644.10
6.546781966093275, 644.12
6.546597634054709, 644.14
6.546413313462494, 644.16
6.546229004315563, 644.18
6.546044706612853, 644.20
6.545860420353296, 644.22
6.545676145535825, 644.24
6.545491882159377, 644.26
6.545307630222885, 644.28
6.545123389725284, 644.30
6.544939160665509, 644.32
6.544754943042493, 644.34
6.544570736855174, 644.36
6.544386542102487, 644.38
6.544202358783365, 644.40
6.544018186896745, 644.42
6.543834026441561, 644.44
6.543649877416752, 644.46
6.543465739821252, 644.48
6.543281613653996, 644.50
6.543097498913921, 644.52
6.542913395599963, 644.54
6.542729303711059, 644.56
6.542545223246145, 644.58
6.542361154204158, 644.60
6.542177096584035, 644.62
6.541993050384711, 644.64
6.541809015605126, 644.66
6.541624992244214, 644.68
6.541440980300915, 644.70
6.541256979774166, 644.72
6.541072990662903, 644.74
6.540889012966066, 644.76
6.540705046682590, 644.78
6.540521091811415, 644.80
6.540337148351479, 644.82
6.540153216301718, 644.84
6.539969295661074, 644.86
6.539785386428483, 644.88
6.539601488602885, 644.90
6.539417602183217, 644.92
6.539233727168418, 644.94
6.539049863557430, 644.96
6.538866011349190, 644.98
6.538682170542636, 645.00
6.538498341136710, 645.02
6.538314523130349, 645.04
6.538130716522494, 645.06
6.537946921312085, 645.08
6.537763137498063, 645.10
6.537579365079365, 645.12
6.537395604054934, 645.14
6.537211854423710, 645.16
6.537028116184630, 645.18
6.536844389336640, 645.20
6.536660673878677, 645.22
6.536476969809684, 645.24
6.536293277128600, 645.26
6.536109595834367, 645.28
6.535925925925927, 645.30
6.535742267402220, 645.32
6.535558620262187, 645.34
6.535374984504773, 645.36
6.535191360128916, 645.38
6.535007747133561, 645.40
6.534824145517648, 645.42
6.534640555280119, 645.44
6.534456976419918, 645.46
6.534273408935986, 645.48
6.534089852827266, 645.50
6.533906308092701, 645.52
6.533722774731234, 645.54
6.533539252741806, 645.56
6.533355742123362, 645.58
6.533172242874845, 645.60
6.532988754995198, 645.62
6.532805278483366, 645.64
6.532621813338290, 645.66
6.532438359558914, 645.68
6.532254917144185, 645.70
6.532071486093043, 645.72
6.531888066404435, 645.74
6.531704658077305, 645.76
6.531521261110596, 645.78
6.531337875503253, 645.80
6.531154501254220, 645.82
6.530971138362442, 645.84
6.530787786826867, 645.86
6.530604446646437, 645.88
6.530421117820096, 645.90
6.530237800346793, 645.92
6.530054494225469, 645.94
6.529871199455075, 645.96
6.529687916034552, 645.98
6.529504643962849, 646.00
6.529321383238909, 646.02
6.529138133861681, 646.04
6.528954895830109, 646.06
6.528771669143140, 646.08
6.528588453799721, 646.10
6.528405249798800, 646.12
6.528222057139320, 646.14
6.528038875820231, 646.16
6.527855705840477, 646.18
6.527672547199010, 646.20
6.527489399894773, 646.22
6.527306263926715, 646.24
6.527123139293783, 646.26
6.526940025994925, 646.28
6.526756924029089, 646.30
6.526573833395223, 646.32
6.526390754092273, 646.34
6.526207686119191, 646.36
6.526024629474922, 646.38
6.525841584158417, 646.40
6.525658550168622, 646.42
6.525475527504486, 646.44
6.525292516164960, 646.46
6.525109516148992, 646.48
6.524926527455530, 646.50
6.524743550083524, 646.52
6.524560584031924, 646.54
6.524377629299679, 646.56
6.524194685885737, 646.58
6.524011753789051, 646.60
6.523828833008568, 646.62
6.523645923543239, 646.64
6.523463025392015, 646.66
6.523280138553844, 646.68
6.523097263027679, 646.70
6.522914398812469, 646.72
6.522731545907165, 646.74
6.522548704310719, 646.76
6.522365874022079, 646.78
6.522183055040198, 646.80
6.522000247364028, 646.82
6.521817450992518, 646.84
6.521634665924621, 646.86
6.521451892159288, 646.88
6.521269129695471, 646.90
6.521086378532122, 646.92
6.520903638668192, 646.94
6.520720910102634, 646.96
6.520538192834400, 646.98
6.520355486862442, 647.00
6.520172792185713, 647.02
6.519990108803166, 647.04
6.519807436713752, 647.06
6.519624775916425, 647.08
6.519442126410137, 647.10
6.519259488193843, 647.12
6.519076861266496, 647.14
6.518894245627048, 647.16
6.518711641274452, 647.18
6.518529048207664, 647.20
6.518346466425636, 647.22
6.518163895927322, 647.24
6.517981336711677, 647.26
6.517798788777655, 647.28
6.517616252124209, 647.30
6.517433726750294, 647.32
6.517251212654864, 647.34
6.517068709836876, 647.36
6.516886218295283, 647.38
6.516703738029039, 647.40
6.516521269037102, 647.42
6.516338811318423, 647.44
6.516156364871962, 647.46
6.515973929696671, 647.48
6.515791505791506, 647.50
6.515609093155424, 647.52
6.515426691787381, 647.54
6.515244301686331, 647.56
6.515061922851230, 647.58
6.514879555281038, 647.60
6.514697198974708, 647.62
6.514514853931197, 647.64
6.514332520149462, 647.66
6.514150197628458, 647.68
6.513967886367145, 647.70
6.513785586364478, 647.72
6.513603297619415, 647.74
6.513421020130913, 647.76
6.513238753897929, 647.78
6.513056498919420, 647.80
6.512874255194345, 647.82
6.512692022721660, 647.84
6.512509801500324, 647.86
6.512327591529296, 647.88
6.512145392807533, 647.90
6.511963205333992, 647.92
6.511781029107634, 647.94
6.511598864127415, 647.96
6.511416710392297, 647.98
6.511234567901234, 648.00
6.511052436653190, 648.02
6.510870316647122, 648.04
6.510688207881987, 648.06
6.510506110356746, 648.08
6.510324024070360, 648.10
6.510141949021786, 648.12
6.509959885209986, 648.14
6.509777832633918, 648.16
6.509595791292542, 648.18
6.509413761184820, 648.20
6.509231742309709, 648.22
6.509049734666173, 648.24
6.508867738253170, 648.26
6.508685753069662, 648.28
6.508503779114609, 648.30
6.508321816386970, 648.32
6.508139864885708, 648.34
6.507957924609785, 648.36
6.507775995558161, 648.38
6.507594077729797, 648.40
6.507412171123655, 648.42
6.507230275738696, 648.44
6.507048391573883, 648.46
6.506866518628176, 648.48
6.506684656900540, 648.50
6.506502806389935, 648.52
6.506320967095323, 648.54
6.506139139015667, 648.56
6.505957322149928, 648.58
6.505775516497071, 648.60
6.505593722056058, 648.62
6.505411938825851, 648.64
6.505230166805415, 648.66
6.505048405993710, 648.68
6.504866656389702, 648.70
6.504684917992354, 648.72
6.504503190800629, 648.74
6.504321474813491, 648.76
6.504139770029903, 648.78
6.503958076448829, 648.80
6.503776394069234, 648.82
6.503594722890081, 648.84
6.503413062910335, 648.86
6.503231414128961, 648.88
6.503049776544922, 648.90
6.502868150157185, 648.92
6.502686534964711, 648.94
6.502504930966469, 648.96
6.502323338161423, 648.98
6.502141756548537, 649.00
6.501960186126777, 649.02
6.501778626895107, 649.04
6.501597078852495, 649.06
6.501415541997905, 649.08
6.501234016330304, 649.10
6.501052501848657, 649.12
6.500870998551931, 649.14
6.500689506439091, 649.16
6.500508025509103, 649.18
6.500326555760936, 649.20
6.500145097193555, 649.22
6.499963649805927, 649.24
6.499782213597019, 649.26
6.499600788565797, 649.28
6.499419374711228, 649.30
6.499237972032281, 649.32
6.499056580527920, 649.34
6.498875200197118, 649.36
6.498693831038837, 649.38
6.498512473052049, 649.40
6.498331126235719, 649.42
6.498149790588815, 649.44
6.497968466110307, 649.46
6.497787152799162, 649.48
6.497605850654350, 649.50
6.497424559674838, 649.52
6.497243279859593, 649.54
6.497062011207587, 649.56
6.496880753717787, 649.58
6.496699507389162, 649.60
6.496518272220683, 649.62
6.496337048211317, 649.64
6.496155835360035, 649.66
6.495974633665805, 649.68
6.495793443127598, 649.70
6.495612263744382, 649.72
6.495431095515129, 649.74
6.495249938438809, 649.76
6.495068792514390, 649.78
6.494887657740844, 649.80
6.494706534117141, 649.82
6.494525421642250, 649.84
6.494344320315145, 649.86
6.494163230134794, 649.88
6.493982151100170, 649.90
6.493801083210242, 649.92
6.493620026463981, 649.94
6.493438980860360, 649.96
6.493257946398351, 649.98
6.493076923076924, 650.00
6.492895910895050, 650.02
6.492714909851702, 650.04
6.492533919945852, 650.06
6.492352941176470, 650.08
6.492171973542532, 650.10
6.491991017043008, 650.12
6.491810071676870, 650.14
6.491629137443091, 650.16
6.491448214340644, 650.18
6.491267302368501, 650.20
6.491086401525638, 650.22
6.490905511811023, 650.24
6.490724633223634, 650.26
6.490543765762442, 650.28
6.490362909426420, 650.30
6.490182064214541, 650.32
6.490001230125780, 650.34
6.489820407159112, 650.36
6.489639595313509, 650.38
6.489458794587946, 650.40
6.489278004981397, 650.42
6.489097226492835, 650.44
6.488916459121238, 650.46
6.488735702865577, 650.48
6.488554957724827, 650.50
6.488374223697965, 650.52
6.488193500783964, 650.54
6.488012788981801, 650.56
6.487832088290449, 650.58
6.487651398708884, 650.60
6.487470720236082, 650.62
6.487290052871019, 650.64
6.487109396612671, 650.66
6.486928751460010, 650.68
6.486748117412017, 650.70
6.486567494467667, 650.72
6.486386882625934, 650.74
6.486206281885796, 650.76
6.486025692246228, 650.78
6.485845113706208, 650.80
6.485664546264713, 650.82
6.485483989920718, 650.84
6.485303444673201, 650.86
6.485122910521141, 650.88
6.484942387463512, 650.90
6.484761875499294, 650.92
6.484581374627462, 650.94
6.484400884846996, 650.96
6.484220406156871, 650.98
6.484039938556068, 651.00
6.483859482043563, 651.02
6.483679036618335, 651.04
6.483498602279361, 651.06
6.483318179025619, 651.08
6.483137766856090, 651.10
6.482957365769751, 651.12
6.482776975765581, 651.14
6.482596596842559, 651.16
6.482416228999662, 651.18
6.482235872235872, 651.20
6.482055526550168, 651.22
6.481875191941527, 651.24
6.481694868408931, 651.26
6.481514555951358, 651.28
6.481334254567789, 651.30
6.481153964257202, 651.32
6.480973685018578, 651.34
6.480793416850897, 651.36
6.480613159753140, 651.38
6.480432913724287, 651.40
6.480252678763318, 651.42
6.480072454869212, 651.44
6.479892242040954, 651.46
6.479712040277522, 651.48
6.479531849577898, 651.50
6.479351669941061, 651.52
6.479171501365995, 651.54
6.478991343851680, 651.56
6.478811197397096, 651.58
6.478631062001228, 651.60
6.478450937663055, 651.62
6.478270824381561, 651.64
6.478090722155726, 651.66
6.477910630984532, 651.68
6.477730550866963, 651.70
6.477550481802001, 651.72
6.477370423788628, 651.74
6.477190376825826, 651.76
6.477010340912578, 651.78
6.476830316047868, 651.80
6.476650302230678, 651.82
6.476470299459990, 651.84
6.476290307734790, 651.86
6.476110327054060, 651.88
6.475930357416782, 651.90
6.475750398821942, 651.92
6.475570451268521, 651.94
6.475390514755507, 651.96
6.475210589281880, 651.98
6.475030674846626, 652.00
6.474850771448729, 652.02
6.474670879087173, 652.04
6.474490997760943, 652.06
6.474311127469022, 652.08
6.474131268210397, 652.10
6.473951419984052, 652.12
6.473771582788972, 652.14
6.473591756624142, 652.16
6.473411941488546, 652.18
6.473232137381172, 652.20
6.473052344301003, 652.22
6.472872562247026, 652.24
6.472692791218226, 652.26
6.472513031213590, 652.28
6.472333282232102, 652.30
6.472153544272750, 652.32
6.471973817334518, 652.34
6.471794101416396, 652.36
6.471614396517367, 652.38
6.471434702636420, 652.40
6.471255019772540, 652.42
6.471075347924713, 652.44
6.470895687091929, 652.46
6.470716037273173, 652.48
6.470536398467433, 652.50
6.470356770673696, 652.52
6.470177153890950, 652.54
6.469997548118181, 652.56
6.469817953354378, 652.58
6.469638369598529, 652.60
6.469458796849622, 652.62
6.469279235106645, 652.64
6.469099684368585, 652.66
6.468920144634430, 652.68
6.468740615903172, 652.70
6.468561098173796, 652.72
6.468381591445293, 652.74
6.468202095716650, 652.76
6.468022610986857, 652.78
6.467843137254903, 652.80
6.467663674519777, 652.82
6.467484222780467, 652.84
6.467304782035965, 652.86
6.467125352285260, 652.88
6.466945933527340, 652.90
6.466766525761196, 652.92
6.466587128985818, 652.94
6.466407743200196, 652.96
6.466228368403320, 652.98
6.466049004594181, 653.00
6.465869651771769, 653.02
6.465690309935074, 653.04
6.465510979083087, 653.06
6.465331659214797, 653.08
6.465152350329199, 653.10
6.464973052425282, 653.12
6.464793765502037, 653.14
6.464614489558455, 653.16
6.464435224593527, 653.18
6.464255970606246, 653.20
6.464076727595604, 653.22
6.463897495560590, 653.24
6.463718274500200, 653.26
6.463539064413422, 653.28
6.463359865299251, 653.30
6.463180677156678, 653.32
6.463001499984694, 653.34
6.462822333782295, 653.36
6.462643178548471, 653.38
6.462464034282217, 653.40
6.462284900982524, 653.42
6.462105778648384, 653.44
6.461926667278793, 653.46
6.461747566872743, 653.48
6.461568477429227, 653.50
6.461389398947240, 653.52
6.461210331425774, 653.54
6.461031274863823, 653.56
6.460852229260381, 653.58
6.460673194614444, 653.60
6.460494170925003, 653.62
6.460315158191054, 653.64
6.460136156411591, 653.66
6.459957165585608, 653.68
6.459778185712100, 653.70
6.459599216790063, 653.72
6.459420258818491, 653.74
6.459241311796379, 653.76
6.459062375722721, 653.78
6.458883450596513, 653.80
6.458704536416752, 653.82
6.458525633182430, 653.84
6.458346740892546, 653.86
6.458167859546094, 653.88
6.457988989142071, 653.90
6.457810129679472, 653.92
6.457631281157292, 653.94
6.457452443574531, 653.96
6.457273616930181, 653.98
6.457094801223242, 654.00
6.456915996452708, 654.02
6.456737202617577, 654.04
6.456558419716846, 654.06
6.456379647749511, 654.08
6.456200886714570, 654.10
6.456022136611019, 654.12
6.455843397437858, 654.14
6.455664669194082, 654.16
6.455485951878687, 654.18
6.455307245490675, 654.20
6.455128550029042, 654.22
6.454949865492786, 654.24
6.454771191880904, 654.26
6.454592529192396, 654.28
6.454413877426258, 654.30
6.454235236581490, 654.32
6.454056606657089, 654.34
6.453877987652057, 654.36
6.453699379565390, 654.38
6.453520782396089, 654.40
6.453342196143151, 654.42
6.453163620805574, 654.44
6.452985056382361, 654.46
6.452806502872510, 654.48
6.452627960275019, 654.50
6.452449428588890, 654.52
6.452270907813121, 654.54
6.452092397946713, 654.56
6.451913898988664, 654.58
6.451735410937977, 654.60
6.451556933793651, 654.62
6.451378467554687, 654.64
6.451200012220085, 654.66
6.451021567788843, 654.68
6.450843134259967, 654.70
6.450664711632454, 654.72
6.450486299905307, 654.74
6.450307899077525, 654.76
6.450129509148112, 654.78
6.449951130116067, 654.80
6.449772761980393, 654.82
6.449594404740089, 654.84
6.449416058394161, 654.86
6.449237722941608, 654.88
6.449059398381433, 654.90
6.448881084712637, 654.92
6.448702781934223, 654.94
6.448524490045194, 654.96
6.448346209044551, 654.98
6.448167938931298, 655.00
6.447989679704437, 655.02
6.447811431362971, 655.04
6.447633193905903, 655.06
6.447454967332234, 655.08
6.447276751640971, 655.10
6.447098546831115, 655.12
6.446920352901670, 655.14
6.446742169851640, 655.16
6.446563997680027, 655.18
6.446385836385836, 655.20
6.446207685968072, 655.22
6.446029546425738, 655.24
6.445851417757837, 655.26
6.445673299963375, 655.28
6.445495193041356, 655.30
6.445317096990784, 655.32
6.445139011810663, 655.34
6.444960937500000, 655.36
6.444782874057799, 655.38
6.444604821483065, 655.40
6.444426779774801, 655.42
6.444248748932015, 655.44
6.444070728953712, 655.46
6.443892719838897, 655.48
6.443714721586575, 655.50
6.443536734195754, 655.52
6.443358757665437, 655.54
6.443180791994632, 655.56
6.443002837182342, 655.58
6.442824893227578, 655.60
6.442646960129344, 655.62
6.442469037886646, 655.64
6.442291126498491, 655.66
6.442113225963885, 655.68
6.441935336281836, 655.70
6.441757457451351, 655.72
6.441579589471437, 655.74
6.441401732341101, 655.76
6.441223886059349, 655.78
6.441046050625191, 655.80
6.440868226037633, 655.82
6.440690412295682, 655.84
6.440512609398348, 655.86
6.440334817344636, 655.88
6.440157036133558, 655.90
6.439979265764118, 655.92
6.439801506235327, 655.94
6.439623757546192, 655.96
6.439446019695723, 655.98
6.439268292682927, 656.00
6.439090576506814, 656.02
6.438912871166393, 656.04
6.438735176660672, 656.06
6.438557492988660, 656.08
6.438379820149367, 656.10
6.438202158141803, 656.12
6.438024506964977, 656.14
6.437846866617899, 656.16
6.437669237099576, 656.18
6.437491618409021, 656.20
6.437314010545244, 656.22
6.437136413507254, 656.24
6.436958827294061, 656.26
6.436781251904676, 656.28
6.436603687338108, 656.30
6.436426133593370, 656.32
6.436248590669470, 656.34
6.436071058565422, 656.36
6.435893537280235, 656.38
6.435716026812919, 656.40
6.435538527162488, 656.42
6.435361038327951, 656.44
6.435183560308320, 656.46
6.435006093102608, 656.48
6.434828636709825, 656.50
6.434651191128983, 656.52
6.434473756359095, 656.54
6.434296332399172, 656.56
6.434118919248226, 656.58
6.433941516905270, 656.60
6.433764125369316, 656.62
6.433586744639377, 656.64
6.433409374714465, 656.66
6.433232015593592, 656.68
6.433054667275773, 656.70
6.432877329760020, 656.72
6.432700003045346, 656.74
6.432522687130763, 656.76
6.432345382015288, 656.78
6.432168087697930, 656.80
6.431990804177706, 656.82
6.431813531453627, 656.84
6.431636269524708, 656.86
6.431459018389965, 656.88
6.431281778048410, 656.90
6.431104548499057, 656.92
6.430927329740920, 656.94
6.430750121773015, 656.96
6.430572924594356, 656.98
6.430395738203957, 657.00
6.430218562600834, 657.02
6.430041397784001, 657.04
6.429864243752474, 657.06
6.429687100505266, 657.08
6.429509968041394, 657.10
6.429332846359873, 657.12
6.429155735459720, 657.14
6.428978635339949, 657.16
6.428801545999574, 657.18
6.428624467437614, 657.20
6.428447399653084, 657.22
6.428270342645001, 657.24
6.428093296412379, 657.26
6.427916260954237, 657.28
6.427739236269589, 657.30
6.427562222357452, 657.32
6.427385219216844, 657.34
6.427208226846782, 657.36
6.427031245246281, 657.38
6.426854274414360, 657.40
6.426677314350036, 657.42
6.426500365052324, 657.44
6.426323426520245, 657.46
6.426146498752814, 657.48
6.425969581749050, 657.50
6.425792675507970, 657.52
6.425615780028592, 657.54
6.425438895309934, 657.56
6.425262021351014, 657.58
6.425085158150852, 657.60
6.424908305708464, 657.62
6.424731464022870, 657.64
6.424554633093088, 657.66
6.424377812918136, 657.68
6.424201003497035, 657.70
6.424024204828803, 657.72
6.423847416912458, 657.74
6.423670639747020, 657.76
6.423493873331510, 657.78
6.423317117664944, 657.80
6.423140372746345, 657.82
6.422963638574729, 657.84
6.422786915149120, 657.86
6.422610202468536, 657.88
6.422433500531996, 657.90
6.422256809338522, 657.92
6.422080128887132, 657.94
6.421903459176850, 657.96
6.421726800206693, 657.98
6.421550151975684, 658.00
6.421373514482843, 658.02
6.421196887727191, 658.04
6.421020271707748, 658.06
6.420843666423535, 658.08
6.420667071873575, 658.10
6.420490488056890, 658.12
6.420313914972499, 658.14
6.420137352619425, 658.16
6.419960800996687, 658.18
6.419784260103312, 658.20
6.419607729938319, 658.22
6.419431210500729, 658.24
6.419254701789566, 658.26
6.419078203803853, 658.28
6.418901716542610, 658.30
6.418725240004862, 658.32
6.418548774189628, 658.34
6.418372319095935, 658.36
6.418195874722805, 658.38
6.418019441069259, 658.40
6.417843018134322, 658.42
6.417666605917016, 658.44
6.417490204416366, 658.46
6.417313813631393, 658.48
6.417137433561124, 658.50
6.416961064204580, 658.52
6.416784705560787, 658.54
6.416608357628767, 658.56
6.416432020407544, 658.58
6.416255693896144, 658.60
6.416079378093590, 658.62
6.415903072998907, 658.64
6.415726778611120, 658.66
6.415550494929252, 658.68
6.415374221952330, 658.70
6.415197959679379, 658.72
6.415021708109421, 658.74
6.414845467241484, 658.76
6.414669237074593, 658.78
6.414493017607772, 658.80
6.414316808840049, 658.82
6.414140610770446, 658.84
6.413964423397990, 658.86
6.413788246721710, 658.88
6.413612080740629, 658.90
6.413435925453774, 658.92
6.413259780860169, 658.94
6.413083646958844, 658.96
6.412907523748824, 658.98
6.412731411229135, 659.00
6.412555309398805, 659.02
6.412379218256859, 659.04
6.412203137802325, 659.06
6.412027068034229, 659.08
6.411851008951601, 659.10
6.411674960553466, 659.12
6.411498922838851, 659.14
6.411322895806785, 659.16
6.411146879456294, 659.18
6.410970873786408, 659.20
6.410794878796153, 659.22
6.410618894484558, 659.24
6.410442920850651, 659.26
6.410266957893460, 659.28
6.410091005612014, 659.30
6.409915064005340, 659.32
6.409739133072466, 659.34
6.409563212812424, 659.36
6.409387303224241, 659.38
6.409211404306946, 659.40
6.409035516059568, 659.42
6.408859638481135, 659.44
6.408683771570679, 659.46
6.408507915327228, 659.48
6.408332069749811, 659.50
6.408156234837458, 659.52
6.407980410589199, 659.54
6.407804597004064, 659.56
6.407628794081082, 659.58
6.407453001819285, 659.60
6.407277220217702, 659.62
6.407101449275363, 659.64
6.406925688991299, 659.66
6.406749939364540, 659.68
6.406574200394118, 659.70
6.406398472079064, 659.72
6.406222754418407, 659.74
6.406047047411180, 659.76
6.405871351056414, 659.78
6.405695665353138, 659.80
6.405519990300386, 659.82
6.405344325897187, 659.84
6.405168672142576, 659.86
6.404993029035583, 659.88
6.404817396575239, 659.90
6.404641774760577, 659.92
6.404466163590629, 659.94
6.404290563064428, 659.96
6.404114973181006, 659.98
6.403939393939394, 660.00
6.403763825338626, 660.02
6.403588267377735, 660.04
6.403412720055753, 660.06
6.403237183371712, 660.08
6.403061657324648, 660.10
6.402886141913592, 660.12
6.402710637137577, 660.14
6.402535142995638, 660.16
6.402359659486806, 660.18
6.402184186610118, 660.20
6.402008724364606, 660.22
6.401833272749304, 660.24
6.401657831763245, 660.26
6.401482401405465, 660.28
6.401306981674997, 660.30
6.401131572570876, 660.32
6.400956174092134, 660.34
6.400780786237810, 660.36
6.400605409006936, 660.38
6.400430042398547, 660.40
6.400254686411678, 660.42
6.400079341045363, 660.44
6.399904006298640, 660.46
6.399728682170543, 660.48
6.399553368660106, 660.50
6.399378065766366, 660.52
6.399202773488359, 660.54
6.399027491825119, 660.56
6.398852220775682, 660.58
6.398676960339086, 660.60
6.398501710514366, 660.62
6.398326471300558, 660.64
6.398151242696698, 660.66
6.397976024701822, 660.68
6.397800817314969, 660.70
6.397625620535174, 660.72
6.397450434361474, 660.74
6.397275258792906, 660.76
6.397100093828506, 660.78
6.396924939467313, 660.80
6.396749795708363, 660.82
6.396574662550693, 660.84
6.396399539993342, 660.86
6.396224428035347, 660.88
6.396049326675746, 660.90
6.395874235913576, 660.92
6.395699155747874, 660.94
6.395524086177681, 660.96
6.395349027202034, 660.98
6.395173978819970, 661.00
6.394998941030529, 661.02
6.394823913832749, 661.04
6.394648897225669, 661.06
6.394473891208325, 661.08
6.394298895779762, 661.10
6.394123910939013, 661.12
6.393948936685120, 661.14
6.393773973017122, 661.16
6.393599019934057, 661.18
6.393424077434966, 661.20
6.393249145518889, 661.22
6.393074224184865, 661.24
6.392899313431934, 661.26
6.392724413259135, 661.28
6.392549523665508, 661.30
6.392374644650094, 661.32
6.392199776211934, 661.34
6.392024918350066, 661.36
6.391850071063534, 661.38
6.391675234351377, 661.40
6.391500408212634, 661.42
6.391325592646347, 661.44
6.391150787651559, 661.46
6.390975993227308, 661.48
6.390801209372638, 661.50
6.390626436086589, 661.52
6.390451673368202, 661.54
6.390276921216519, 661.56
6.390102179630581, 661.58
6.389927448609432, 661.60
6.389752728152112, 661.62
6.389578018257663, 661.64
6.389403318925129, 661.66
6.389228630153548, 661.68
6.389053951941968, 661.70
6.388879284289428, 661.72
6.388704627194971, 661.74
6.388529980657641, 661.76
6.388355344676479, 661.78
6.388180719250530, 661.80
6.388006104378835, 661.82
6.387831500060438, 661.84
6.387656906294382, 661.86
6.387482323079713, 661.88
6.387307750415471, 661.90
6.387133188300702, 661.92
6.386958636734447, 661.94
6.386784095715753, 661.96
6.386609565243663, 661.98
6.386435045317221, 662.00
6.386260535935470, 662.02
6.386086037097457, 662.04
6.385911548802224, 662.06
6.385737071048815, 662.08
6.385562603836279, 662.10
6.385388147163656, 662.12
6.385213701029994, 662.14
6.385039265434337, 662.16
6.384864840375728, 662.18
6.384690425853217, 662.20
6.384516021865846, 662.22
6.384341628412661, 662.24
6.384167245492707, 662.26
6.383992873105032, 662.28
6.383818511248680, 662.30
6.383644159922697, 662.32
6.383469819126129, 662.34
6.383295488858023, 662.36
6.383121169117425, 662.38
6.382946859903382, 662.40
6.382772561214940, 662.42
6.382598273051144, 662.44
6.382423995411044, 662.46
6.382249728293685, 662.48
6.382075471698114, 662.50
6.381901225623378, 662.52
6.381726990068525, 662.54
6.381552765032602, 662.56
6.381378550514655, 662.58
6.381204346513734, 662.60
6.381030153028886, 662.62
6.380855970059158, 662.64
6.380681797603598, 662.66
6.380507635661254, 662.68
6.380333484231175, 662.70
6.380159343312410, 662.72
6.379985212904005, 662.74
6.379811093005010, 662.76
6.379636983614473, 662.78
6.379462884731443, 662.80
6.379288796354969, 662.82
6.379114718484098, 662.84
6.378940651117883, 662.86
6.378766594255371, 662.88
6.378592547895611, 662.90
6.378418512037652, 662.92
6.378244486680544, 662.94
6.378070471823338, 662.96
6.377896467465082, 662.98
6.377722473604827, 663.00
6.377548490241622, 663.02
6.377374517374518, 663.04
6.377200555002565, 663.06
6.377026603124811, 663.08
6.376852661740311, 663.10
6.376678730848112, 663.12
6.376504810447266, 663.14
6.376330900536824, 663.16
6.376157001115835, 663.18
6.375983112183353, 663.20
6.375809233738428, 663.22
6.375635365780110, 663.24
6.375461508307452, 663.26
6.375287661319503, 663.28
6.375113824815318, 663.30
6.374939998793947, 663.32
6.374766183254439, 663.34
6.374592378195851, 663.36
6.374418583617233, 663.38
6.374244799517637, 663.40
6.374071025896114, 663.42
6.373897262751719, 663.44
6.373723510083502, 663.46
6.373549767890517, 663.48
6.373376036171816, 663.50
6.373202314926453, 663.52
6.373028604153481, 663.54
6.372854903851951, 663.56
6.372681214020917, 663.58
6.372507534659434, 663.60
6.372333865766554, 663.62
6.372160207341330, 663.64
6.371986559382817, 663.66
6.371812921890068, 663.68
6.371639294862137, 663.70
6.371465678298078, 663.72
6.371292072196945, 663.74
6.371118476557792, 663.76
6.370944891379675, 663.78
6.370771316661646, 663.80
6.370597752402761, 663.82
6.370424198602072, 663.84
6.370250655258639, 663.86
6.370077122371513, 663.88
6.369903599939750, 663.90
6.369730087962406, 663.92
6.369556586438534, 663.94
6.369383095367191, 663.96
6.369209614747432, 663.98
6.369036144578313, 664.00
6.368862684858891, 664.02
6.368689235588218, 664.04
6.368515796765354, 664.06
6.368342368389350, 664.08
6.368168950459268, 664.10
6.367995542974161, 664.12
6.367822145933087, 664.14
6.367648759335101, 664.16
6.367475383179259, 664.18
6.367302017464619, 664.20
6.367128662190238, 664.22
6.366955317355173, 664.24
6.366781982958480, 664.26
6.366608658999218, 664.28
6.366435345476442, 664.30
6.366262042389211, 664.32
6.366088749736581, 664.34
6.365915467517612, 664.36
6.365742195731359, 664.38
6.365568934376882, 664.40
6.365395683453238, 664.42
6.365222442959484, 664.44
6.365049212894681, 664.46
6.364875993257886, 664.48
6.364702784048156, 664.50
6.364529585264552, 664.52
6.364356396906131, 664.54
6.364183218971952, 664.56
6.364010051461073, 664.58
6.363836894372555, 664.60
6.363663747705456, 664.62
6.363490611458835, 664.64
6.363317485631752, 664.66
6.363144370223266, 664.68
6.362971265232436, 664.70
6.362798170658323, 664.72
6.362625086499985, 664.74
6.362452012756484, 664.76
6.362278949426878, 664.78
6.362105896510229, 664.80
6.361932854005596, 664.82
6.361759821912039, 664.84
6.361586800228619, 664.86
6.361413788954398, 664.88
6.361240788088435, 664.90
6.361067797629791, 664.92
6.360894817577526, 664.94
6.360721847930702, 664.96
6.360548888688382, 664.98
6.360375939849624, 665.00
6.360203001413492, 665.02
6.360030073379045, 665.04
6.359857155745347, 665.06
6.359684248511457, 665.08
6.359511351676439, 665.10
6.359338465239356, 665.12
6.359165589199267, 665.14
6.358992723555235, 665.16
6.358819868306323, 665.18
6.358647023451593, 665.20
6.358474188990108, 665.22
6.358301364920931, 665.24
6.358128551243124, 665.26
6.357955747955748, 665.28
6.357782955057870, 665.30
6.357610172548549, 665.32
6.357437400426850, 665.34
6.357264638691836, 665.36
6.357091887342571, 665.38
6.356919146378119, 665.40
6.356746415797542, 665.42
6.356573695599904, 665.44
6.356400985784269, 665.46
6.356228286349703, 665.48
6.356055597295267, 665.50
6.355882918620027, 665.52
6.355710250323047, 665.54
6.355537592403390, 665.56
6.355364944860122, 665.58
6.355192307692308, 665.60
6.355019680899011, 665.62
6.354847064479299, 665.64
6.354674458432234, 665.66
6.354501862756880, 665.68
6.354329277452305, 665.70
6.354156702517575, 665.72
6.353984137951753, 665.74
6.353811583753906, 665.76
6.353639039923098, 665.78
6.353466506458397, 665.80
6.353293983358866, 665.82
6.353121470623574, 665.84
6.352948968251584, 665.86
6.352776476241966, 665.88
6.352603994593784, 665.90
6.352431523306104, 665.92
6.352259062377992, 665.94
6.352086611808517, 665.96
6.351914171596745, 665.98
6.351741741741742, 666.00
6.351569322242576, 666.02
6.351396913098313, 666.04
6.351224514308021, 666.06
6.351052125870766, 666.08
6.350879747785618, 666.10
6.350707380051642, 666.12
6.350535022667908, 666.14
6.350362675633482, 666.16
6.350190338947431, 666.18
6.350018012608826, 666.20
6.349845696616733, 666.22
6.349673390970221, 666.24
6.349501095668358, 666.26
6.349328810710213, 666.28
6.349156536094853, 666.30
6.348984271821348, 666.32
6.348812017888766, 666.34
6.348639774296177, 666.36
6.348467541042648, 666.38
6.348295318127251, 666.40
6.348123105549054, 666.42
6.347950903307124, 666.44
6.347778711400534, 666.46
6.347606529828352, 666.48
6.347434358589648, 666.50
6.347262197683491, 666.52
6.347090047108951, 666.54
6.346917906865099, 666.56
6.346745776951003, 666.58
6.346573657365736, 666.60
6.346401548108368, 666.62
6.346229449177968, 666.64
6.346057360573607, 666.66
6.345885282294354, 666.68
6.345713214339283, 666.70
6.345541156707464, 666.72
6.345369109397966, 666.74
6.345197072409863, 666.76
6.345025045742225, 666.78
6.344853029394122, 666.80
6.344681023364627, 666.82
6.344509027652810, 666.84
6.344337042257745, 666.86
6.344165067178503, 666.88
6.343993102414156, 666.90
6.343821147963775, 666.92
6.343649203826431, 666.94
6.343477270001199, 666.96
6.343305346487151, 666.98
6.343133433283358, 667.00
6.342961530388894, 667.02
6.342789637802831, 667.04
6.342617755524241, 667.06
6.342445883552197, 667.08
6.342274021885775, 667.10
6.342102170524044, 667.12
6.341930329466080, 667.14
6.341758498710955, 667.16
6.341586678257741, 667.18
6.341414868105516, 667.20
6.341243068253350, 667.22
6.341071278700318, 667.24
6.340899499445494, 667.26
6.340727730487951, 667.28
6.340555971826765, 667.30
6.340384223461009, 667.32
6.340212485389756, 667.34
6.340040757612083, 667.36
6.339869040127065, 667.38
6.339697332933773, 667.40
6.339525636031285, 667.42
6.339353949418674, 667.44
6.339182273095017, 667.46
6.339010607059388, 667.48
6.338838951310862, 667.50
6.338667305848515, 667.52
6.338495670671422, 667.54
6.338324045778657, 667.56
6.338152431169298, 667.58
6.337980826842421, 667.60
6.337809232797101, 667.62
6.337637649032414, 667.64
6.337466075547435, 667.66
6.337294512341241, 667.68
6.337122959412910, 667.70
6.336951416761517, 667.72
6.336779884386138, 667.74
6.336608362285852, 667.76
6.336436850459733, 667.78
6.336265348906859, 667.80
6.336093857626308, 667.82
6.335922376617154, 667.84
6.335750905878478, 667.86
6.335579445409356, 667.88
6.335407995208864, 667.90
6.335236555276081, 667.92
6.335065125610084, 667.94
6.334893706209953, 667.96
6.334722297074763, 667.98
6.334550898203593, 668.00
6.334379509595522, 668.02
6.334208131249627, 668.04
6.334036763164986, 668.06
6.333865405340678, 668.08
6.333694057775782, 668.10
6.333522720469377, 668.12
6.333351393420541, 668.14
6.333180076628353, 668.16
6.333008770091891, 668.18
6.332837473810236, 668.20
6.332666187782467, 668.22
6.332494912007662, 668.24
6.332323646484902, 668.26
6.332152391213264, 668.28
6.331981146191831, 668.30
6.331809911419680, 668.32
6.331638686895891, 668.34
6.331467472619546, 668.36
6.331296268589725, 668.38
6.331125074805506, 668.40
6.330953891265971, 668.42
6.330782717970199, 668.44
6.330611554917272, 668.46
6.330440402106271, 668.48
6.330269259536276, 668.50
6.330098127206367, 668.52
6.329927005115626, 668.54
6.329755893263133, 668.56
6.329584791647970, 668.58
6.329413700269219, 668.60
6.329242619125961, 668.62
6.329071548217278, 668.64
6.328900487542249, 668.66
6.328729437099958, 668.68
6.328558396889487, 668.70
6.328387366909918, 668.72
6.328216347160332, 668.74
6.328045337639812, 668.76
6.327874338347439, 668.78
6.327703349282297, 668.80
6.327532370443469, 668.82
6.327361401830034, 668.84
6.327190443441079, 668.86
6.327019495275685, 668.88
6.326848557332935, 668.90
6.326677629611912, 668.92
6.326506712111699, 668.94
6.326335804831380, 668.96
6.326164907770038, 668.98
6.325994020926757, 669.00
6.325823144300619, 669.02
6.325652277890709, 669.04
6.325481421696112, 669.06
6.325310575715909, 669.08
6.325139739949186, 669.10
6.324968914395027, 669.12
6.324798099052516, 669.14
6.324627293920737, 669.16
6.324456498998774, 669.18
6.324285714285714, 669.20
6.324114939780641, 669.22
6.323944175482637, 669.24
6.323773421390790, 669.26
6.323602677504184, 669.28
6.323431943821904, 669.30
6.323261220343036, 669.32
6.323090507066663, 669.34
6.322919803991873, 669.36
6.322749111117751, 669.38
6.322578428443383, 669.40
6.322407755967854, 669.42
6.322237093690249, 669.44
6.322066441609656, 669.46
6.321895799725160, 669.48
6.321725168035848, 669.50
6.321554546540805, 669.52
6.321383935239120, 669.54
6.321213334129877, 669.56
6.321042743212163, 669.58
6.320872162485066, 669.60
6.320701591947672, 669.62
6.320531031599068, 669.64
6.320360481438343, 669.66
6.320189941464580, 669.68
6.320019411676870, 669.70
6.319848892074300, 669.72
6.319678382655956, 669.74
6.319507883420927, 669.76
6.319337394368301, 669.78
6.319166915497164, 669.80
6.318996446806605, 669.82
6.318825988295712, 669.84
6.318655539963575, 669.86
6.318485101809280, 669.88
6.318314673831916, 669.90
6.318144256030571, 669.92
6.317973848404335, 669.94
6.317803450952296, 669.96
6.317633063673543, 669.98
6.317462686567165, 670.00
6.317292319632251, 670.02
6.317121962867889, 670.04
6.316951616273171, 670.06
6.316781279847183, 670.08
6.316610953589016, 670.10
6.316440637497762, 670.12
6.316270331572508, 670.14
6.316100035812344, 670.16
6.315929750216360, 670.18
6.315759474783647, 670.20
6.315589209513294, 670.22
6.315418954404393, 670.24
6.315248709456032, 670.26
6.315078474667303, 670.28
6.314908250037297, 670.30
6.314738035565104, 670.32
6.314567831249813, 670.34
6.314397637090519, 670.36
6.314227453086310, 670.38
6.314057279236278, 670.40
6.313887115539513, 670.42
6.313716961995108, 670.44
6.313546818602154, 670.46
6.313376685359742, 670.48
6.313206562266966, 670.50
6.313036449322914, 670.52
6.312866346526681, 670.54
6.312696253877357, 670.56
6.312526171374034, 670.58
6.312356099015807, 670.60
6.312186036801766, 670.62
6.312015984731004, 670.64
6.311845942802613, 670.66
6.311675911015685, 670.68
6.311505889369315, 670.70
6.311335877862596, 670.72
6.311165876494618, 670.74
6.310995885264476, 670.76
6.310825904171264, 670.78
6.310655933214074, 670.80
6.310485972391999, 670.82
6.310316021704132, 670.84
6.310146081149569, 670.86
6.309976150727403, 670.88
6.309806230436728, 670.90
6.309636320276636, 670.92
6.309466420246221, 670.94
6.309296530344580, 670.96
6.309126650570807, 670.98
6.308956780923994, 671.00
6.308786921403238, 671.02
6.308617072007631, 671.04
6.308447232736269, 671.06
6.308277403588246, 671.08
6.308107584562658, 671.10
6.307937775658601, 671.12
6.307767976875168, 671.14
6.307598188211456, 671.16
6.307428409666557, 671.18
6.307258641239571, 671.20
6.307088882929591, 671.22
6.306919134735713, 671.24
6.306749396657033, 671.26
6.306579668692647, 671.28
6.306409950841651, 671.30
6.306240243103141, 671.32
6.306070545476212, 671.34
6.305900857959962, 671.36
6.305731180553487, 671.38
6.305561513255884, 671.40
6.305391856066248, 671.42
6.305222208983677, 671.44
6.305052572007268, 671.46
6.304882945136117, 671.48
6.304713328369322, 671.50
6.304543721705981, 671.52
6.304374125145189, 671.54
6.304204538686045, 671.56
6.304034962327645, 671.58
6.303865396069089, 671.60
6.303695839909473, 671.62
6.303526293847895, 671.64
6.303356757883454, 671.66
6.303187232015246, 671.68
6.303017716242370, 671.70
6.302848210563925, 671.72
6.302678714979010, 671.74
6.302509229486722, 671.76
6.302339754086160, 671.78
6.302170288776423, 671.80
6.302000833556608, 671.82
6.301831388425816, 671.84
6.301661953383146, 671.86
6.301492528427696, 671.88
6.301323113558566, 671.90
6.301153708774855, 671.92
6.300984314075661, 671.94
6.300814929460087, 671.96
6.300645554927230, 671.98
6.300476190476191, 672.00
6.300306836106069, 672.02
6.300137491815964, 672.04
6.299968157604977, 672.06
6.299798833472206, 672.08
6.299629519416754, 672.10
6.299460215437720, 672.12
6.299290921534205, 672.14
6.299121637705309, 672.16
6.298952363950132, 672.18
6.298783100267777, 672.20
6.298613846657345, 672.22
6.298444603117934, 672.24
6.298275369648648, 672.26
6.298106146248587, 672.28
6.297936932916853, 672.30
6.297767729652548, 672.32
6.297598536454770, 672.34
6.297429353322625, 672.36
6.297260180255213, 672.38
6.297091017251637, 672.40
6.296921864310997, 672.42
6.296752721432395, 672.44
6.296583588614936, 672.46
6.296414465857721, 672.48
6.296245353159851, 672.50
6.296076250520431, 672.52
6.295907157938561, 672.54
6.295738075413347, 672.56
6.295569002943887, 672.58
6.295399940529290, 672.60
6.295230888168654, 672.62
6.295061845861085, 672.64
6.294892813605686, 672.66
6.294723791401558, 672.68
6.294554779247807, 672.70
6.294385777143537, 672.72
6.294216785087850, 672.74
6.294047803079851, 672.76
6.293878831118643, 672.78
6.293709869203330, 672.80
6.293540917333017, 672.82
6.293371975506807, 672.84
6.293203043723806, 672.86
6.293034121983117, 672.88
6.292865210283846, 672.90
6.292696308625097, 672.92
6.292527417005974, 672.94
6.292358535425582, 672.96
6.292189663883028, 672.98
6.292020802377415, 673.00
6.291851950907849, 673.02
6.291683109473435, 673.04
6.291514278073278, 673.06
6.291345456706484, 673.08
6.291176645372158, 673.10
6.291007844069409, 673.12
6.290839052797338, 673.14
6.290670271555054, 673.16
6.290501500341661, 673.18
6.290332739156269, 673.20
6.290163987997980, 673.22
6.289995246865902, 673.24
6.289826515759143, 673.26
6.289657794676806, 673.28
6.289489083618002, 673.30
6.289320382581834, 673.32
6.289151691567410, 673.34
6.288983010573839, 673.36
6.288814339600227, 673.38
6.288645678645679, 673.40
6.288477027709305, 673.42
6.288308386790211, 673.44
6.288139755887507, 673.46
6.287971135000297, 673.48
6.287802524127692, 673.50
6.287633923268797, 673.52
6.287465332422722, 673.54
6.287296751588575, 673.56
6.287128180765462, 673.58
6.286959619952494, 673.60
6.286791069148778, 673.62
6.286622528353424, 673.64
6.286453997565538, 673.66
6.286285476784229, 673.68
6.286116966008609, 673.70
6.285948465237785, 673.72
6.285779974470865, 673.74
6.285611493706958, 673.76
6.285443022945175, 673.78
6.285274562184625, 673.80
6.285106111424417, 673.82
6.284937670663659, 673.84
6.284769239901464, 673.86
6.284600819136939, 673.88
6.284432408369195, 673.90
6.284264007597342, 673.92
6.284095616820489, 673.94
6.283927236037747, 673.96
6.283758865248227, 673.98
6.283590504451039, 674.00
6.283422153645293, 674.02
6.283253812830099, 674.04
6.283085482004570, 674.06
6.282917161167814, 674.08
6.282748850318944, 674.10
6.282580549457070, 674.12
6.282412258581304, 674.14
6.282243977690756, 674.16
6.282075706784538, 674.18
6.281907445861762, 674.20
6.281739194921539, 674.22
6.281570953962981, 674.24
6.281402722985199, 674.26
6.281234501987305, 674.28
6.281066290968412, 674.30
6.280898089927631, 674.32
6.280729898864075, 674.34
6.280561717776855, 674.36
6.280393546665086, 674.38
6.280225385527877, 674.40
6.280057234364343, 674.42
6.279889093173596, 674.44
6.279720961954749, 674.46
6.279552840706915, 674.48
6.279384729429207, 674.50
6.279216628120738, 674.52
6.279048536780621, 674.54
6.278880455407970, 674.56
6.278712384001897, 674.58
6.278544322561518, 674.60
6.278376271085945, 674.62
6.278208229574292, 674.64
6.278040198025673, 674.66
6.277872176439200, 674.68
6.277704164813992, 674.70
6.277536163149159, 674.72
6.277368171443816, 674.74
6.277200189697078, 674.76
6.277032217908060, 674.78
6.276864256075875, 674.80
6.276696304199639, 674.82
6.276528362278466, 674.84
6.276360430311472, 674.86
6.276192508297772, 674.88
6.276024596236480, 674.90
6.275856694126712, 674.92
6.275688801967582, 674.94
6.275520919758208, 674.96
6.275353047497704, 674.98
6.275185185185186, 675.00
6.275017332819769, 675.02
6.274849490400570, 675.04
6.274681657926704, 675.06
6.274513835397286, 675.08
6.274346022811436, 675.10
6.274178220168267, 675.12
6.274010427466896, 675.14
6.273842644706440, 675.16
6.273674871886016, 675.18
6.273507109004739, 675.20
6.273339356061729, 675.22
6.273171613056099, 675.24
6.273003879986969, 675.26
6.272836156853454, 675.28
6.272668443654672, 675.30
6.272500740389742, 675.32
6.272333047057779, 675.34
6.272165363657901, 675.36
6.271997690189227, 675.38
6.271830026650874, 675.40
6.271662373041960, 675.42
6.271494729361601, 675.44
6.271327095608918, 675.46
6.271159471783029, 675.48
6.270991857883049, 675.50
6.270824253908101, 675.52
6.270656659857300, 675.54
6.270489075729766, 675.56
6.270321501524616, 675.58
6.270153937240971, 675.60
6.269986382877949, 675.62
6.269818838434670, 675.64
6.269651303910251, 675.66
6.269483779303812, 675.68
6.269316264614474, 675.70
6.269148759841355, 675.72
6.268981264983574, 675.74
6.268813780040252, 675.76
6.268646305010507, 675.78
6.268478839893461, 675.80
6.268311384688231, 675.82
6.268143939393940, 675.84
6.267976504009706, 675.86
6.267809078534651, 675.88
6.267641662967895, 675.90
6.267474257308558, 675.92
6.267306861555760, 675.94
6.267139475708622, 675.96
6.266972099766265, 675.98
6.266804733727811, 676.00
6.266637377592380, 676.02
6.266470031359092, 676.04
6.266302695027069, 676.06
6.266135368595433, 676.08
6.265968052063305, 676.10
6.265800745429805, 676.12
6.265633448694058, 676.14
6.265466161855183, 676.16
6.265298884912301, 676.18
6.265131617864537, 676.20
6.264964360711011, 676.22
6.264797113450846, 676.24
6.264629876083164, 676.26
6.264462648607086, 676.28
6.264295431021736, 676.30
6.264128223326237, 676.32
6.263961025519709, 676.34
6.263793837601278, 676.36
6.263626659570065, 676.38
6.263459491425193, 676.40
6.263292333165785, 676.42
6.263125184790964, 676.44
6.262958046299855, 676.46
6.262790917691580, 676.48
6.262623798965262, 676.50
6.262456690120026, 676.52
6.262289591154995, 676.54
6.262122502069293, 676.56
6.261955422862042, 676.58
6.261788353532368, 676.60
6.261621294079394, 676.62
6.261454244502247, 676.64
6.261287204800048, 676.66
6.261120174971921, 676.68
6.260953155016995, 676.70
6.260786144934389, 676.72
6.260619144723232, 676.74
6.260452154382647, 676.76
6.260285173911759, 676.78
6.260118203309693, 676.80
6.259951242575575, 676.82
6.259784291708528, 676.84
6.259617350707680, 676.86
6.259450419572155, 676.88
6.259283498301079, 676.90
6.259116586893578, 676.92
6.258949685348775, 676.94
6.258782793665800, 676.96
6.258615911843777, 676.98
6.258449039881832, 677.00
6.258282177779091, 677.02
6.258115325534681, 677.04
6.257948483147728, 677.06
6.257781650617357, 677.08
6.257614827942697, 677.10
6.257448015122874, 677.12
6.257281212157014, 677.14
6.257114419044244, 677.16
6.256947635783691, 677.18
6.256780862374483, 677.20
6.256614098815747, 677.22
6.256447345106610, 677.24
6.256280601246198, 677.26
6.256113867233641, 677.28
6.255947143068065, 677.30
6.255780428748598, 677.32
6.255613724274367, 677.34
6.255447029644502, 677.36
6.255280344858130, 677.38
6.255113669914379, 677.40
6.254947004812377, 677.42
6.254780349551251, 677.44
6.254613704130133, 677.46
6.254447068548149, 677.48
6.254280442804428, 677.50
6.254113826898100, 677.52
6.253947220828291, 677.54
6.253780624594133, 677.56
6.253614038194752, 677.58
6.253447461629280, 677.60
6.253280894896845, 677.62
6.253114337996577, 677.64
6.252947790927604, 677.66
6.252781253689056, 677.68
6.252614726280065, 677.70
6.252448208699758, 677.72
6.252281700947266, 677.74
6.252115203021719, 677.76
6.251948714922246, 677.78
6.251782236647980, 677.80
6.251615768198048, 677.82
6.251449309571580, 677.84
6.251282860767710, 677.86
6.251116421785567, 677.88
6.250949992624282, 677.90
6.250783573282984, 677.92
6.250617163760805, 677.94
6.250450764056876, 677.96
6.250284374170330, 677.98
6.250117994100295, 678.00
6.249951623845905, 678.02
6.249785263406289, 678.04
6.249618912780581, 678.06
6.249452571967909, 678.08
6.249286240967409, 678.10
6.249119919778210, 678.12
6.248953608399446, 678.14
6.248787306830248, 678.16
6.248621015069745, 678.18
6.248454733117074, 678.20
6.248288460971366, 678.22
6.248122198631753, 678.24
6.247955946097367, 678.26
6.247789703367341, 678.28
6.247623470440809, 678.30
6.247457247316901, 678.32
6.247291033994752, 678.34
6.247124830473495, 678.36
6.246958636752263, 678.38
6.246792452830189, 678.40
6.246626278706406, 678.42
6.246460114380048, 678.44
6.246293959850249, 678.46
6.246127815116142, 678.48
6.245961680176861, 678.50
6.245795555031540, 678.52
6.245629439679312, 678.54
6.245463334119313, 678.56
6.245297238350673, 678.58
6.245131152372532, 678.60
6.244965076184021, 678.62
6.244799009784275, 678.64
6.244632953172428, 678.66
6.244466906347616, 678.68
6.244300869308973, 678.70
6.244134842055634, 678.72
6.243968824586735, 678.74
6.243802816901409, 678.76
6.243636818998793, 678.78
6.243470830878021, 678.80
6.243304852538229, 678.82
6.243138883978552, 678.84
6.242972925198126, 678.86
6.242806976196088, 678.88
6.242641036971572, 678.90
6.242475107523715, 678.92
6.242309187851651, 678.94
6.242143277954519, 678.96
6.241977377831454, 678.98
6.241811487481591, 679.00
6.241645606904068, 679.02
6.241479736098022, 679.04
6.241313875062588, 679.06
6.241148023796901, 679.08
6.240982182300103, 679.10
6.240816350571328, 679.12
6.240650528609713, 679.14
6.240484716414395, 679.16
6.240318913984511, 679.18
6.240153121319199, 679.20
6.239987338417596, 679.22
6.239821565278842, 679.24
6.239655801902070, 679.26
6.239490048286421, 679.28
6.239324304431032, 679.30
6.239158570335042, 679.32
6.238992845997586, 679.34
6.238827131417805, 679.36
6.238661426594837, 679.38
6.238495731527819, 679.40
6.238330046215891, 679.42
6.238164370658189, 679.44
6.237998704853855, 679.46
6.237833048802025, 679.48
6.237667402501840, 679.50
6.237501765952437, 679.52
6.237336139152957, 679.54
6.237170522102538, 679.56
6.237004914800318, 679.58
6.236839317245439, 679.60
6.236673729437038, 679.62
6.236508151374258, 679.64
6.236342583056235, 679.66
6.236177024482109, 679.68
6.236011475651022, 679.70
6.235845936562114, 679.72
6.235680407214524, 679.74
6.235514887607391, 679.76
6.235349377739857, 679.78
6.235183877611063, 679.80
6.235018387220148, 679.82
6.234852906566251, 679.84
6.234687435648516, 679.86
6.234521974466083, 679.88
6.234356523018091, 679.90
6.234191081303684, 679.92
6.234025649321999, 679.94
6.233860227072181, 679.96
6.233694814553369, 679.98
6.233529411764706, 680.00
6.233364018705332, 680.02
6.233198635374390, 680.04
6.233033261771021, 680.06
6.232867897894366, 680.08
6.232702543743567, 680.10
6.232537199317767, 680.12
6.232371864616109, 680.14
6.232206539637733, 680.16
6.232041224381781, 680.18
6.231875918847398, 680.20
6.231710623033725, 680.22
6.231545336939904, 680.24
6.231380060565079, 680.26
6.231214793908391, 680.28
6.231049536968985, 680.30
6.230884289746003, 680.32
6.230719052238586, 680.34
6.230553824445882, 680.36
6.230388606367031, 680.38
6.230223398001177, 680.40
6.230058199347463, 680.42
6.229893010405032, 680.44
6.229727831173030, 680.46
6.229562661650600, 680.48
6.229397501836885, 680.50
6.229232351731030, 680.52
6.229067211332178, 680.54
6.228902080639474, 680.56
6.228736959652061, 680.58
6.228571848369087, 680.60
6.228406746789692, 680.62
6.228241654913023, 680.64
6.228076572738225, 680.66
6.227911500264441, 680.68
6.227746437490818, 680.70
6.227581384416500, 680.72
6.227416341040633, 680.74
6.227251307362360, 680.76
6.227086283380828, 680.78
6.226921269095183, 680.80
6.226756264504568, 680.82
6.226591269608131, 680.84
6.226426284405018, 680.86
6.226261308894372, 680.88
6.226096343075342, 680.90
6.225931386947073, 680.92
6.225766440508709, 680.94
6.225601503759399, 680.96
6.225436576698288, 680.98
6.225271659324523, 681.00
6.225106751637250, 681.02
6.224941853635617, 681.04
6.224776965318768, 681.06
6.224612086685852, 681.08
6.224447217736016, 681.10
6.224282358468405, 681.12
6.224117508882169, 681.14
6.223952668976453, 681.16
6.223787838750403, 681.18
6.223623018203170, 681.20
6.223458207333901, 681.22
6.223293406141742, 681.24
6.223128614625841, 681.26
6.222963832785346, 681.28
6.222799060619405, 681.30
6.222634298127166, 681.32
6.222469545307776, 681.34
6.222304802160386, 681.36
6.222140068684141, 681.38
6.221975344878192, 681.40
6.221810630741687, 681.42
6.221645926273773, 681.44
6.221481231473601, 681.46
6.221316546340319, 681.48
6.221151870873075, 681.50
6.220987205071018, 681.52
6.220822548933299, 681.54
6.220657902459065, 681.56
6.220493265647466, 681.58
6.220328638497652, 681.60
6.220164021008774, 681.62
6.219999413179978, 681.64
6.219834815010416, 681.66
6.219670226499237, 681.68
6.219505647645592, 681.70
6.219341078448630, 681.72
6.219176518907502, 681.74
6.219011969021357, 681.76
6.218847428789346, 681.78
6.218682898210620, 681.80
6.218518377284328, 681.82
6.218353866009621, 681.84
6.218189364385651, 681.86
6.218024872411569, 681.88
6.217860390086523, 681.90
6.217695917409667, 681.92
6.217531454380151, 681.94
6.217367000997126, 681.96
6.217202557259744, 681.98
6.217038123167156, 682.00
6.216873698718513, 682.02
6.216709283912968, 682.04
6.216544878749671, 682.06
6.216380483227774, 682.08
6.216216097346431, 682.10
6.216051721104791, 682.12
6.215887354502009, 682.14
6.215722997537235, 682.16
6.215558650209622, 682.18
6.215394312518323, 682.20
6.215229984462490, 682.22
6.215065666041276, 682.24
6.214901357253833, 682.26
6.214737058099314, 682.28
6.214572768576873, 682.30
6.214408488685661, 682.32
6.214244218424832, 682.34
6.214079957793540, 682.36
6.213915706790938, 682.38
6.213751465416179, 682.40
6.213587233668416, 682.42
6.213423011546802, 682.44
6.213258799050494, 682.46
6.213094596178642, 682.48
6.212930402930403, 682.50
6.212766219304929, 682.52
6.212602045301375, 682.54
6.212437880918895, 682.56
6.212273726156641, 682.58
6.212109581013771, 682.60
6.211945445489438, 682.62
6.211781319582797, 682.64
6.211617203293001, 682.66
6.211453096619207, 682.68
6.211288999560568, 682.70
6.211124912116241, 682.72
6.210960834285379, 682.74
6.210796766067140, 682.76
6.210632707460676, 682.78
6.210468658465144, 682.80
6.210304619079699, 682.82
6.210140589303498, 682.84
6.209976569135694, 682.86
6.209812558575446, 682.88
6.209648557621907, 682.90
6.209484566274234, 682.92
6.209320584531584, 682.94
6.209156612393112, 682.96
6.208992649857976, 682.98
6.208828696925329, 683.00
6.208664753594332, 683.02
6.208500819864137, 683.04
6.208336895733904, 683.06
6.208172981202788, 683.08
6.208009076269946, 683.10
6.207845180934536, 683.12
6.207681295195714, 683.14
6.207517419052638, 683.16
6.207353552504464, 683.18
6.207189695550351, 683.20
6.207025848189456, 683.22
6.206862010420936, 683.24
6.206698182243948, 683.26
6.206534363657652, 683.28
6.206370554661204, 683.30
6.206206755253762, 683.32
6.206042965434484, 683.34
6.205879185202529, 683.36
6.205715414557055, 683.38
6.205551653497221, 683.40
6.205387902022183, 683.42
6.205224160131102, 683.44
6.205060427823136, 683.46
6.204896705097442, 683.48
6.204732991953183, 683.50
6.204569288389513, 683.52
6.204405594405595, 683.54
6.204241910000586, 683.56
6.204078235173645, 683.58
6.203914569923932, 683.60
6.203750914250607, 683.62
6.203587268152829, 683.64
6.203423631629758, 683.66
6.203260004680552, 683.68
6.203096387304373, 683.70
6.202932779500380, 683.72
6.202769181267733, 683.74
6.202605592605593, 683.76
6.202442013513119, 683.78
6.202278443989472, 683.80
6.202114884033811, 683.82
6.201951333645297, 683.84
6.201787792823093, 683.86
6.201624261566357, 683.88
6.201460739874251, 683.90
6.201297227745936, 683.92
6.201133725180571, 683.94
6.200970232177320, 683.96
6.200806748735343, 683.98
6.200643274853801, 684.00
6.200479810531856, 684.02
6.200316355768669, 684.04
6.200152910563402, 684.06
6.199989474915214, 684.08
6.199826048823271, 684.10
6.199662632286733, 684.12
6.199499225304763, 684.14
6.199335827876521, 684.16
6.199172440001169, 684.18
6.199009061677872, 684.20
6.198845692905791, 684.22
6.198682333684087, 684.24
6.198518984011925, 684.26
6.198355643888467, 684.28
6.198192313312875, 684.30
6.198028992284312, 684.32
6.197865680801940, 684.34
6.197702378864925, 684.36
6.197539086472428, 684.38
6.197375803623612, 684.40
6.197212530317642, 684.42
6.197049266553678, 684.44
6.196886012330888, 684.46
6.196722767648434, 684.48
6.196559532505479, 684.50
6.196396306901186, 684.52
6.196233090834721, 684.54
6.196069884305248, 684.56
6.195906687311928, 684.58
6.195743499853929, 684.60
6.195580321930414, 684.62
6.195417153540547, 684.64
6.195253994683493, 684.66
6.195090845358416, 684.68
6.194927705564480, 684.70
6.194764575300853, 684.72
6.194601454566697, 684.74
6.194438343361178, 684.76
6.194275241683461, 684.78
6.194112149532711, 684.80
6.193949066908093, 684.82
6.193785993808773, 684.84
6.193622930233917, 684.86
6.193459876182689, 684.88
6.193296831654257, 684.90
6.193133796647785, 684.92
6.192970771162438, 684.94
6.192807755197384, 684.96
6.192644748751788, 684.98
6.192481751824817, 685.00
6.192318764415638, 685.02
6.192155786523415, 685.04
6.191992818147316, 685.06
6.191829859286507, 685.08
6.191666909940155, 685.10
6.191503970107426, 685.12
6.191341039787489, 685.14
6.191178118979509, 685.16
6.191015207682653, 685.18
6.190852305896088, 685.20
6.190689413618983, 685.22
6.190526530850505, 685.24
6.190363657589820, 685.26
6.190200793836096, 685.28
6.190037939588502, 685.30
6.189875094846204, 685.32
6.189712259608370, 685.34
6.189549433874168, 685.36
6.189386617642768, 685.38
6.189223810913336, 685.40
6.189061013685040, 685.42
6.188898225957050, 685.44
6.188735447728533, 685.46
6.188572678998658, 685.48
6.188409919766594, 685.50
6.188247170031509, 685.52
6.188084429792573, 685.54
6.187921699048953, 685.56
6.187758977799819, 685.58
6.187596266044340, 685.60
6.187433563781687, 685.62
6.187270871011027, 685.64
6.187108187731529, 685.66
6.186945513942364, 685.68
6.186782849642701, 685.70
6.186620194831709, 685.72
6.186457549508560, 685.74
6.186294913672422, 685.76
6.186132287322465, 685.78
6.185969670457860, 685.80
6.185807063077776, 685.82
6.185644465181383, 685.84
6.185481876767854, 685.86
6.185319297836356, 685.88
6.185156728386063, 685.90
6.184994168416143, 685.92
6.184831617925766, 685.94
6.184669076914106, 685.96
6.184506545380332, 685.98
6.184344023323615, 686.00
6.184181510743127, 686.02
6.184019007638039, 686.04
6.183856514007522, 686.06
6.183694029850746, 686.08
6.183531555166885, 686.10
6.183369089955110, 686.12
6.183206634214592, 686.14
6.183044187944503, 686.16
6.182881751144015, 686.18
6.182719323812299, 686.20
6.182556905948529, 686.22
6.182394497551877, 686.24
6.182232098621514, 686.26
6.182069709156613, 686.28
6.181907329156346, 686.30
6.181744958619887, 686.32
6.181582597546406, 686.34
6.181420245935078, 686.36
6.181257903785076, 686.38
6.181095571095572, 686.40
6.180933247865739, 686.42
6.180770934094750, 686.44
6.180608629781779, 686.46
6.180446334926000, 686.48
6.180284049526584, 686.50
6.180121773582708, 686.52
6.179959507093542, 686.54
6.179797250058262, 686.56
6.179635002476041, 686.58
6.179472764346053, 686.60
6.179310535667473, 686.62
6.179148316439473, 686.64
6.178986106661230, 686.66
6.178823906331916, 686.68
6.178661715450707, 686.70
6.178499534016775, 686.72
6.178337362029298, 686.74
6.178175199487448, 686.76
6.178013046390402, 686.78
6.177850902737333, 686.80
6.177688768527417, 686.82
6.177526643759828, 686.84
6.177364528433742, 686.86
6.177202422548335, 686.88
6.177040326102781, 686.90
6.176878239096256, 686.92
6.176716161527936, 686.94
6.176554093396995, 686.96
6.176392034702611, 686.98
6.176229985443960, 687.00
6.176067945620216, 687.02
6.175905915230555, 687.04
6.175743894274154, 687.06
6.175581882750190, 687.08
6.175419880657837, 687.10
6.175257887996275, 687.12
6.175095904764677, 687.14
6.174933930962222, 687.16
6.174771966588084, 687.18
6.174610011641444, 687.20
6.174448066121475, 687.22
6.174286130027356, 687.24
6.174124203358264, 687.26
6.173962286113375, 687.28
6.173800378291867, 687.30
6.173638479892919, 687.32
6.173476590915704, 687.34
6.173314711359405, 687.36
6.173152841223196, 687.38
6.172990980506256, 687.40
6.172829129207763, 687.42
6.172667287326894, 687.44
6.172505454862828, 687.46
6.172343631814744, 687.48
6.172181818181818, 687.50
6.172020013963230, 687.52
6.171858219158159, 687.54
6.171696433765781, 687.56
6.171534657785276, 687.58
6.171372891215824, 687.60
6.171211134056601, 687.62
6.171049386306789, 687.64
6.170887647965565, 687.66
6.170725919032107, 687.68
6.170564199505598, 687.70
6.170402489385215, 687.72
6.170240788670137, 687.74
6.170079097359545, 687.76
6.169917415452616, 687.78
6.169755742948532, 687.80
6.169594079846473, 687.82
6.169432426145615, 687.84
6.169270781845143, 687.86
6.169109146944235, 687.88
6.168947521442070, 687.90
6.168785905337830, 687.92
6.168624298630695, 687.94
6.168462701319844, 687.96
6.168301113404460, 687.98
6.168139534883721, 688.00
6.167977965756810, 688.02
6.167816406022906, 688.04
6.167654855681191, 688.06
6.167493314730845, 688.08
6.167331783171051, 688.10
6.167170261000988, 688.12
6.167008748219839, 688.14
6.166847244826785, 688.16
6.166685750821006, 688.18
6.166524266201685, 688.20
6.166362790968004, 688.22
6.166201325119145, 688.24
6.166039868654288, 688.26
6.165878421572616, 688.28
6.165716983873311, 688.30
6.165555555555557, 688.32
6.165394136618532, 688.34
6.165232727061421, 688.36
6.165071326883408, 688.38
6.164909936083673, 688.40
6.164748554661399, 688.42
6.164587182615769, 688.44
6.164425819945967, 688.46
6.164264466651174, 688.48
6.164103122730574, 688.50
6.163941788183350, 688.52
6.163780463008686, 688.54
6.163619147205764, 688.56
6.163457840773766, 688.58
6.163296543711879, 688.60
6.163135256019285, 688.62
6.162973977695168, 688.64
6.162812708738710, 688.66
6.162651449149097, 688.68
6.162490198925512, 688.70
6.162328958067139, 688.72
6.162167726573163, 688.74
6.162006504442767, 688.76
6.161845291675136, 688.78
6.161684088269455, 688.80
6.161522894224907, 688.82
6.161361709540677, 688.84
6.161200534215951, 688.86
6.161039368249913, 688.88
6.160878211641748, 688.90
6.160717064390641, 688.92
6.160555926495776, 688.94
6.160394797956340, 688.96
6.160233678771517, 688.98
6.160072568940493, 689.00
6.159911468462455, 689.02
6.159750377336585, 689.04
6.159589295562071, 689.06
6.159428223138097, 689.08
6.159267160063852, 689.10
6.159106106338519, 689.12
6.158945061961285, 689.14
6.158784026931337, 689.16
6.158623001247860, 689.18
6.158461984910041, 689.20
6.158300977917066, 689.22
6.158139980268122, 689.24
6.157978991962395, 689.26
6.157818012999072, 689.28
6.157657043377340, 689.30
6.157496083096386, 689.32
6.157335132155395, 689.34
6.157174190553557, 689.36
6.157013258290058, 689.38
6.156852335364086, 689.40
6.156691421774826, 689.42
6.156530517521467, 689.44
6.156369622603196, 689.46
6.156208737019203, 689.48
6.156047860768673, 689.50
6.155886993850795, 689.52
6.155726136264756, 689.54
6.155565288009746, 689.56
6.155404449084950, 689.58
6.155243619489560, 689.60
6.155082799222761, 689.62
6.154921988283743, 689.64
6.154761186671694, 689.66
6.154600394385802, 689.68
6.154439611425257, 689.70
6.154278837789248, 689.72
6.154118073476963, 689.74
6.153957318487590, 689.76
6.153796572820320, 689.78
6.153635836474341, 689.80
6.153475109448842, 689.82
6.153314391743013, 689.84
6.153153683356043, 689.86
6.152992984287123, 689.88
6.152832294535441, 689.90
6.152671614100186, 689.92
6.152510942980549, 689.94
6.152350281175720, 689.96
6.152189628684890, 689.98
6.152028985507247, 690.00
6.151868351641982, 690.02
6.151707727088286, 690.04
6.151547111845348, 690.06
6.151386505912358, 690.08
6.151225909288509, 690.10
6.151065321972990, 690.12
6.150904743964993, 690.14
6.150744175263708, 690.16
6.150583615868324, 690.18
6.150423065778035, 690.20
6.150262524992032, 690.22
6.150101993509504, 690.24
6.149941471329644, 690.26
6.149780958451643, 690.28
6.149620454874693, 690.30
6.149459960597984, 690.32
6.149299475620709, 690.34
6.149138999942060, 690.36
6.148978533561228, 690.38
6.148818076477405, 690.40
6.148657628689784, 690.42
6.148497190197555, 690.44
6.148336760999913, 690.46
6.148176341096049, 690.48
6.148015930485156, 690.50
6.147855529166426, 690.52
6.147695137139051, 690.54
6.147534754402225, 690.56
6.147374380955140, 690.58
6.147214016796989, 690.60
6.147053661926964, 690.62
6.146893316344261, 690.64
6.146732980048070, 690.66
6.146572653037586, 690.68
6.146412335312002, 690.70
6.146252026870512, 690.72
6.146091727712308, 690.74
6.145931437836587, 690.76
6.145771157242538, 690.78
6.145610885929358, 690.80
6.145450623896240, 690.82
6.145290371142377, 690.84
6.145130127666966, 690.86
6.144969893469199, 690.88
6.144809668548270, 690.90
6.144649452903375, 690.92
6.144489246533707, 690.94
6.144329049438462, 690.96
6.144168861616834, 690.98
6.144008683068018, 691.00
6.143848513791208, 691.02
6.143688353785599, 691.04
6.143528203050387, 691.06
6.143368061584765, 691.08
6.143207929387932, 691.10
6.143047806459081, 691.12
6.142887692797408, 691.14
6.142727588402107, 691.16
6.142567493272375, 691.18
6.142407407407408, 691.20
6.142247330806400, 691.22
6.142087263468549, 691.24
6.141927205393051, 691.26
6.141767156579101, 691.28
6.141607117025894, 691.30
6.141447086732629, 691.32
6.141287065698498, 691.34
6.141127053922704, 691.36
6.140967051404438, 691.38
6.140807058142899, 691.40
6.140647074137283, 691.42
6.140487099386787, 691.44
6.140327133890608, 691.46
6.140167177647943, 691.48
6.140007230657990, 691.50
6.139847292919945, 691.52
6.139687364433005, 691.54
6.139527445196368, 691.56
6.139367535209231, 691.58
6.139207634470792, 691.60
6.139047742980249, 691.62
6.138887860736800, 691.64
6.138727987739641, 691.66
6.138568123987971, 691.68
6.138408269480989, 691.70
6.138248424217892, 691.72
6.138088588197878, 691.74
6.137928761420146, 691.76
6.137768943883894, 691.78
6.137609135588321, 691.80
6.137449336532625, 691.82
6.137289546716004, 691.84
6.137129766137658, 691.86
6.136969994796786, 691.88
6.136810232692586, 691.90
6.136650479824258, 691.92
6.136490736190999, 691.94
6.136331001792011, 691.96
6.136171276626492, 691.98
6.136011560693642, 692.00
6.135851853992659, 692.02
6.135692156522745, 692.04
6.135532468283097, 692.06
6.135372789272917, 692.08
6.135213119491403, 692.10
6.135053458937756, 692.12
6.134893807611177, 692.14
6.134734165510865, 692.16
6.134574532636019, 692.18
6.134414908985843, 692.20
6.134255294559533, 692.22
6.134095689356293, 692.24
6.133936093375322, 692.26
6.133776506615821, 692.28
6.133616929076990, 692.30
6.133457360758031, 692.32
6.133297801658145, 692.34
6.133138251776533, 692.36
6.132978711112395, 692.38
6.132819179664934, 692.40
6.132659657433351, 692.42
6.132500144416845, 692.44
6.132340640614620, 692.46
6.132181146025879, 692.48
6.132021660649820, 692.50
6.131862184485647, 692.52
6.131702717532562, 692.54
6.131543259789766, 692.56
6.131383811256462, 692.58
6.131224371931851, 692.60
6.131064941815137, 692.62
6.130905520905522, 692.64
6.130746109202207, 692.66
6.130586706704395, 692.68
6.130427313411289, 692.70
6.130267929322093, 692.72
6.130108554436008, 692.74
6.129949188752238, 692.76
6.129789832269985, 692.78
6.129630484988454, 692.80
6.129471146906845, 692.82
6.129311818024363, 692.84
6.129152498340213, 692.86
6.128993187853597, 692.88
6.128833886563719, 692.90
6.128674594469781, 692.92
6.128515311570987, 692.94
6.128356037866544, 692.96
6.128196773355652, 692.98
6.128037518037519, 693.00
6.127878271911345, 693.02
6.127719034976336, 693.04
6.127559807231698, 693.06
6.127400588676632, 693.08
6.127241379310345, 693.10
6.127082179132041, 693.12
6.126922988140924, 693.14
6.126763806336200, 693.16
6.126604633717072, 693.18
6.126445470282746, 693.20
6.126286316032428, 693.22
6.126127170965322, 693.24
6.125968035080634, 693.26
6.125808908377568, 693.28
6.125649790855331, 693.30
6.125490682513126, 693.32
6.125331583350160, 693.34
6.125172493365640, 693.36
6.125013412558770, 693.38
6.124854340928757, 693.40
6.124695278474807, 693.42
6.124536225196124, 693.44
6.124377181091916, 693.46
6.124218146161389, 693.48
6.124059120403749, 693.50
6.123900103818203, 693.52
6.123741096403957, 693.54
6.123582098160218, 693.56
6.123423109086191, 693.58
6.123264129181084, 693.60
6.123105158444105, 693.62
6.122946196874460, 693.64
6.122787244471356, 693.66
6.122628301233998, 693.68
6.122469367161597, 693.70
6.122310442253359, 693.72
6.122151526508491, 693.74
6.121992619926200, 693.76
6.121833722505694, 693.78
6.121674834246181, 693.80
6.121515955146869, 693.82
6.121357085206964, 693.84
6.121198224425677, 693.86
6.121039372802214, 693.88
6.120880530335784, 693.90
6.120721697025594, 693.92
6.120562872870853, 693.94
6.120404057870771, 693.96
6.120245252024554, 693.98
6.120086455331412, 694.00
6.119927667790554, 694.02
6.119768889401188, 694.04
6.119610120162522, 694.06
6.119451360073767, 694.08
6.119292609134130, 694.10
6.119133867342823, 694.12
6.118975134699053, 694.14
6.118816411202029, 694.16
6.118657696850961, 694.18
6.118498991645059, 694.20
6.118340295583533, 694.22
6.118181608665592, 694.24
6.118022930890445, 694.26
6.117864262257303, 694.28
6.117705602765376, 694.30
6.117546952413873, 694.32
6.117388311202005, 694.34
6.117229679128982, 694.36
6.117071056194015, 694.38
6.116912442396313, 694.40
6.116753837735089, 694.42
6.116595242209550, 694.44
6.116436655818910, 694.46
6.116278078562377, 694.48
6.116119510439165, 694.50
6.115960951448483, 694.52
6.115802401589542, 694.54
6.115643860861553, 694.56
6.115485329263728, 694.58
6.115326806795278, 694.60
6.115168293455414, 694.62
6.115009789243349, 694.64
6.114851294158294, 694.66
6.114692808199458, 694.68
6.114534331366057, 694.70
6.114375863657301, 694.72
6.114217405072401, 694.74
6.114058955610571, 694.76
6.113900515271022, 694.78
6.113742084052966, 694.80
6.113583661955615, 694.82
6.113425248978182, 694.84
6.113266845119880, 694.86
6.113108450379922, 694.88
6.112950064757520, 694.90
6.112791688251885, 694.92
6.112633320862233, 694.94
6.112474962587775, 694.96
6.112316613427724, 694.98
6.112158273381295, 695.00
6.111999942447699, 695.02
6.111841620626151, 695.04
6.111683307915865, 695.06
6.111525004316050, 695.08
6.111366709825925, 695.10
6.111208424444700, 695.12
6.111050148171592, 695.14
6.110891881005812, 695.16
6.110733622946575, 695.18
6.110575373993096, 695.20
6.110417134144588, 695.22
6.110258903400265, 695.24
6.110100681759342, 695.26
6.109942469221034, 695.28
6.109784265784554, 695.30
6.109626071449118, 695.32
6.109467886213938, 695.34
6.109309710078233, 695.36
6.109151543041215, 695.38
6.108993385102100, 695.40
6.108835236260102, 695.42
6.108677096514437, 695.44
6.108518965864320, 695.46
6.108360844308967, 695.48
6.108202731847592, 695.50
6.108044628479411, 695.52
6.107886534203641, 695.54
6.107728449019496, 695.56
6.107570372926191, 695.58
6.107412305922944, 695.60
6.107254248008971, 695.62
6.107096199183486, 695.64
6.106938159445707, 695.66
6.106780128794848, 695.68
6.106622107230128, 695.70
6.106464094750762, 695.72
6.106306091355966, 695.74
6.106148097044959, 695.76
6.105990111816954, 695.78
6.105832135671171, 695.80
6.105674168606824, 695.82
6.105516210623132, 695.84
6.105358261719312, 695.86
6.105200321894580, 695.88
6.105042391148154, 695.90
6.104884469479251, 695.92
6.104726556887088, 695.94
6.104568653370883, 695.96
6.104410758929855, 695.98
6.104252873563219, 696.00
6.104094997270193, 696.02
6.103937130049998, 696.04
6.103779271901848, 696.06
6.103621422824963, 696.08
6.103463582818561, 696.10
6.103305751881860, 696.12
6.103147930014078, 696.14
6.102990117214434, 696.16
6.102832313482145, 696.18
6.102674518816432, 696.20
6.102516733216512, 696.22
6.102358956681604, 696.24
6.102201189210927, 696.26
6.102043430803700, 696.28
6.101885681459142, 696.30
6.101727941176471, 696.32
6.101570209954907, 696.34
6.101412487793670, 696.36
6.101254774691979, 696.38
6.101097070649053, 696.40
6.100939375664112, 696.42
6.100781689736373, 696.44
6.100624012865061, 696.46
6.100466345049392, 696.48
6.100308686288586, 696.50
6.100151036581865, 696.52
6.099993395928447, 696.54
6.099835764327553, 696.56
6.099678141778403, 696.58
6.099520528280219, 696.60
6.099362923832219, 696.62
6.099205328433625, 696.64
6.099047742083657, 696.66
6.098890164781535, 696.68
6.098732596526482, 696.70
6.098575037317717, 696.72
6.098417487154462, 696.74
6.098259946035938, 696.76
6.098102413961366, 696.78
6.097944890929966, 696.80
6.097787376940961, 696.82
6.097629871993571, 696.84
6.097472376087019, 696.86
6.097314889220526, 696.88
6.097157411393313, 696.90
6.096999942604604, 696.92
6.096842482853617, 696.94
6.096685032139578, 696.96
6.096527590461706, 696.98
6.096370157819226, 697.00
6.096212734211357, 697.02
6.096055319637324, 697.04
6.095897914096348, 697.06
6.095740517587651, 697.08
6.095583130110458, 697.10
6.095425751663989, 697.12
6.095268382247468, 697.14
6.095111021860118, 697.16
6.094953670501162, 697.18
6.094796328169823, 697.20
6.094638994865322, 697.22
6.094481670586886, 697.24
6.094324355333735, 697.26
6.094167049105095, 697.28
6.094009751900187, 697.30
6.093852463718236, 697.32
6.093695184558465, 697.34
6.093537914420099, 697.36
6.093380653302360, 697.38
6.093223401204474, 697.40
6.093066158125664, 697.42
6.092908924065153, 697.44
6.092751699022166, 697.46
6.092594482995929, 697.48
6.092437275985663, 697.50
6.092280077990596, 697.52
6.092122889009950, 697.54
6.091965709042951, 697.56
6.091808538088821, 697.58
6.091651376146789, 697.60
6.091494223216078, 697.62
6.091337079295912, 697.64
6.091179944385518, 697.66
6.091022818484118, 697.68
6.090865701590942, 697.70
6.090708593705211, 697.72
6.090551494826153, 697.74
6.090394404952993, 697.76
6.090237324084955, 697.78
6.090080252221267, 697.80
6.089923189361154, 697.82
6.089766135503840, 697.84
6.089609090648555, 697.86
6.089452054794521, 697.88
6.089295027940966, 697.90
6.089138010087117, 697.92
6.088981001232198, 697.94
6.088824001375437, 697.96
6.088667010516061, 697.98
6.088510028653295, 698.00
6.088353055786367, 698.02
6.088196091914504, 698.04
6.088039137036931, 698.06
6.087882191152876, 698.08
6.087725254261567, 698.10
6.087568326362231, 698.12
6.087411407454093, 698.14
6.087254497536382, 698.16
6.087097596608325, 698.18
6.086940704669149, 698.20
6.086783821718083, 698.22
6.086626947754354, 698.24
6.086470082777190, 698.26
6.086313226785817, 698.28
6.086156379779465, 698.30
6.085999541757361, 698.32
6.085842712718733, 698.34
6.085685892662810, 698.36
6.085529081588820, 698.38
6.085372279495991, 698.40
6.085215486383552, 698.42
6.085058702250731, 698.44
6.084901927096756, 698.46
6.084745160920857, 698.48
6.084588403722262, 698.50
6.084431655500201, 698.52
6.084274916253902, 698.54
6.084118185982594, 698.56
6.083961464685505, 698.58
6.083804752361867, 698.60
6.083648049010907, 698.62
6.083491354631857, 698.64
6.083334669223944, 698.66
6.083177992786397, 698.68
6.083021325318448, 698.70
6.082864666819327, 698.72
6.082708017288262, 698.74
6.082551376724484, 698.76
6.082394745127222, 698.78
6.082238122495707, 698.80
6.082081508829170, 698.82
6.081924904126839, 698.84
6.081768308387947, 698.86
6.081611721611722, 698.88
6.081455143797396, 698.90
6.081298574944200, 698.92
6.081142015051364, 698.94
6.080985464118118, 698.96
6.080828922143695, 698.98
6.080672389127325, 699.00
6.080515865068238, 699.02
6.080359349965668, 699.04
6.080202843818843, 699.06
6.080046346626996, 699.08
6.079889858389357, 699.10
6.079733379105161, 699.12
6.079576908773636, 699.14
6.079420447394016, 699.16
6.079263994965530, 699.18
6.079107551487414, 699.20
6.078951116958897, 699.22
6.078794691379212, 699.24
6.078638274747591, 699.26
6.078481867063266, 699.28
6.078325468325469, 699.30
6.078169078533433, 699.32
6.078012697686390, 699.34
6.077856325783574, 699.36
6.077699962824216, 699.38
6.077543608807550, 699.40
6.077387263732808, 699.42
6.077230927599222, 699.44
6.077074600406028, 699.46
6.076918282152456, 699.48
6.076761972837741, 699.50
6.076605672461117, 699.52
6.076449381021815, 699.54
6.076293098519070, 699.56
6.076136824952114, 699.58
6.075980560320184, 699.60
6.075824304622509, 699.62
6.075668057858327, 699.64
6.075511820026871, 699.66
6.075355591127372, 699.68
6.075199371159068, 699.70
6.075043160121192, 699.72
6.074886958012977, 699.74
6.074730764833657, 699.76
6.074574580582469, 699.78
6.074418405258646, 699.80
6.074262238861422, 699.82
6.074106081390032, 699.84
6.073949932843711, 699.86
6.073793793221696, 699.88
6.073637662523218, 699.90
6.073481540747514, 699.92
6.073325427893820, 699.94
6.073169323961369, 699.96
6.073013228949399, 699.98
6.072857142857143, 700.00
6.072701065683838, 700.02
6.072544997428719, 700.04
6.072388938091022, 700.06
6.072232887669981, 700.08
6.072076846164833, 700.10
6.071920813574816, 700.12
6.071764789899164, 700.14
6.071608775137112, 700.16
6.071452769287897, 700.18
6.071296772350757, 700.20
6.071140784324927, 700.22
6.070984805209642, 700.24
6.070828835004142, 700.26
6.070672873707660, 700.28
6.070516921319435, 700.30
6.070360977838703, 700.32
6.070205043264700, 700.34
6.070049117596665, 700.36
6.069893200833834, 700.38
6.069737292975443, 700.40
6.069581394020731, 700.42
6.069425503968934, 700.44
6.069269622819291, 700.46
6.069113750571037, 700.48
6.068957887223412, 700.50
6.068802032775653, 700.52
6.068646187226997, 700.54
6.068490350576682, 700.56
6.068334522823946, 700.58
6.068178703968027, 700.60
6.068022894008164, 700.62
6.067867092943595, 700.64
6.067711300773557, 700.66
6.067555517497288, 700.68
6.067399743114029, 700.70
6.067243977623017, 700.72
6.067088221023489, 700.74
6.066932473314687, 700.76
6.066776734495848, 700.78
6.066621004566211, 700.80
6.066465283525014, 700.82
6.066309571371497, 700.84
6.066153868104900, 700.86
6.065998173724461, 700.88
6.065842488229420, 700.90
6.065686811619016, 700.92
6.065531143892487, 700.94
6.065375485049076, 700.96
6.065219835088020, 700.98
6.065064194008560, 701.00
6.064908561809935, 701.02
6.064752938491385, 701.04
6.064597324052150, 701.06
6.064441718491470, 701.08
6.064286121808586, 701.10
6.064130534002738, 701.12
6.063974955073167, 701.14
6.063819385019111, 701.16
6.063663823839812, 701.18
6.063508271534512, 701.20
6.063352728102450, 701.22
6.063197193542867, 701.24
6.063041667855004, 701.26
6.062886151038103, 701.28
6.062730643091403, 701.30
6.062575144014145, 701.32
6.062419653805573, 701.34
6.062264172464926, 701.36
6.062108699991446, 701.38
6.061953236384374, 701.40
6.061797781642953, 701.42
6.061642335766424, 701.44
6.061486898754027, 701.46
6.061331470605007, 701.48
6.061176051318603, 701.50
6.061020640894059, 701.52
6.060865239330616, 701.54
6.060709846627517, 701.56
6.060554462784002, 701.58
6.060399087799316, 701.60
6.060243721672701, 701.62
6.060088364403398, 701.64
6.059933015990651, 701.66
6.059777676433701, 701.68
6.059622345731794, 701.70
6.059467023884171, 701.72
6.059311710890073, 701.74
6.059156406748746, 701.76
6.059001111459432, 701.78
6.058845825021375, 701.80
6.058690547433816, 701.82
6.058535278695999, 701.84
6.058380018807170, 701.86
6.058224767766570, 701.88
6.058069525573444, 701.90
6.057914292227035, 701.92
6.057759067726586, 701.94
6.057603852071344, 701.96
6.057448645260549, 701.98
6.057293447293447, 702.00
6.057138258169283, 702.02
6.056983077887301, 702.04
6.056827906446744, 702.06
6.056672743846855, 702.08
6.056517590086882, 702.10
6.056362445166068, 702.12
6.056207309083659, 702.14
6.056052181838898, 702.16
6.055897063431029, 702.18
6.055741953859299, 702.20
6.055586853122953, 702.22
6.055431761221235, 702.24
6.055276678153390, 702.26
6.055121603918665, 702.28
6.054966538516304, 702.30
6.054811481945553, 702.32
6.054656434205655, 702.34
6.054501395295860, 702.36
6.054346365215411, 702.38
6.054191343963554, 702.40
6.054036331539535, 702.42
6.053881327942600, 702.44
6.053726333171996, 702.46
6.053571347226968, 702.48
6.053416370106762, 702.50
6.053261401810625, 702.52
6.053106442337803, 702.54
6.052951491687543, 702.56
6.052796549859091, 702.58
6.052641616851694, 702.60
6.052486692664599, 702.62
6.052331777297051, 702.64
6.052176870748299, 702.66
6.052021973017590, 702.68
6.051867084104170, 702.70
6.051712204007286, 702.72
6.051557332726186, 702.74
6.051402470260117, 702.76
6.051247616608327, 702.78
6.051092771770064, 702.80
6.050937935744573, 702.82
6.050783108531102, 702.84
6.050628290128902, 702.86
6.050473480537218, 702.88
6.050318679755300, 702.90
6.050163887782394, 702.92
6.050009104617748, 702.94
6.049854330260612, 702.96
6.049699564710234, 702.98
6.049544807965861, 703.00
6.049390060026743, 703.02
6.049235320892127, 703.04
6.049080590561261, 703.06
6.048925869033396, 703.08
6.048771156307780, 703.10
6.048616452383662, 703.12
6.048461757260290, 703.14
6.048307070936914, 703.16
6.048152393412781, 703.18
6.047997724687145, 703.20
6.047843064759251, 703.22
6.047688413628349, 703.24
6.047533771293690, 703.26
6.047379137754522, 703.28
6.047224513010096, 703.30
6.047069897059661, 703.32
6.046915289902466, 703.34
6.046760691537762, 703.36
6.046606101964799, 703.38
6.046451521182827, 703.40
6.046296949191095, 703.42
6.046142385988855, 703.44
6.045987831575356, 703.46
6.045833285949850, 703.48
6.045678749111585, 703.50
6.045524221059814, 703.52
6.045369701793787, 703.54
6.045215191312753, 703.56
6.045060689615964, 703.58
6.044906196702672, 703.60
6.044751712572127, 703.62
6.044597237223581, 703.64
6.044442770656284, 703.66
6.044288312869486, 703.68
6.044133863862442, 703.70
6.043979423634400, 703.72
6.043824992184613, 703.74
6.043670569512334, 703.76
6.043516155616812, 703.78
6.043361750497301, 703.80
6.043207354153052, 703.82
6.043052966583314, 703.84
6.042898587787344, 703.86
6.042744217764392, 703.88
6.042589856513710, 703.90
6.042435504034550, 703.92
6.042281160326164, 703.94
6.042126825387806, 703.96
6.041972499218728, 703.98
6.041818181818182, 704.00
6.041663873185422, 704.02
6.041509573319698, 704.04
6.041355282220266, 704.06
6.041200999886376, 704.08
6.041046726317284, 704.10
6.040892461512242, 704.12
6.040738205470504, 704.14
6.040583958191321, 704.16
6.040429719673947, 704.18
6.040275489917637, 704.20
6.040121268921644, 704.22
6.039967056685221, 704.24
6.039812853207622, 704.26
6.039658658488102, 704.28
6.039504472525913, 704.30
6.039350295320310, 704.32
6.039196126870546, 704.34
6.039041967175876, 704.36
6.038887816235555, 704.38
6.038733674048836, 704.40
6.038579540614974, 704.42
6.038425415933223, 704.44
6.038271300002839, 704.46
6.038117192823075, 704.48
6.037963094393187, 704.50
6.037809004712429, 704.52
6.037654923780056, 704.54
6.037500851595323, 704.56
6.037346788157484, 704.58
6.037192733465797, 704.60
6.037038687519514, 704.62
6.036884650317893, 704.64
6.036730621860189, 704.66
6.036576602145654, 704.68
6.036422591173549, 704.70
6.036268588943127, 704.72
6.036114595453642, 704.74
6.035960610704354, 704.76
6.035806634694515, 704.78
6.035652667423383, 704.80
6.035498708890214, 704.82
6.035344759094262, 704.84
6.035190818034788, 704.86
6.035036885711043, 704.88
6.034882962122287, 704.90
6.034729047267776, 704.92
6.034575141146764, 704.94
6.034421243758511, 704.96
6.034267355102273, 704.98
6.034113475177305, 705.00
6.033959603982866, 705.02
6.033805741518212, 705.04
6.033651887782601, 705.06
6.033498042775288, 705.08
6.033344206495532, 705.10
6.033190378942591, 705.12
6.033036560115722, 705.14
6.032882750014182, 705.16
6.032728948637227, 705.18
6.032575155984118, 705.20
6.032421372054110, 705.22
6.032267596846464, 705.24
6.032113830360434, 705.26
6.031960072595282, 705.28
6.031806323550263, 705.30
6.031652583224637, 705.32
6.031498851617660, 705.34
6.031345128728593, 705.36
6.031191414556694, 705.38
6.031037709101220, 705.40
6.030884012361430, 705.42
6.030730324336584, 705.44
6.030576645025940, 705.46
6.030422974428758, 705.48
6.030269312544295, 705.50
6.030115659371812, 705.52
6.029962014910565, 705.54
6.029808379159817, 705.56
6.029654752118824, 705.58
6.029501133786848, 705.60
6.029347524163148, 705.62
6.029193923246982, 705.64
6.029040331037611, 705.66
6.028886747534293, 705.68
6.028733172736290, 705.70
6.028579606642861, 705.72
6.028426049253266, 705.74
6.028272500566765, 705.76
6.028118960582618, 705.78
6.027965429300085, 705.80
6.027811906718427, 705.82
6.027658392836903, 705.84
6.027504887654776, 705.86
6.027351391171305, 705.88
6.027197903385749, 705.90
6.027044424297372, 705.92
6.026890953905431, 705.94
6.026737492209191, 705.96
6.026584039207910, 705.98
6.026430594900850, 706.00
6.026277159287273, 706.02
6.026123732366439, 706.04
6.025970314137609, 706.06
6.025816904600045, 706.08
6.025663503753010, 706.10
6.025510111595763, 706.12
6.025356728127568, 706.14
6.025203353347684, 706.16
6.025049987255374, 706.18
6.024896629849901, 706.20
6.024743281130526, 706.22
6.024589941096512, 706.24
6.024436609747119, 706.26
6.024283287081611, 706.28
6.024129973099250, 706.30
6.023976667799299, 706.32
6.023823371181018, 706.34
6.023670083243672, 706.36
6.023516803986523, 706.38
6.023363533408834, 706.40
6.023210271509868, 706.42
6.023057018288885, 706.44
6.022903773745152, 706.46
6.022750537877930, 706.48
6.022597310686483, 706.50
6.022444092170073, 706.52
6.022290882327965, 706.54
6.022137681159421, 706.56
6.021984488663704, 706.58
6.021831304840079, 706.60
6.021678129687809, 706.62
6.021524963206159, 706.64
6.021371805394391, 706.66
6.021218656251769, 706.68
6.021065515777558, 706.70
6.020912383971021, 706.72
6.020759260831423, 706.74
6.020606146358029, 706.76
6.020453040550101, 706.78
6.020299943406905, 706.80
6.020146854927705, 706.82
6.019993775111765, 706.84
6.019840703958351, 706.86
6.019687641466727, 706.88
6.019534587636159, 706.90
6.019381542465909, 706.92
6.019228505955244, 706.94
6.019075478103429, 706.96
6.018922458909729, 706.98
6.018769448373409, 707.00
6.018616446493735, 707.02
6.018463453269971, 707.04
6.018310468701384, 707.06
6.018157492787237, 707.08
6.018004525526799, 707.10
6.017851566919335, 707.12
6.017698616964109, 707.14
6.017545675660388, 707.16
6.017392743007438, 707.18
6.017239819004525, 707.20
6.017086903650915, 707.22
6.016933996945874, 707.24
6.016781098888670, 707.26
6.016628209478566, 707.28
6.016475328714832, 707.30
6.016322456596732, 707.32
6.016169593123533, 707.34
6.016016738294503, 707.36
6.015863892108909, 707.38
6.015711054566017, 707.40
6.015558225665093, 707.42
6.015405405405406, 707.44
6.015252593786221, 707.46
6.015099790806808, 707.48
6.014946996466431, 707.50
6.014794210764361, 707.52
6.014641433699862, 707.54
6.014488665272204, 707.56
6.014335905480652, 707.58
6.014183154324477, 707.60
6.014030411802946, 707.62
6.013877677915325, 707.64
6.013724952660882, 707.66
6.013572236038888, 707.68
6.013419528048608, 707.70
6.013266828689313, 707.72
6.013114137960268, 707.74
6.012961455860744, 707.76
6.012808782390008, 707.78
6.012656117547331, 707.80
6.012503461331978, 707.82
6.012350813743219, 707.84
6.012198174780324, 707.86
6.012045544442561, 707.88
6.011892922729199, 707.90
6.011740309639508, 707.92
6.011587705172754, 707.94
6.011435109328211, 707.96
6.011282522105144, 707.98
6.011129943502826, 708.00
6.010977373520523, 708.02
6.010824812157506, 708.04
6.010672259413044, 708.06
6.010519715286408, 708.08
6.010367179776868, 708.10
6.010214652883692, 708.12
6.010062134606152, 708.14
6.009909624943516, 708.16
6.009757123895055, 708.18
6.009604631460039, 708.20
6.009452147637740, 708.22
6.009299672427426, 708.24
6.009147205828368, 708.26
6.008994747839838, 708.28
6.008842298461104, 708.30
6.008689857691440, 708.32
6.008537425530113, 708.34
6.008385001976396, 708.36
6.008232587029561, 708.38
6.008080180688877, 708.40
6.007927782953615, 708.42
6.007775393823048, 708.44
6.007623013296445, 708.46
6.007470641373081, 708.48
6.007318278052224, 708.50
6.007165923333146, 708.52
6.007013577215119, 708.54
6.006861239697415, 708.56
6.006708910779305, 708.58
6.006556590460062, 708.60
6.006404278738958, 708.62
6.006251975615263, 708.64
6.006099681088251, 708.66
6.005947395157193, 708.68
6.005795117821363, 708.70
6.005642849080032, 708.72
6.005490588932472, 708.74
6.005338337377956, 708.76
6.005186094415757, 708.78
6.005033860045147, 708.80
6.004881634265399, 708.82
6.004729417075786, 708.84
6.004577208475581, 708.86
6.004425008464056, 708.88
6.004272817040485, 708.90
6.004120634204142, 708.92
6.003968459954298, 708.94
6.003816294290228, 708.96
6.003664137211205, 708.98
6.003511988716502, 709.00
6.003359848805394, 709.02
6.003207717477153, 709.04
6.003055594731054, 709.06
6.002903480566368, 709.08
6.002751374982372, 709.10
6.002599277978340, 709.12
6.002447189553545, 709.14
6.002295109707259, 709.16
6.002143038438760, 709.18
6.001990975747321, 709.20
6.001838921632216, 709.22
6.001686876092720, 709.24
6.001534839128106, 709.26
6.001382810737650, 709.28
6.001230790920626, 709.30
6.001078779676311, 709.32
6.000926777003976, 709.34
6.000774782902899, 709.36
6.000622797372354, 709.38
6.000470820411616, 709.40
6.000318852019960, 709.42
6.000166892196662, 709.44
6.000014940940997, 709.46
5.999862998252241, 709.48
5.999711064129669, 709.50
5.999559138572557, 709.52
5.999407221580180, 709.54
5.999255313151813, 709.56
5.999103413286733, 709.58
5.998951521984217, 709.60
5.998799639243539, 709.62
5.998647765063977, 709.64
5.998495899444805, 709.66
5.998344042385300, 709.68
5.998192193884740, 709.70
5.998040353942400, 709.72
5.997888522557557, 709.74
5.997736699729487, 709.76
5.997584885457466, 709.78
5.997433079740773, 709.80
5.997281282578682, 709.82
5.997129493970473, 709.84
5.996977713915420, 709.86
5.996825942412802, 709.88
5.996674179461897, 709.90
5.996522425061979, 709.92
5.996370679212328, 709.94
5.996218941912220, 709.96
5.996067213160934, 709.98
5.995915492957747, 710.00
5.995763781301935, 710.02
5.995612078192779, 710.04
5.995460383629553, 710.06
5.995308697611537, 710.08
5.995157020138008, 710.10
5.995005351208246, 710.12
5.994853690821529, 710.14
5.994702038977133, 710.16
5.994550395674336, 710.18
5.994398760912419, 710.20
5.994247134690659, 710.22
5.994095517008335, 710.24
5.993943907864726, 710.26
5.993792307259110, 710.28
5.993640715190765, 710.30
5.993489131658971, 710.32
5.993337556663007, 710.34
5.993185990202151, 710.36
5.993034432275683, 710.38
5.992882882882883, 710.40
5.992731342023029, 710.42
5.992579809695400, 710.44
5.992428285899277, 710.46
5.992276770633937, 710.48
5.992125263898664, 710.50
5.991973765692732, 710.52
5.991822276015426, 710.54
5.991670794866022, 710.56
5.991519322243801, 710.58
5.991367858148044, 710.60
5.991216402578031, 710.62
5.991064955533041, 710.64
5.990913517012356, 710.66
5.990762087015253, 710.68
5.990610665541016, 710.70
5.990459252588924, 710.72
5.990307848158258, 710.74
5.990156452248298, 710.76
5.990005064858325, 710.78
5.989853685987621, 710.80
5.989702315635464, 710.82
5.989550953801137, 710.84
5.989399600483921, 710.86
5.989248255683098, 710.88
5.989096919397947, 710.90
5.988945591627751, 710.92
5.988794272371790, 710.94
5.988642961629346, 710.96
5.988491659399702, 710.98
5.988340365682138, 711.00
5.988189080475936, 711.02
5.988037803780379, 711.04
5.987886535594747, 711.06
5.987735275918322, 711.08
5.987584024750387, 711.10
5.987432782090224, 711.12
5.987281547937116, 711.14
5.987130322290343, 711.16
5.986979105149189, 711.18
5.986827896512936, 711.20
5.986676696380867, 711.22
5.986525504752264, 711.24
5.986374321626410, 711.26
5.986223147002588, 711.28
5.986071980880079, 711.30
5.985920823258168, 711.32
5.985769674136137, 711.34
5.985618533513271, 711.36
5.985467401388850, 711.38
5.985316277762160, 711.40
5.985165162632482, 711.42
5.985014055999100, 711.44
5.984862957861299, 711.46
5.984711868218362, 711.48
5.984560787069571, 711.50
5.984409714414213, 711.52
5.984258650251568, 711.54
5.984107594580921, 711.56
5.983956547401557, 711.58
5.983805508712760, 711.60
5.983654478513814, 711.62
5.983503456804002, 711.64
5.983352443582611, 711.66
5.983201438848921, 711.68
5.983050442602220, 711.70
5.982899454841792, 711.72
5.982748475566921, 711.74
5.982597504776892, 711.76
5.982446542470989, 711.78
5.982295588648498, 711.80
5.982144643308702, 711.82
5.981993706450888, 711.84
5.981842778074340, 711.86
5.981691858178345, 711.88
5.981540946762186, 711.90
5.981390043825150, 711.92
5.981239149366520, 711.94
5.981088263385583, 711.96
5.980937385881626, 711.98
5.980786516853933, 712.00
5.980635656301790, 712.02
5.980484804224482, 712.04
5.980333960621297, 712.06
5.980183125491518, 712.08
5.980032298834433, 712.10
5.979881480649329, 712.12
5.979730670935490, 712.14
5.979579869692205, 712.16
5.979429076918756, 712.18
5.979278292614434, 712.20
5.979127516778523, 712.22
5.978976749410311, 712.24
5.978825990509084, 712.26
5.978675240074129, 712.28
5.978524498104732, 712.30
5.978373764600181, 712.32
5.978223039559761, 712.34
5.978072322982761, 712.36
5.977921614868469, 712.38
5.977770915216171, 712.40
5.977620224025154, 712.42
5.977469541294705, 712.44
5.977318867024113, 712.46
5.977168201212666, 712.48
5.977017543859650, 712.50
5.976866894964353, 712.52
5.976716254526062, 712.54
5.976565622544067, 712.56
5.976414999017654, 712.58
5.976264383946113, 712.60
5.976113777328731, 712.62
5.975963179164796, 712.64
5.975812589453597, 712.66
5.975662008194421, 712.68
5.975511435386558, 712.70
5.975360871029296, 712.72
5.975210315121924, 712.74
5.975059767663730, 712.76
5.974909228654004, 712.78
5.974758698092032, 712.80
5.974608175977106, 712.82
5.974457662308512, 712.84
5.974307157085543, 712.86
5.974156660307486, 712.88
5.974006171973629, 712.90
5.973855692083264, 712.92
5.973705220635678, 712.94
5.973554757630161, 712.96
5.973404303066005, 712.98
5.973253856942497, 713.00
5.973103419258927, 713.02
5.972952990014586, 713.04
5.972802569208763, 713.06
5.972652156840748, 713.08
5.972501752909831, 713.10
5.972351357415302, 713.12
5.972200970356452, 713.14
5.972050591732571, 713.16
5.971900221542948, 713.18
5.971749859786876, 713.20
5.971599506463644, 713.22
5.971449161572543, 713.24
5.971298825112862, 713.26
5.971148497083894, 713.28
5.970998177484930, 713.30
5.970847866315259, 713.32
5.970697563574173, 713.34
5.970547269260963, 713.36
5.970396983374919, 713.38
5.970246705915335, 713.40
5.970096436881501, 713.42
5.969946176272707, 713.44
5.969795924088246, 713.46
5.969645680327409, 713.48
5.969495444989489, 713.50
5.969345218073776, 713.52
5.969194999579561, 713.54
5.969044789506139, 713.56
5.968894587852798, 713.58
5.968744394618835, 713.60
5.968594209803538, 713.62
5.968444033406199, 713.64
5.968293865426114, 713.66
5.968143705862571, 713.68
5.967993554714866, 713.70
5.967843411982290, 713.72
5.967693277664136, 713.74
5.967543151759696, 713.76
5.967393034268262, 713.78
5.967242925189129, 713.80
5.967092824521589, 713.82
5.966942732264934, 713.84
5.966792648418457, 713.86
5.966642572981454, 713.88
5.966492505953215, 713.90
5.966342447333036, 713.92
5.966192397120206, 713.94
5.966042355314023, 713.96
5.965892321913779, 713.98
5.965742296918767, 714.00
5.965592280328282, 714.02
5.965442272141617, 714.04
5.965292272358066, 714.06
5.965142280976921, 714.08
5.964992297997480, 714.10
5.964842323419034, 714.12
5.964692357240877, 714.14
5.964542399462306, 714.16
5.964392450082612, 714.18
5.964242509101092, 714.20
5.964092576517039, 714.22
5.963942652329750, 714.24
5.963792736538516, 714.26
5.963642829142634, 714.28
5.963492930141398, 714.30
5.963343039534103, 714.32
5.963193157320044, 714.34
5.963043283498516, 714.36
5.962893418068815, 714.38
5.962743561030235, 714.40
5.962593712382072, 714.42
5.962443872123621, 714.44
5.962294040254178, 714.46
5.962144216773038, 714.48
5.961994401679497, 714.50
5.961844594972850, 714.52
5.961694796652393, 714.54
5.961545006717421, 714.56
5.961395225167231, 714.58
5.961245452001120, 714.60
5.961095687218382, 714.62
5.960945930818315, 714.64
5.960796182800213, 714.66
5.960646443163373, 714.68
5.960496711907094, 714.70
5.960346989030669, 714.72
5.960197274533397, 714.74
5.960047568414574, 714.76
5.959897870673495, 714.78
5.959748181309457, 714.80
5.959598500321760, 714.82
5.959448827709697, 714.84
5.959299163472568, 714.86
5.959149507609669, 714.88
5.958999860120297, 714.90
5.958850221003750, 714.92
5.958700590259323, 714.94
5.958550967886316, 714.96
5.958401353884025, 714.98
5.958251748251748, 715.00
5.958102150988784, 715.02
5.957952562094428, 715.04
5.957802981567981, 715.06
5.957653409408738, 715.08
5.957503845615998, 715.10
5.957354290189059, 715.12
5.957204743127220, 715.14
5.957055204429778, 715.16
5.956905674096031, 715.18
5.956756152125280, 715.20
5.956606638516820, 715.22
5.956457133269952, 715.24
5.956307636383973, 715.26
5.956158147858182, 715.28
5.956008667691878, 715.30
5.955859195884361, 715.32
5.955709732434926, 715.34
5.955560277342877, 715.36
5.955410830607510, 715.38
5.955261392228125, 715.40
5.955111962204021, 715.42
5.954962540534496, 715.44
5.954813127218852, 715.46
5.954663722256387, 715.48
5.954514325646401, 715.50
5.954364937388194, 715.52
5.954215557481064, 715.54
5.954066185924312, 715.56
5.953916822717236, 715.58
5.953767467859139, 715.60
5.953618121349320, 715.62
5.953468783187078, 715.64
5.953319453371713, 715.66
5.953170131902526, 715.68
5.953020818778818, 715.70
5.952871513999888, 715.72
5.952722217565038, 715.74
5.952572929473567, 715.76
5.952423649724777, 715.78
5.952274378317966, 715.80
5.952125115252438, 715.82
5.951975860527492, 715.84
5.951826614142430, 715.86
5.951677376096553, 715.88
5.951528146389161, 715.90
5.951378925019556, 715.92
5.951229711987038, 715.94
5.951080507290910, 715.96
5.950931310930473, 715.98
5.950782122905029, 716.00
5.950632943213877, 716.02
5.950483771856321, 716.04
5.950334608831663, 716.06
5.950185454139202, 716.08
5.950036307778244, 716.10
5.949887169748087, 716.12
5.949738040048036, 716.14
5.949588918677391, 716.16
5.949439805635454, 716.18
5.949290700921530, 716.20
5.949141604534920, 716.22
5.948992516474925, 716.24
5.948843436740849, 716.26
5.948694365331994, 716.28
5.948545302247663, 716.30
5.948396247487158, 716.32
5.948247201049781, 716.34
5.948098162934837, 716.36
5.947949133141629, 716.38
5.947800111669459, 716.40
5.947651098517630, 716.42
5.947502093685444, 716.44
5.947353097172208, 716.46
5.947204108977222, 716.48
5.947055129099791, 716.50
5.946906157539217, 716.52
5.946757194294806, 716.54
5.946608239365860, 716.56
5.946459292751682, 716.58
5.946310354451577, 716.60
5.946161424464849, 716.62
5.946012502790802, 716.64
5.945863589428740, 716.66
5.945714684377965, 716.68
5.945565787637785, 716.70
5.945416899207501, 716.72
5.945268019086419, 716.74
5.945119147273844, 716.76
5.944970283769079, 716.78
5.944821428571429, 716.80
5.944672581680200, 716.82
5.944523743094694, 716.84
5.944374912814218, 716.86
5.944226090838076, 716.88
5.944077277165574, 716.90
5.943928471796017, 716.92
5.943779674728708, 716.94
5.943630885962955, 716.96
5.943482105498061, 716.98
5.943333333333333, 717.00
5.943184569468077, 717.02
5.943035813901596, 717.04
5.942887066633197, 717.06
5.942738327662186, 717.08
5.942589596987868, 717.10
5.942440874609550, 717.12
5.942292160526536, 717.14
5.942143454738134, 717.16
5.941994757243648, 717.18
5.941846068042387, 717.20
5.941697387133655, 717.22
5.941548714516759, 717.24
5.941400050191005, 717.26
5.941251394155699, 717.28
5.941102746410150, 717.30
5.940954106953662, 717.32
5.940805475785541, 717.34
5.940656852905096, 717.36
5.940508238311635, 717.38
5.940359632004461, 717.40
5.940211033982884, 717.42
5.940062444246209, 717.44
5.939913862793745, 717.46
5.939765289624798, 717.48
5.939616724738676, 717.50
5.939468168134686, 717.52
5.939319619812136, 717.54
5.939171079770333, 717.56
5.939022548008585, 717.58
5.938874024526198, 717.60
5.938725509322483, 717.62
5.938577002396745, 717.64
5.938428503748294, 717.66
5.938280013376435, 717.68
5.938131531280479, 717.70
5.937983057459734, 717.72
5.937834591913506, 717.74
5.937686134641106, 717.76
5.937537685641841, 717.78
5.937389244915019, 717.80
5.937240812459949, 717.82
5.937092388275939, 717.84
5.936943972362299, 717.86
5.936795564718338, 717.88
5.936647165343363, 717.90
5.936498774236685, 717.92
5.936350391397609, 717.94
5.936202016825450, 717.96
5.936053650519513, 717.98
5.935905292479109, 718.00
5.935756942703546, 718.02
5.935608601192135, 718.04
5.935460267944183, 718.06
5.935311942959002, 718.08
5.935163626235901, 718.10
5.935015317774188, 718.12
5.934867017573175, 718.14
5.934718725632171, 718.16
5.934570441950486, 718.18
5.934422166527430, 718.20
5.934273899362313, 718.22
5.934125640454444, 718.24
5.933977389803136, 718.26
5.933829147407697, 718.28
5.933680913267438, 718.30
5.933532687381669, 718.32
5.933384469749701, 718.34
5.933236260370845, 718.36
5.933088059244412, 718.38
5.932939866369711, 718.40
5.932791681746054, 718.42
5.932643505372752, 718.44
5.932495337249116, 718.46
5.932347177374457, 718.48
5.932199025748087, 718.50
5.932050882369315, 718.52
5.931902747237454, 718.54
5.931754620351816, 718.56
5.931606501711709, 718.58
5.931458391316449, 718.60
5.931310289165345, 718.62
5.931162195257709, 718.64
5.931014109592854, 718.66
5.930866032170090, 718.68
5.930717962988729, 718.70
5.930569902048085, 718.72
5.930421849347470, 718.74
5.930273804886193, 718.76
5.930125768663570, 718.78
5.929977740678910, 718.80
5.929829720931528, 718.82
5.929681709420733, 718.84
5.929533706145842, 718.86
5.929385711106166, 718.88
5.929237724301016, 718.90
5.929089745729707, 718.92
5.928941775391548, 718.94
5.928793813285857, 718.96
5.928645859411945, 718.98
5.928497913769124, 719.00
5.928349976356708, 719.02
5.928202047174010, 719.04
5.928054126220344, 719.06
5.927906213495022, 719.08
5.927758308997358, 719.10
5.927610412726666, 719.12
5.927462524682260, 719.14
5.927314644863452, 719.16
5.927166773269557, 719.18
5.927018909899889, 719.20
5.926871054753761, 719.22
5.926723207830488, 719.24
5.926575369129384, 719.26
5.926427538649762, 719.28
5.926279716390936, 719.30
5.926131902352222, 719.32
5.925984096532933, 719.34
5.925836298932385, 719.36
5.925688509549890, 719.38
5.925540728384766, 719.40
5.925392955436324, 719.42
5.925245190703881, 719.44
5.925097434186751, 719.46
5.924949685884250, 719.48
5.924801945795692, 719.50
5.924654213920392, 719.52
5.924506490257666, 719.54
5.924358774806827, 719.56
5.924211067567192, 719.58
5.924063368538077, 719.60
5.923915677718797, 719.62
5.923767995108665, 719.64
5.923620320707001, 719.66
5.923472654513117, 719.68
5.923324996526331, 719.70
5.923177346745957, 719.72
5.923029705171312, 719.74
5.922882071801712, 719.76
5.922734446636473, 719.78
5.922586829674910, 719.80
5.922439220916341, 719.82
5.922291620360080, 719.84
5.922144028005445, 719.86
5.921996443851754, 719.88
5.921848867898320, 719.90
5.921701300144461, 719.92
5.921553740589493, 719.94
5.921406189232735, 719.96
5.921258646073502, 719.98
5.921111111111111, 720.00
5.920963584344880, 720.02
5.920816065774124, 720.04
5.920668555398162, 720.06
5.920521053216310, 720.08
5.920373559227885, 720.10
5.920226073432206, 720.12
5.920078595828589, 720.14
5.919931126416352, 720.16
5.919783665194812, 720.18
5.919636212163288, 720.20
5.919488767321097, 720.22
5.919341330667556, 720.24
5.919193902201983, 720.26
5.919046481923697, 720.28
5.918899069832015, 720.30
5.918751665926256, 720.32
5.918604270205736, 720.34
5.918456882669776, 720.36
5.918309503317694, 720.38
5.918162132148806, 720.40
5.918014769162434, 720.42
5.917867414357892, 720.44
5.917720067734503, 720.46
5.917572729291583, 720.48
5.917425399028453, 720.50
5.917278076944429, 720.52
5.917130763038832, 720.54
5.916983457310981, 720.56
5.916836159760194, 720.58
5.916688870385790, 720.60
5.916541589187089, 720.62
5.916394316163410, 720.64
5.916247051314074, 720.66
5.916099794638397, 720.68
5.915952546135701, 720.70
5.915805305805306, 720.72
5.915658073646530, 720.74
5.915510849658694, 720.76
5.915363633841118, 720.78
5.915216426193119, 720.80
5.915069226714021, 720.82
5.914922035403141, 720.84
5.914774852259801, 720.86
5.914627677283320, 720.88
5.914480510473020, 720.90
5.914333351828220, 720.92
5.914186201348239, 720.94
5.914039059032401, 720.96
5.913891924880025, 720.98
5.913744798890431, 721.00
5.913597681062939, 721.02
5.913450571396872, 721.04
5.913303469891550, 721.06
5.913156376546292, 721.08
5.913009291360422, 721.10
5.912862214333260, 721.12
5.912715145464126, 721.14
5.912568084752344, 721.16
5.912421032197233, 721.18
5.912273987798114, 721.20
5.912126951554311, 721.22
5.911979923465144, 721.24
5.911832903529934, 721.26
5.911685891748004, 721.28
5.911538888118676, 721.30
5.911391892641269, 721.32
5.911244905315108, 721.34
5.911097926139514, 721.36
5.910950955113810, 721.38
5.910803992237317, 721.40
5.910657037509357, 721.42
5.910510090929253, 721.44
5.910363152496327, 721.46
5.910216222209902, 721.48
5.910069300069300, 721.50
5.909922386073845, 721.52
5.909775480222857, 721.54
5.909628582515661, 721.56
5.909481692951578, 721.58
5.909334811529933, 721.60
5.909187938250049, 721.62
5.909041073111247, 721.64
5.908894216112851, 721.66
5.908747367254184, 721.68
5.908600526534571, 721.70
5.908453693953334, 721.72
5.908306869509796, 721.74
5.908160053203281, 721.76
5.908013245033113, 721.78
5.907866444998615, 721.80
5.907719653099111, 721.82
5.907572869333925, 721.84
5.907426093702380, 721.86
5.907279326203802, 721.88
5.907132566837513, 721.90
5.906985815602837, 721.92
5.906839072499100, 721.94
5.906692337525625, 721.96
5.906545610681737, 721.98
5.906398891966759, 722.00
5.906252181380018, 722.02
5.906105478920836, 722.04
5.905958784588539, 722.06
5.905812098382451, 722.08
5.905665420301897, 722.10
5.905518750346203, 722.12
5.905372088514693, 722.14
5.905225434806692, 722.16
5.905078789221523, 722.18
5.904932151758516, 722.20
5.904785522416992, 722.22
5.904638901196279, 722.24
5.904492288095700, 722.26
5.904345683114582, 722.28
5.904199086252250, 722.30
5.904052497508030, 722.32
5.903905916881247, 722.34
5.903759344371228, 722.36
5.903612779977298, 722.38
5.903466223698782, 722.40
5.903319675535008, 722.42
5.903173135485300, 722.44
5.903026603548986, 722.46
5.902880079725390, 722.48
5.902733564013841, 722.50
5.902587056413664, 722.52
5.902440556924184, 722.54
5.902294065544731, 722.56
5.902147582274627, 722.58
5.902001107113202, 722.60
5.901854640059783, 722.62
5.901708181113695, 722.64
5.901561730274265, 722.66
5.901415287540821, 722.68
5.901268852912689, 722.70
5.901122426389197, 722.72
5.900976007969671, 722.74
5.900829597653440, 722.76
5.900683195439830, 722.78
5.900536801328169, 722.80
5.900390415317784, 722.82
5.900244037408002, 722.84
5.900097667598152, 722.86
5.899951305887561, 722.88
5.899804952275558, 722.90
5.899658606761468, 722.92
5.899512269344621, 722.94
5.899365940024344, 722.96
5.899219618799967, 722.98
5.899073305670816, 723.00
5.898927000636220, 723.02
5.898780703695508, 723.04
5.898634414848008, 723.06
5.898488134093046, 723.08
5.898341861429954, 723.10
5.898195596858060, 723.12
5.898049340376691, 723.14
5.897903091985177, 723.16
5.897756851682845, 723.18
5.897610619469027, 723.20
5.897464395343049, 723.22
5.897318179304242, 723.24
5.897171971351935, 723.26
5.897025771485455, 723.28
5.896879579704135, 723.30
5.896733396007300, 723.32
5.896587220394282, 723.34
5.896441052864411, 723.36
5.896294893417015, 723.38
5.896148742051424, 723.40
5.896002598766969, 723.42
5.895856463562977, 723.44
5.895710336438780, 723.46
5.895564217393709, 723.48
5.895418106427091, 723.50
5.895272003538258, 723.52
5.895125908726540, 723.54
5.894979821991266, 723.56
5.894833743331767, 723.58
5.894687672747374, 723.60
5.894541610237417, 723.62
5.894395555801228, 723.64
5.894249509438135, 723.66
5.894103471147468, 723.68
5.893957440928562, 723.70
5.893811418780744, 723.72
5.893665404703347, 723.74
5.893519398695701, 723.76
5.893373400757136, 723.78
5.893227410886986, 723.80
5.893081429084580, 723.82
5.892935455349249, 723.84
5.892789489680325, 723.86
5.892643532077140, 723.88
5.892497582539026, 723.90
5.892351641065312, 723.92
5.892205707655330, 723.94
5.892059782308415, 723.96
5.891913865023896, 723.98
5.891767955801106, 724.00
5.891622054639375, 724.02
5.891476161538037, 724.04
5.891330276496424, 724.06
5.891184399513866, 724.08
5.891038530589698, 724.10
5.890892669723250, 724.12
5.890746816913857, 724.14
5.890600972160849, 724.16
5.890455135463559, 724.18
5.890309306821320, 724.20
5.890163486233465, 724.22
5.890017673699327, 724.24
5.889871869218237, 724.26
5.889726072789530, 724.28
5.889580284412537, 724.30
5.889434504086593, 724.32
5.889288731811028, 724.34
5.889142967585179, 724.36
5.888997211408377, 724.38
5.888851463279956, 724.40
5.888705723199250, 724.42
5.888559991165589, 724.44
5.888414267178312, 724.46
5.888268551236750, 724.48
5.888122843340235, 724.50
5.887977143488103, 724.52
5.887831451679687, 724.54
5.887685767914321, 724.56
5.887540092191339, 724.58
5.887394424510075, 724.60
5.887248764869863, 724.62
5.887103113270038, 724.64
5.886957469709934, 724.66
5.886811834188883, 724.68
5.886666206706224, 724.70
5.886520587261288, 724.72
5.886374975853410, 724.74
5.886229372481925, 724.76
5.886083777146169, 724.78
5.885938189845476, 724.80
5.885792610579179, 724.82
5.885647039346614, 724.84
5.885501476147119, 724.86
5.885355920980024, 724.88
5.885210373844669, 724.90
5.885064834740386, 724.92
5.884919303666511, 724.94
5.884773780622379, 724.96
5.884628265607327, 724.98
5.884482758620690, 725.00
5.884337259661803, 725.02
5.884191768730002, 725.04
5.884046285824622, 725.06
5.883900810944999, 725.08
5.883755344090471, 725.10
5.883609885260371, 725.12
5.883464434454037, 725.14
5.883318991670804, 725.16
5.883173556910008, 725.18
5.883028130170987, 725.20
5.882882711453076, 725.22
5.882737300755612, 725.24
5.882591898077931, 725.26
5.882446503419370, 725.28
5.882301116779264, 725.30
5.882155738156952, 725.32
5.882010367551769, 725.34
5.881865004963053, 725.36
5.881719650390140, 725.38
5.881574303832369, 725.40
5.881428965289074, 725.42
5.881283634759594, 725.44
5.881138312243267, 725.46
5.880992997739428, 725.48
5.880847691247416, 725.50
5.880702392766568, 725.52
5.880557102296222, 725.54
5.880411819835714, 725.56
5.880266545384382, 725.58
5.880121278941566, 725.60
5.879976020506602, 725.62
5.879830770078827, 725.64
5.879685527657581, 725.66
5.879540293242200, 725.68
5.879395066832024, 725.70
5.879249848426390, 725.72
5.879104638024637, 725.74
5.878959435626102, 725.76
5.878814241230125, 725.78
5.878669054836044, 725.80
5.878523876443196, 725.82
5.878378706050920, 725.84
5.878233543658557, 725.86
5.878088389265444, 725.88
5.877943242870919, 725.90
5.877798104474323, 725.92
5.877652974074993, 725.94
5.877507851672268, 725.96
5.877362737265489, 725.98
5.877217630853995, 726.00
5.877072532437124, 726.02
5.876927442014215, 726.04
5.876782359584608, 726.06
5.876637285147642, 726.08
5.876492218702658, 726.10
5.876347160248995, 726.12
5.876202109785992, 726.14
5.876057067312989, 726.16
5.875912032829326, 726.18
5.875767006334343, 726.20
5.875621987827381, 726.22
5.875476977307778, 726.24
5.875331974774874, 726.26
5.875186980228012, 726.28
5.875041993666530, 726.30
5.874897015089768, 726.32
5.874752044497067, 726.34
5.874607081887770, 726.36
5.874462127261213, 726.38
5.874317180616741, 726.40
5.874172241953691, 726.42
5.874027311271406, 726.44
5.873882388569226, 726.46
5.873737473846493, 726.48
5.873592567102547, 726.50
5.873447668336729, 726.52
5.873302777548380, 726.54
5.873157894736843, 726.56
5.873013019901456, 726.58
5.872868153041564, 726.60
5.872723294156506, 726.62
5.872578443245624, 726.64
5.872433600308260, 726.66
5.872288765343755, 726.68
5.872143938351452, 726.70
5.871999119330692, 726.72
5.871854308280816, 726.74
5.871709505201167, 726.76
5.871564710091087, 726.78
5.871419922949918, 726.80
5.871275143777002, 726.82
5.871130372571680, 726.84
5.870985609333297, 726.86
5.870840854061194, 726.88
5.870696106754712, 726.90
5.870551367413196, 726.92
5.870406636035987, 726.94
5.870261912622428, 726.96
5.870117197171862, 726.98
5.869972489683632, 727.00
5.869827790157080, 727.02
5.869683098591550, 727.04
5.869538414986384, 727.06
5.869393739340925, 727.08
5.869249071654518, 727.10
5.869104411926505, 727.12
5.868959760156229, 727.14
5.868815116343034, 727.16
5.868670480486262, 727.18
5.868525852585258, 727.20
5.868381232639367, 727.22
5.868236620647929, 727.24
5.868092016610291, 727.26
5.867947420525796, 727.28
5.867802832393786, 727.30
5.867658252213607, 727.32
5.867513679984602, 727.34
5.867369115706116, 727.36
5.867224559377492, 727.38
5.867080010998076, 727.40
5.866935470567211, 727.42
5.866790938084240, 727.44
5.866646413548511, 727.46
5.866501896959367, 727.48
5.866357388316151, 727.50
5.866212887618210, 727.52
5.866068394864888, 727.54
5.865923910055529, 727.56
5.865779433189477, 727.58
5.865634964266080, 727.60
5.865490503284682, 727.62
5.865346050244627, 727.64
5.865201605145261, 727.66
5.865057167985928, 727.68
5.864912738765975, 727.70
5.864768317484747, 727.72
5.864623904141589, 727.74
5.864479498735848, 727.76
5.864335101266867, 727.78
5.864190711733993, 727.80
5.864046330136573, 727.82
5.863901956473950, 727.84
5.863757590745474, 727.86
5.863613232950486, 727.88
5.863468883088337, 727.90
5.863324541158370, 727.92
5.863180207159931, 727.94
5.863035881092368, 727.96
5.862891562955026, 727.98
5.862747252747253, 728.00
5.862602950468395, 728.02
5.862458656117797, 728.04
5.862314369694806, 728.06
5.862170091198769, 728.08
5.862025820629035, 728.10
5.861881557984947, 728.12
5.861737303265856, 728.14
5.861593056471106, 728.16
5.861448817600044, 728.18
5.861304586652019, 728.20
5.861160363626377, 728.22
5.861016148522466, 728.24
5.860871941339632, 728.26
5.860727742077223, 728.28
5.860583550734588, 728.30
5.860439367311073, 728.32
5.860295191806025, 728.34
5.860151024218793, 728.36
5.860006864548725, 728.38
5.859862712795168, 728.40
5.859718568957470, 728.42
5.859574433034979, 728.44
5.859430305027043, 728.46
5.859286184933011, 728.48
5.859142072752231, 728.50
5.858997968484051, 728.52
5.858853872127818, 728.54
5.858709783682882, 728.56
5.858565703148590, 728.58
5.858421630524293, 728.60
5.858277565809338, 728.62
5.858133509003075, 728.64
5.857989460104850, 728.66
5.857845419114014, 728.68
5.857701386029916, 728.70
5.857557360851905, 728.72
5.857413343579329, 728.74
5.857269334211538, 728.76
5.857125332747881, 728.78
5.856981339187707, 728.80
5.856837353530365, 728.82
5.856693375775205, 728.84
5.856549405921577, 728.86
5.856405443968829, 728.88
5.856261489916313, 728.90
5.856117543763377, 728.92
5.855973605509369, 728.94
5.855829675153643, 728.96
5.855685752695547, 728.98
5.855541838134431, 729.00
5.855397931469644, 729.02
5.855254032700539, 729.04
5.855110141826462, 729.06
5.854966258846765, 729.08
5.854822383760801, 729.10
5.854678516567918, 729.12
5.854534657267466, 729.14
5.854390805858797, 729.16
5.854246962341260, 729.18
5.854103126714207, 729.20
5.853959298976990, 729.22
5.853815479128956, 729.24
5.853671667169460, 729.26
5.853527863097851, 729.28
5.853384066913479, 729.30
5.853240278615697, 729.32
5.853096498203856, 729.34
5.852952725677306, 729.36
5.852808961035400, 729.38
5.852665204277489, 729.40
5.852521455402924, 729.42
5.852377714411055, 729.44
5.852233981301237, 729.46
5.852090256072819, 729.48
5.851946538725154, 729.50
5.851802829257594, 729.52
5.851659127669491, 729.54
5.851515433960196, 729.56
5.851371748129060, 729.58
5.851228070175439, 729.60
5.851084400098681, 729.62
5.850940737898142, 729.64
5.850797083573172, 729.66
5.850653437123122, 729.68
5.850509798547348, 729.70
5.850366167845201, 729.72
5.850222545016034, 729.74
5.850078930059198, 729.76
5.849935322974048, 729.78
5.849791723759935, 729.80
5.849648132416213, 729.82
5.849504548942234, 729.84
5.849360973337353, 729.86
5.849217405600921, 729.88
5.849073845732293, 729.90
5.848930293730820, 729.92
5.848786749595857, 729.94
5.848643213326758, 729.96
5.848499684922875, 729.98
5.848356164383562, 730.00
5.848212651708173, 730.02
5.848069146896061, 730.04
5.847925649946580, 730.06
5.847782160859084, 730.08
5.847638679632927, 730.10
5.847495206267463, 730.12
5.847351740762046, 730.14
5.847208283116029, 730.16
5.847064833328768, 730.18
5.846921391399617, 730.20
5.846777957327928, 730.22
5.846634531113059, 730.24
5.846491112754362, 730.26
5.846347702251192, 730.28
5.846204299602904, 730.30
5.846060904808851, 730.32
5.845917517868390, 730.34
5.845774138780875, 730.36
5.845630767545662, 730.38
5.845487404162103, 730.40
5.845344048629556, 730.42
5.845200700947374, 730.44
5.845057361114914, 730.46
5.844914029131530, 730.48
5.844770704996578, 730.50
5.844627388709413, 730.52
5.844484080269391, 730.54
5.844340779675866, 730.56
5.844197486928194, 730.58
5.844054202025732, 730.60
5.843910924967836, 730.62
5.843767655753860, 730.64
5.843624394383161, 730.66
5.843481140855094, 730.68
5.843337895169016, 730.70
5.843194657324283, 730.72
5.843051427320251, 730.74
5.842908205156276, 730.76
5.842764990831714, 730.78
5.842621784345923, 730.80
5.842478585698258, 730.82
5.842335394888075, 730.84
5.842192211914731, 730.86
5.842049036777584, 730.88
5.841905869475989, 730.90
5.841762710009304, 730.92
5.841619558376885, 730.94
5.841476414578089, 730.96
5.841333278612274, 730.98
5.841190150478797, 731.00
5.841047030177013, 731.02
5.840903917706282, 731.04
5.840760813065960, 731.06
5.840617716255403, 731.08
5.840474627273971, 731.10
5.840331546121020, 731.12
5.840188472795909, 731.14
5.840045407297993, 731.16
5.839902349626631, 731.18
5.839759299781182, 731.20
5.839616257761002, 731.22
5.839473223565451, 731.24
5.839330197193885, 731.26
5.839187178645663, 731.28
5.839044167920143, 731.30
5.838901165016683, 731.32
5.838758169934641, 731.34
5.838615182673376, 731.36
5.838472203232246, 731.38
5.838329231610611, 731.40
5.838186267807827, 731.42
5.838043311823252, 731.44
5.837900363656249, 731.46
5.837757423306174, 731.48
5.837614490772386, 731.50
5.837471566054243, 731.52
5.837328649151106, 731.54
5.837185740062333, 731.56
5.837042838787283, 731.58
5.836899945325315, 731.60
5.836757059675788, 731.62
5.836614181838063, 731.64
5.836471311811498, 731.66
5.836328449595451, 731.68
5.836185595189285, 731.70
5.836042748592358, 731.72
5.835899909804029, 731.74
5.835757078823659, 731.76
5.835614255650606, 731.78
5.835471440284231, 731.80
5.835328632723894, 731.82
5.835185832968955, 731.84
5.835043041018774, 731.86
5.834900256872712, 731.88
5.834757480530127, 731.90
5.834614711990382, 731.92
5.834471951252834, 731.94
5.834329198316848, 731.96
5.834186453181781, 731.98
5.834043715846994, 732.00
5.833900986311850, 732.02
5.833758264575707, 732.04
5.833615550637926, 732.06
5.833472844497869, 732.08
5.833330146154897, 732.10
5.833187455608370, 732.12
5.833044772857651, 732.14
5.832902097902099, 732.16
5.832759430741074, 732.18
5.832616771373941, 732.20
5.832474119800060, 732.22
5.832331476018792, 732.24
5.832188840029498, 732.26
5.832046211831540, 732.28
5.831903591424281, 732.30
5.831760978807080, 732.32
5.831618373979300, 732.34
5.831475776940303, 732.36
5.831333187689451, 732.38
5.831190606226106, 732.40
5.831048032549631, 732.42
5.830905466659385, 732.44
5.830762908554734, 732.46
5.830620358235037, 732.48
5.830477815699659, 732.50
5.830335280947961, 732.52
5.830192753979305, 732.54
5.830050234793055, 732.56
5.829907723388572, 732.58
5.829765219765220, 732.60
5.829622723922361, 732.62
5.829480235859358, 732.64
5.829337755575574, 732.66
5.829195283070372, 732.68
5.829052818343114, 732.70
5.828910361393166, 732.72
5.828767912219887, 732.74
5.828625470822644, 732.76
5.828483037200797, 732.78
5.828340611353712, 732.80
5.828198193280752, 732.82
5.828055782981278, 732.84
5.827913380454658, 732.86
5.827770985700251, 732.88
5.827628598717425, 732.90
5.827486219505540, 732.92
5.827343848063961, 732.94
5.827201484392054, 732.96
5.827059128489181, 732.98
5.826916780354707, 733.00
5.826774439987996, 733.02
5.826632107388410, 733.04
5.826489782555317, 733.06
5.826347465488078, 733.08
5.826205156186059, 733.10
5.826062854648625, 733.12
5.825920560875140, 733.14
5.825778274864969, 733.16
5.825635996617474, 733.18
5.825493726132024, 733.20
5.825351463407982, 733.22
5.825209208444711, 733.24
5.825066961241579, 733.26
5.824924721797950, 733.28
5.824782490113187, 733.30
5.824640266186659, 733.32
5.824498050017727, 733.34
5.824355841605760, 733.36
5.824213640950122, 733.38
5.824071448050177, 733.40
5.823929262905294, 733.42
5.823787085514834, 733.44
5.823644915878167, 733.46
5.823502753994656, 733.48
5.823360599863667, 733.50
5.823218453484568, 733.52
5.823076314856722, 733.54
5.822934183979498, 733.56
5.822792060852259, 733.58
5.822649945474373, 733.60
5.822507837845206, 733.62
5.822365737964125, 733.64
5.822223645830494, 733.66
5.822081561443681, 733.68
5.821939484803053, 733.70
5.821797415907976, 733.72
5.821655354757817, 733.74
5.821513301351941, 733.76
5.821371255689717, 733.78
5.821229217770511, 733.80
5.821087187593688, 733.82
5.820945165158617, 733.84
5.820803150464666, 733.86
5.820661143511201, 733.88
5.820519144297589, 733.90
5.820377152823196, 733.92
5.820235169087391, 733.94
5.820093193089542, 733.96
5.819951224829015, 733.98
5.819809264305177, 734.00
5.819667311517398, 734.02
5.819525366465044, 734.04
5.819383429147482, 734.06
5.819241499564081, 734.08
5.819099577714208, 734.10
5.818957663597232, 734.12
5.818815757212521, 734.14
5.818673858559443, 734.16
5.818531967637364, 734.18
5.818390084445655, 734.20
5.818248208983683, 734.22
5.818106341250817, 734.24
5.817964481246426, 734.26
5.817822628969876, 734.28
5.817680784420538, 734.30
5.817538947597778, 734.32
5.817397118500967, 734.34
5.817255297129473, 734.36
5.817113483482666, 734.38
5.816971677559914, 734.40
5.816829879360585, 734.42
5.816688088884048, 734.44
5.816546306129673, 734.46
5.816404531096831, 734.48
5.816262763784888, 734.50
5.816121004193215, 734.52
5.815979252321181, 734.54
5.815837508168156, 734.56
5.815695771733508, 734.58
5.815554043016608, 734.60
5.815412322016825, 734.62
5.815270608733530, 734.64
5.815128903166091, 734.66
5.814987205313878, 734.68
5.814845515176263, 734.70
5.814703832752613, 734.72
5.814562158042301, 734.74
5.814420491044695, 734.76
5.814278831759166, 734.78
5.814137180185085, 734.80
5.813995536321821, 734.82
5.813853900168744, 734.84
5.813712271725227, 734.86
5.813570650990639, 734.88
5.813429037964349, 734.90
5.813287432645731, 734.92
5.813145835034152, 734.94
5.813004245128987, 734.96
5.812862662929604, 734.98
5.812721088435374, 735.00
5.812579521645670, 735.02
5.812437962559861, 735.04
5.812296411177320, 735.06
5.812154867497415, 735.08
5.812013331519521, 735.10
5.811871803243008, 735.12
5.811730282667248, 735.14
5.811588769791610, 735.16
5.811447264615468, 735.18
5.811305767138194, 735.20
5.811164277359158, 735.22
5.811022795277733, 735.24
5.810881320893290, 735.26
5.810739854205202, 735.28
5.810598395212839, 735.30
5.810456943915575, 735.32
5.810315500312781, 735.34
5.810174064403830, 735.36
5.810032636188094, 735.38
5.809891215664945, 735.40
5.809749802833755, 735.42
5.809608397693897, 735.44
5.809467000244745, 735.46
5.809325610485669, 735.48
5.809184228416044, 735.50
5.809042854035241, 735.52
5.808901487342633, 735.54
5.808760128337594, 735.56
5.808618777019495, 735.58
5.808477433387710, 735.60
5.808336097441614, 735.62
5.808194769180578, 735.64
5.808053448603975, 735.66
5.807912135711178, 735.68
5.807770830501563, 735.70
5.807629532974501, 735.72
5.807488243129367, 735.74
5.807346960965533, 735.76
5.807205686482373, 735.78
5.807064419679262, 735.80
5.806923160555572, 735.82
5.806781909110676, 735.84
5.806640665343951, 735.86
5.806499429254770, 735.88
5.806358200842507, 735.90
5.806216980106534, 735.92
5.806075767046226, 735.94
5.805934561660960, 735.96
5.805793363950108, 735.98
5.805652173913044, 736.00
5.805510991549143, 736.02
5.805369816857780, 736.04
5.805228649838329, 736.06
5.805087490490164, 736.08
5.804946338812662, 736.10
5.804805194805195, 736.12
5.804664058467139, 736.14
5.804522929797870, 736.16
5.804381808796761, 736.18
5.804240695463189, 736.20
5.804099589796528, 736.22
5.803958491796154, 736.24
5.803817401461441, 736.26
5.803676318791765, 736.28
5.803535243786500, 736.30
5.803394176445025, 736.32
5.803253116766711, 736.34
5.803112064750938, 736.36
5.802971020397078, 736.38
5.802829983704509, 736.40
5.802688954672606, 736.42
5.802547933300744, 736.44
5.802406919588301, 736.46
5.802265913534652, 736.48
5.802124915139173, 736.50
5.801983924401239, 736.52
5.801842941320228, 736.54
5.801701965895515, 736.56
5.801560998126477, 736.58
5.801420038012490, 736.60
5.801279085552931, 736.62
5.801138140747176, 736.64
5.800997203594603, 736.66
5.800856274094587, 736.68
5.800715352246504, 736.70
5.800574438049734, 736.72
5.800433531503652, 736.74
5.800292632607634, 736.76
5.800151741361058, 736.78
5.800010857763302, 736.80
5.799869981813741, 736.82
5.799729113511753, 736.84
5.799588252856717, 736.86
5.799447399848008, 736.88
5.799306554485005, 736.90
5.799165716767085, 736.92
5.799024886693625, 736.94
5.798884064264003, 736.96
5.798743249477598, 736.98
5.798602442333786, 737.00
5.798461642831946, 737.02
5.798320850971454, 737.04
5.798180066751690, 737.06
5.798039290172031, 737.08
5.797898521231855, 737.10
5.797757759930541, 737.12
5.797617006267466, 737.14
5.797476260242011, 737.16
5.797335521853550, 737.18
5.797194791101465, 737.20
5.797054067985133, 737.22
5.796913352503934, 737.24
5.796772644657245, 737.26
5.796631944444445, 737.28
5.796491251864913, 737.30
5.796350566918028, 737.32
5.796209889603168, 737.34
5.796069219919714, 737.36
5.795928557867043, 737.38
5.795787903444535, 737.40
5.795647256651570, 737.42
5.795506617487525, 737.44
5.795365985951780, 737.46
5.795225362043716, 737.48
5.795084745762712, 737.50
5.794944137108146, 737.52
5.794803536079399, 737.54
5.794662942675851, 737.56
5.794522356896879, 737.58
5.794381778741866, 737.60
5.794241208210190, 737.62
5.794100645301231, 737.64
5.793960090014370, 737.66
5.793819542348986, 737.68
5.793679002304460, 737.70
5.793538469880171, 737.72
5.793397945075501, 737.74
5.793257427889829, 737.76
5.793116918322536, 737.78
5.792976416373001, 737.80
5.792835922040607, 737.82
5.792695435324732, 737.84
5.792554956224758, 737.86
5.792414484740067, 737.88
5.792274020870037, 737.90
5.792133564614051, 737.92
5.791993115971488, 737.94
5.791852674941731, 737.96
5.791712241524161, 737.98
5.791571815718157, 738.00
5.791431397523103, 738.02
5.791290986938378, 738.04
5.791150583963364, 738.06
5.791010188597442, 738.08
5.790869800839995, 738.10
5.790729420690403, 738.12
5.790589048148048, 738.14
5.790448683212312, 738.16
5.790308325882576, 738.18
5.790167976158223, 738.20
5.790027634038633, 738.22
5.789887299523190, 738.24
5.789746972611275, 738.26
5.789606653302271, 738.28
5.789466341595558, 738.30
5.789326037490520, 738.32
5.789185740986538, 738.34
5.789045452082995, 738.36
5.788905170779274, 738.38
5.788764897074756, 738.40
5.788624630968826, 738.42
5.788484372460863, 738.44
5.788344121550253, 738.46
5.788203878236378, 738.48
5.788063642518619, 738.50
5.787923414396361, 738.52
5.787783193868985, 738.54
5.787642980935876, 738.56
5.787502775596415, 738.58
5.787362577849986, 738.60
5.787222387695974, 738.62
5.787082205133760, 738.64
5.786942030162727, 738.66
5.786801862782260, 738.68
5.786661702991743, 738.70
5.786521550790557, 738.72
5.786381406178087, 738.74
5.786241269153718, 738.76
5.786101139716831, 738.78
5.785961017866811, 738.80
5.785820903603043, 738.82
5.785680796924909, 738.84
5.785540697831795, 738.86
5.785400606323084, 738.88
5.785260522398159, 738.90
5.785120446056407, 738.92
5.784980377297209, 738.94
5.784840316119952, 738.96
5.784700262524019, 738.98
5.784560216508796, 739.00
5.784420178073666, 739.02
5.784280147218013, 739.04
5.784140123941223, 739.06
5.784000108242680, 739.08
5.783860100121770, 739.10
5.783720099577876, 739.12
5.783580106610385, 739.14
5.783440121218681, 739.16
5.783300143402148, 739.18
5.783160173160173, 739.20
5.783020210492141, 739.22
5.782880255397435, 739.24
5.782740307875444, 739.26
5.782600367925550, 739.28
5.782460435547140, 739.30
5.782320510739599, 739.32
5.782180593502313, 739.34
5.782040683834668, 739.36
5.781900781736049, 739.38
5.781760887205843, 739.40
5.781621000243435, 739.42
5.781481120848209, 739.44
5.781341249019555, 739.46
5.781201384756856, 739.48
5.781061528059500, 739.50
5.780921678926872, 739.52
5.780781837358359, 739.54
5.780642003353346, 739.56
5.780502176911220, 739.58
5.780362358031368, 739.60
5.780222546713177, 739.62
5.780082742956033, 739.64
5.779942946759323, 739.66
5.779803158122431, 739.68
5.779663377044748, 739.70
5.779523603525658, 739.72
5.779383837564550, 739.74
5.779244079160810, 739.76
5.779104328313823, 739.78
5.778964585022980, 739.80
5.778824849287665, 739.82
5.778685121107267, 739.84
5.778545400481172, 739.86
5.778405687408769, 739.88
5.778265981889445, 739.90
5.778126283922587, 739.92
5.777986593507582, 739.94
5.777846910643818, 739.96
5.777707235330685, 739.98
5.777567567567568, 740.00
5.777427907353855, 740.02
5.777288254688936, 740.04
5.777148609572198, 740.06
5.777008972003027, 740.08
5.776869341980814, 740.10
5.776729719504946, 740.12
5.776590104574811, 740.14
5.776450497189797, 740.16
5.776310897349293, 740.18
5.776171305052689, 740.20
5.776031720299371, 740.22
5.775892143088728, 740.24
5.775752573420150, 740.26
5.775613011293025, 740.28
5.775473456706741, 740.30
5.775333909660688, 740.32
5.775194370154254, 740.34
5.775054838186828, 740.36
5.774915313757800, 740.38
5.774775796866559, 740.40
5.774636287512494, 740.42
5.774496785694992, 740.44
5.774357291413446, 740.46
5.774217804667243, 740.48
5.774078325455774, 740.50
5.773938853778427, 740.52
5.773799389634592, 740.54
5.773659933023659, 740.56
5.773520483945016, 740.58
5.773381042398055, 740.60
5.773241608382166, 740.62
5.773102181896738, 740.64
5.772962762941162, 740.66
5.772823351514824, 740.68
5.772683947617119, 740.70
5.772544551247435, 740.72
5.772405162405163, 740.74
5.772265781089692, 740.76
5.772126407300414, 740.78
5.771987041036717, 740.80
5.771847682297995, 740.82
5.771708331083635, 740.84
5.771568987393030, 740.86
5.771429651225570, 740.88
5.771290322580645, 740.90
5.771151001457648, 740.92
5.771011687855967, 740.94
5.770872381774995, 740.96
5.770733083214122, 740.98
5.770593792172740, 741.00
5.770454508650239, 741.02
5.770315232646012, 741.04
5.770175964159448, 741.06
5.770036703189939, 741.08
5.769897449736877, 741.10
5.769758203799655, 741.12
5.769618965377662, 741.14
5.769479734470290, 741.16
5.769340511076932, 741.18
5.769201295196978, 741.20
5.769062086829821, 741.22
5.768922885974853, 741.24
5.768783692631466, 741.26
5.768644506799051, 741.28
5.768505328477000, 741.30
5.768366157664707, 741.32
5.768226994361561, 741.34
5.768087838566959, 741.36
5.767948690280289, 741.38
5.767809549500945, 741.40
5.767670416228319, 741.42
5.767531290461804, 741.44
5.767392172200793, 741.46
5.767253061444678, 741.48
5.767113958192852, 741.50
5.766974862444709, 741.52
5.766835774199639, 741.54
5.766696693457037, 741.56
5.766557620216295, 741.58
5.766418554476807, 741.60
5.766279496237966, 741.62
5.766140445499165, 741.64
5.766001402259796, 741.66
5.765862366519253, 741.68
5.765723338276931, 741.70
5.765584317532222, 741.72
5.765445304284521, 741.74
5.765306298533218, 741.76
5.765167300277711, 741.78
5.765028309517390, 741.80
5.764889326251653, 741.82
5.764750350479888, 741.84
5.764611382201494, 741.86
5.764472421415863, 741.88
5.764333468122389, 741.90
5.764194522320467, 741.92
5.764055584009489, 741.94
5.763916653188851, 741.96
5.763777729857948, 741.98
5.763638814016173, 742.00
5.763499905662920, 742.02
5.763361004797585, 742.04
5.763222111419562, 742.06
5.763083225528245, 742.08
5.762944347123029, 742.10
5.762805476203310, 742.12
5.762666612768481, 742.14
5.762527756817938, 742.16
5.762388908351074, 742.18
5.762250067367287, 742.20
5.762111233865970, 742.22
5.761972407846519, 742.24
5.761833589308329, 742.26
5.761694778250796, 742.28
5.761555974673313, 742.30
5.761417178575278, 742.32
5.761278389956085, 742.34
5.761139608815131, 742.36
5.761000835151809, 742.38
5.760862068965518, 742.40
5.760723310255651, 742.42
5.760584559021605, 742.44
5.760445815262775, 742.46
5.760307078978559, 742.48
5.760168350168350, 742.50
5.760029628831547, 742.52
5.759890914967545, 742.54
5.759752208575739, 742.56
5.759613509655526, 742.58
5.759474818206303, 742.60
5.759336134227465, 742.62
5.759197457718410, 742.64
5.759058788678534, 742.66
5.758920127107233, 742.68
5.758781473003904, 742.70
5.758642826367945, 742.72
5.758504187198751, 742.74
5.758365555495719, 742.76
5.758226931258246, 742.78
5.758088314485731, 742.80
5.757949705177567, 742.82
5.757811103333154, 742.84
5.757672508951889, 742.86
5.757533922033168, 742.88
5.757395342576390, 742.90
5.757256770580952, 742.92
5.757118206046249, 742.94
5.756979648971681, 742.96
5.756841099356645, 742.98
5.756702557200539, 743.00
5.756564022502760, 743.02
5.756425495262705, 743.04
5.756286975479774, 743.06
5.756148463153361, 743.08
5.756009958282870, 743.10
5.755871460867693, 743.12
5.755732970907232, 743.14
5.755594488400884, 743.16
5.755456013348045, 743.18
5.755317545748116, 743.20
5.755179085600496, 743.22
5.755040632904580, 743.24
5.754902187659770, 743.26
5.754763749865462, 743.28
5.754625319521056, 743.30
5.754486896625949, 743.32
5.754348481179541, 743.34
5.754210073181231, 743.36
5.754071672630418, 743.38
5.753933279526501, 743.40
5.753794893868877, 743.42
5.753656515656946, 743.44
5.753518144890108, 743.46
5.753379781567762, 743.48
5.753241425689308, 743.50
5.753103077254143, 743.52
5.752964736261668, 743.54
5.752826402711282, 743.56
5.752688076602383, 743.58
5.752549757934373, 743.60
5.752411446706652, 743.62
5.752273142918617, 743.64
5.752134846569669, 743.66
5.751996557659208, 743.68
5.751858276186635, 743.70
5.751720002151347, 743.72
5.751581735552747, 743.74
5.751443476390234, 743.76
5.751305224663207, 743.78
5.751166980371068, 743.80
5.751028743513216, 743.82
5.750890514089051, 743.84
5.750752292097975, 743.86
5.750614077539389, 743.88
5.750475870412690, 743.90
5.750337670717282, 743.92
5.750199478452563, 743.94
5.750061293617937, 743.96
5.749923116212802, 743.98
5.749784946236559, 744.00
5.749646783688611, 744.02
5.749508628568357, 744.04
5.749370480875199, 744.06
5.749232340608537, 744.08
5.749094207767773, 744.10
5.748956082352309, 744.12
5.748817964361545, 744.14
5.748679853794884, 744.16
5.748541750651724, 744.18
5.748403654931470, 744.20
5.748265566633522, 744.22
5.748127485757283, 744.24
5.747989412302153, 744.26
5.747851346267534, 744.28
5.747713287652829, 744.30
5.747575236457439, 744.32
5.747437192680764, 744.34
5.747299156322210, 744.36
5.747161127381177, 744.38
5.747023105857067, 744.40
5.746885091749282, 744.42
5.746747085057224, 744.44
5.746609085780297, 744.46
5.746471093917902, 744.48
5.746333109469443, 744.50
5.746195132434321, 744.52
5.746057162811939, 744.54
5.745919200601699, 744.56
5.745781245803003, 744.58
5.745643298415256, 744.60
5.745505358437861, 744.62
5.745367425870220, 744.64
5.745229500711734, 744.66
5.745091582961809, 744.68
5.744953672619847, 744.70
5.744815769685251, 744.72
5.744677874157424, 744.74
5.744539986035770, 744.76
5.744402105319693, 744.78
5.744264232008594, 744.80
5.744126366101877, 744.82
5.743988507598948, 744.84
5.743850656499208, 744.86
5.743712812802062, 744.88
5.743574976506914, 744.90
5.743437147613167, 744.92
5.743299326120225, 744.94
5.743161512027491, 744.96
5.743023705334371, 744.98
5.742885906040269, 745.00
5.742748114144587, 745.02
5.742610329646731, 745.04
5.742472552546104, 745.06
5.742334782842111, 745.08
5.742197020534157, 745.10
5.742059265621645, 745.12
5.741921518103981, 745.14
5.741783777980569, 745.16
5.741646045250811, 745.18
5.741508319914117, 745.20
5.741370601969888, 745.22
5.741232891417530, 745.24
5.741095188256447, 745.26
5.740957492486046, 745.28
5.740819804105730, 745.30
5.740682123114905, 745.32
5.740544449512974, 745.34
5.740406783299346, 745.36
5.740269124473423, 745.38
5.740131473034613, 745.40
5.739993828982319, 745.42
5.739856192315948, 745.44
5.739718563034905, 745.46
5.739580941138596, 745.48
5.739443326626426, 745.50
5.739305719497801, 745.52
5.739168119752127, 745.54
5.739030527388809, 745.56
5.738892942407253, 745.58
5.738755364806867, 745.60
5.738617794587055, 745.62
5.738480231747224, 745.64
5.738342676286780, 745.66
5.738205128205128, 745.68
5.738067587501677, 745.70
5.737930054175830, 745.72
5.737792528226996, 745.74
5.737655009654581, 745.76
5.737517498457991, 745.78
5.737379994636632, 745.80
5.737242498189913, 745.82
5.737105009117237, 745.84
5.736967527418014, 745.86
5.736830053091651, 745.88
5.736692586137552, 745.90
5.736555126555127, 745.92
5.736417674343781, 745.94
5.736280229502922, 745.96
5.736142792031958, 745.98
5.736005361930295, 746.00
5.735867939197341, 746.02
5.735730523832503, 746.04
5.735593115835188, 746.06
5.735455715204804, 746.08
5.735318321940759, 746.10
5.735180936042460, 746.12
5.735043557509315, 746.14
5.734906186340732, 746.16
5.734768822536117, 746.18
5.734631466094881, 746.20
5.734494117016429, 746.22
5.734356775300172, 746.24
5.734219440945515, 746.26
5.734082113951868, 746.28
5.733944794318639, 746.30
5.733807482045236, 746.32
5.733670177131066, 746.34
5.733532879575540, 746.36
5.733395589378065, 746.38
5.733258306538049, 746.40
5.733121031054902, 746.42
5.732983762928032, 746.44
5.732846502156847, 746.46
5.732709248740757, 746.48
5.732572002679170, 746.50
5.732434763971495, 746.52
5.732297532617141, 746.54
5.732160308615518, 746.56
5.732023091966032, 746.58
5.731885882668095, 746.60
5.731748680721116, 746.62
5.731611486124505, 746.64
5.731474298877669, 746.66
5.731337118980018, 746.68
5.731199946430963, 746.70
5.731062781229912, 746.72
5.730925623376276, 746.74
5.730788472869463, 746.76
5.730651329708884, 746.78
5.730514193893948, 746.80
5.730377065424065, 746.82
5.730239944298645, 746.84
5.730102830517098, 746.86
5.729965724078835, 746.88
5.729828624983265, 746.90
5.729691533229798, 746.92
5.729554448817844, 746.94
5.729417371746814, 746.96
5.729280302016118, 746.98
5.729143239625167, 747.00
5.729006184573372, 747.02
5.728869136860142, 747.04
5.728732096484888, 747.06
5.728595063447020, 747.08
5.728458037745951, 747.10
5.728321019381091, 747.12
5.728184008351849, 747.14
5.728047004657637, 747.16
5.727910008297867, 747.18
5.727773019271948, 747.20
5.727636037579294, 747.22
5.727499063219314, 747.24
5.727362096191420, 747.26
5.727225136495022, 747.28
5.727088184129534, 747.30
5.726951239094364, 747.32
5.726814301388926, 747.34
5.726677371012632, 747.36
5.726540447964891, 747.38
5.726403532245117, 747.40
5.726266623852720, 747.42
5.726129722787113, 747.44
5.725992829047708, 747.46
5.725855942633917, 747.48
5.725719063545151, 747.50
5.725582191780823, 747.52
5.725445327340344, 747.54
5.725308470223126, 747.56
5.725171620428583, 747.58
5.725034777956126, 747.60
5.724897942805169, 747.62
5.724761114975122, 747.64
5.724624294465399, 747.66
5.724487481275411, 747.68
5.724350675404574, 747.70
5.724213876852298, 747.72
5.724077085617996, 747.74
5.723940301701081, 747.76
5.723803525100966, 747.78
5.723666755817064, 747.80
5.723529993848788, 747.82
5.723393239195550, 747.84
5.723256491856765, 747.86
5.723119751831845, 747.88
5.722983019120203, 747.90
5.722846293721254, 747.92
5.722709575634410, 747.94
5.722572864859083, 747.96
5.722436161394690, 747.98
5.722299465240642, 748.00
5.722162776396353, 748.02
5.722026094861238, 748.04
5.721889420634709, 748.06
5.721752753716181, 748.08
5.721616094105066, 748.10
5.721479441800781, 748.12
5.721342796802737, 748.14
5.721206159110351, 748.16
5.721069528723034, 748.18
5.720932905640203, 748.20
5.720796289861271, 748.22
5.720659681385652, 748.24
5.720523080212761, 748.26
5.720386486342012, 748.28
5.720249899772819, 748.30
5.720113320504598, 748.32
5.719976748536761, 748.34
5.719840183868727, 748.36
5.719703626499907, 748.38
5.719567076429717, 748.40
5.719430533657572, 748.42
5.719293998182887, 748.44
5.719157470005078, 748.46
5.719020949123557, 748.48
5.718884435537743, 748.50
5.718747929247048, 748.52
5.718611430250889, 748.54
5.718474938548681, 748.56
5.718338454139838, 748.58
5.718201977023778, 748.60
5.718065507199915, 748.62
5.717929044667664, 748.64
5.717792589426442, 748.66
5.717656141475664, 748.68
5.717519700814745, 748.70
5.717383267443103, 748.72
5.717246841360152, 748.74
5.717110422565308, 748.76
5.716974011057988, 748.78
5.716837606837608, 748.80
5.716701209903582, 748.82
5.716564820255329, 748.84
5.716428437892263, 748.86
5.716292062813802, 748.88
5.716155695019363, 748.90
5.716019334508359, 748.92
5.715882981280210, 748.94
5.715746635334330, 748.96
5.715610296670138, 748.98
5.715473965287050, 749.00
5.715337641184481, 749.02
5.715201324361851, 749.04
5.715065014818573, 749.06
5.714928712554066, 749.08
5.714792417567748, 749.10
5.714656129859035, 749.12
5.714519849427344, 749.14
5.714383576272092, 749.16
5.714247310392696, 749.18
5.714111051788574, 749.20
5.713974800459145, 749.22
5.713838556403823, 749.24
5.713702319622027, 749.26
5.713566090113176, 749.28
5.713429867876686, 749.30
5.713293652911974, 749.32
5.713157445218459, 749.34
5.713021244795559, 749.36
5.712885051642692, 749.38
5.712748865759274, 749.40
5.712612687144726, 749.42
5.712476515798463, 749.44
5.712340351719905, 749.46
5.712204194908470, 749.48
5.712068045363576, 749.50
5.711931903084642, 749.52
5.711795768071084, 749.54
5.711659640322323, 749.56
5.711523519837776, 749.58
5.711387406616862, 749.60
5.711251300659001, 749.62
5.711115201963610, 749.64
5.710979110530108, 749.66
5.710843026357913, 749.68
5.710706949446445, 749.70
5.710570879795124, 749.72
5.710434817403367, 749.74
5.710298762270594, 749.76
5.710162714396223, 749.78
5.710026673779675, 749.80
5.709890640420368, 749.82
5.709754614317721, 749.84
5.709618595471155, 749.86
5.709482583880088, 749.88
5.709346579543940, 749.90
5.709210582462130, 749.92
5.709074592634077, 749.94
5.708938610059203, 749.96
5.708802634736927, 749.98
5.708666666666667, 750.00
5.708530705847845, 750.02
5.708394752279879, 750.04
5.708258805962190, 750.06
5.708122866894198, 750.08
5.707986935075324, 750.10
5.707851010504986, 750.12
5.707715093182606, 750.14
5.707579183107605, 750.16
5.707443280279399, 750.18
5.707307384697414, 750.20
5.707171496361068, 750.22
5.707035615269780, 750.24
5.706899741422974, 750.26
5.706763874820068, 750.28
5.706628015460483, 750.30
5.706492163343641, 750.32
5.706356318468961, 750.34
5.706220480835865, 750.36
5.706084650443776, 750.38
5.705948827292112, 750.40
5.705813011380294, 750.42
5.705677202707744, 750.44
5.705541401273885, 750.46
5.705405607078137, 750.48
5.705269820119921, 750.50
5.705134040398657, 750.52
5.704998267913769, 750.54
5.704862502664677, 750.56
5.704726744650803, 750.58
5.704590993871570, 750.60
5.704455250326397, 750.62
5.704319514014708, 750.64
5.704183784935924, 750.66
5.704048063089465, 750.68
5.703912348474756, 750.70
5.703776641091220, 750.72
5.703640940938275, 750.74
5.703505248015345, 750.76
5.703369562321853, 750.78
5.703233883857219, 750.80
5.703098212620868, 750.82
5.702962548612221, 750.84
5.702826891830701, 750.86
5.702691242275730, 750.88
5.702555599946731, 750.90
5.702419964843126, 750.92
5.702284336964338, 750.94
5.702148716309790, 750.96
5.702013102878905, 750.98
5.701877496671106, 751.00
5.701741897685815, 751.02
5.701606305922454, 751.04
5.701470721380450, 751.06
5.701335144059222, 751.08
5.701199573958195, 751.10
5.701064011076793, 751.12
5.700928455414437, 751.14
5.700792906970553, 751.16
5.700657365744561, 751.18
5.700521831735889, 751.20
5.700386304943958, 751.22
5.700250785368191, 751.24
5.700115273008014, 751.26
5.699979767862848, 751.28
5.699844269932118, 751.30
5.699708779215249, 751.32
5.699573295711662, 751.34
5.699437819420784, 751.36
5.699302350342037, 751.38
5.699166888474847, 751.40
5.699031433818638, 751.42
5.698895986372831, 751.44
5.698760546136854, 751.46
5.698625113110130, 751.48
5.698489687292083, 751.50
5.698354268682138, 751.52
5.698218857279720, 751.54
5.698083453084252, 751.56
5.697948056095160, 751.58
5.697812666311868, 751.60
5.697677283733802, 751.62
5.697541908360385, 751.64
5.697406540191045, 751.66
5.697271179225202, 751.68
5.697135825462285, 751.70
5.697000478901719, 751.72
5.696865139542927, 751.74
5.696729807385336, 751.76
5.696594482428370, 751.78
5.696459164671456, 751.80
5.696323854114017, 751.82
5.696188550755480, 751.84
5.696053254595270, 751.86
5.695917965632814, 751.88
5.695782683867536, 751.90
5.695647409298862, 751.92
5.695512141926217, 751.94
5.695376881749029, 751.96
5.695241628766722, 751.98
5.695106382978723, 752.00
5.694971144384458, 752.02
5.694835912983352, 752.04
5.694700688774833, 752.06
5.694565471758324, 752.08
5.694430261933253, 752.10
5.694295059299049, 752.12
5.694159863855134, 752.14
5.694024675600937, 752.16
5.693889494535882, 752.18
5.693754320659399, 752.20
5.693619153970913, 752.22
5.693483994469850, 752.24
5.693348842155638, 752.26
5.693213697027703, 752.28
5.693078559085472, 752.30
5.692943428328372, 752.32
5.692808304755829, 752.34
5.692673188367271, 752.36
5.692538079162126, 752.38
5.692402977139820, 752.40
5.692267882299780, 752.42
5.692132794641434, 752.44
5.691997714164208, 752.46
5.691862640867532, 752.48
5.691727574750831, 752.50
5.691592515813533, 752.52
5.691457464055067, 752.54
5.691322419474860, 752.56
5.691187382072338, 752.58
5.691052351846931, 752.60
5.690917328798066, 752.62
5.690782312925171, 752.64
5.690647304227673, 752.66
5.690512302705001, 752.68
5.690377308356583, 752.70
5.690242321181847, 752.72
5.690107341180222, 752.74
5.689972368351135, 752.76
5.689837402694015, 752.78
5.689702444208289, 752.80
5.689567492893389, 752.82
5.689432548748738, 752.84
5.689297611773769, 752.86
5.689162681967910, 752.88
5.689027759330589, 752.90
5.688892843861234, 752.92
5.688757935559274, 752.94
5.688623034424140, 752.96
5.688488140455258, 752.98
5.688353253652059, 753.00
5.688218374013971, 753.02
5.688083501540423, 753.04
5.687948636230845, 753.06
5.687813778084665, 753.08
5.687678927101315, 753.10
5.687544083280221, 753.12
5.687409246620815, 753.14
5.687274417122524, 753.16
5.687139594784779, 753.18
5.687004779607010, 753.20
5.686869971588647, 753.22
5.686735170729117, 753.24
5.686600377027853, 753.26
5.686465590484283, 753.28
5.686330811097837, 753.30
5.686196038867945, 753.32
5.686061273794038, 753.34
5.685926515875544, 753.36
5.685791765111896, 753.38
5.685657021502522, 753.40
5.685522285046853, 753.42
5.685387555744319, 753.44
5.685252833594351, 753.46
5.685118118596380, 753.48
5.684983410749834, 753.50
5.684848710054147, 753.52
5.684714016508746, 753.54
5.684579330113064, 753.56
5.684444650866531, 753.58
5.684309978768578, 753.60
5.684175313818636, 753.62
5.684040656016135, 753.64
5.683906005360508, 753.66
5.683771361851184, 753.68
5.683636725487594, 753.70
5.683502096269172, 753.72
5.683367474195346, 753.74
5.683232859265549, 753.76
5.683098251479212, 753.78
5.682963650835766, 753.80
5.682829057334643, 753.82
5.682694470975274, 753.84
5.682559891757091, 753.86
5.682425319679525, 753.88
5.682290754742009, 753.90
5.682156196943973, 753.92
5.682021646284850, 753.94
5.681887102764072, 753.96
5.681752566381071, 753.98
5.681618037135279, 754.00
5.681483515026127, 754.02
5.681349000053048, 754.04
5.681214492215474, 754.06
5.681079991512837, 754.08
5.680945497944569, 754.10
5.680811011510105, 754.12
5.680676532208874, 754.14
5.680542060040310, 754.16
5.680407595003845, 754.18
5.680273137098912, 754.20
5.680138686324945, 754.22
5.680004242681375, 754.24
5.679869806167635, 754.26
5.679735376783158, 754.28
5.679600954527377, 754.30
5.679466539399725, 754.32
5.679332131399634, 754.34
5.679197730526539, 754.36
5.679063336779873, 754.38
5.678928950159067, 754.40
5.678794570663556, 754.42
5.678660198292773, 754.44
5.678525833046153, 754.46
5.678391474923126, 754.48
5.678257123923128, 754.50
5.678122780045593, 754.52
5.677988443289952, 754.54
5.677854113655641, 754.56
5.677719791142092, 754.58
5.677585475748741, 754.60
5.677451167475021, 754.62
5.677316866320365, 754.64
5.677182572284208, 754.66
5.677048285365982, 754.68
5.676914005565125, 754.70
5.676779732881069, 754.72
5.676645467313247, 754.74
5.676511208861095, 754.76
5.676376957524047, 754.78
5.676242713301537, 754.80
5.676108476193001, 754.82
5.675974246197870, 754.84
5.675840023315582, 754.86
5.675705807545571, 754.88
5.675571598887270, 754.90
5.675437397340116, 754.92
5.675303202903542, 754.94
5.675169015576984, 754.96
5.675034835359877, 754.98
5.674900662251656, 755.00
5.674766496251755, 755.02
5.674632337359610, 755.04
5.674498185574657, 755.06
5.674364040896329, 755.08
5.674229903324063, 755.10
5.674095772857294, 755.12
5.673961649495459, 755.14
5.673827533237990, 755.16
5.673693424084324, 755.18
5.673559322033898, 755.20
5.673425227086147, 755.22
5.673291139240507, 755.24
5.673157058496412, 755.26
5.673022984853300, 755.28
5.672888918310606, 755.30
5.672754858867766, 755.32
5.672620806524215, 755.34
5.672486761279390, 755.36
5.672352723132728, 755.38
5.672218692083665, 755.40
5.672084668131636, 755.42
5.671950651276077, 755.44
5.671816641516427, 755.46
5.671682638852121, 755.48
5.671548643282595, 755.50
5.671414654807285, 755.52
5.671280673425630, 755.54
5.671146699137065, 755.56
5.671012731941025, 755.58
5.670878771836951, 755.60
5.670744818824277, 755.62
5.670610872902441, 755.64
5.670476934070879, 755.66
5.670343002329028, 755.68
5.670209077676327, 755.70
5.670075160112211, 755.72
5.669941249636119, 755.74
5.669807346247486, 755.76
5.669673449945752, 755.78
5.669539560730352, 755.80
5.669405678600726, 755.82
5.669271803556308, 755.84
5.669137935596539, 755.86
5.669004074720855, 755.88
5.668870220928695, 755.90
5.668736374219495, 755.92
5.668602534592693, 755.94
5.668468702047727, 755.96
5.668334876584037, 755.98
5.668201058201059, 756.00
5.668067246898230, 756.02
5.667933442674991, 756.04
5.667799645530779, 756.06
5.667665855465031, 756.08
5.667532072477186, 756.10
5.667398296566683, 756.12
5.667264527732960, 756.14
5.667130765975455, 756.16
5.666997011293607, 756.18
5.666863263686856, 756.20
5.666729523154638, 756.22
5.666595789696393, 756.24
5.666462063311560, 756.26
5.666328343999577, 756.28
5.666194631759884, 756.30
5.666060926591920, 756.32
5.665927228495122, 756.34
5.665793537468931, 756.36
5.665659853512785, 756.38
5.665526176626124, 756.40
5.665392506808387, 756.42
5.665258844059013, 756.44
5.665125188377442, 756.46
5.664991539763114, 756.48
5.664857898215466, 756.50
5.664724263733940, 756.52
5.664590636317975, 756.54
5.664457015967010, 756.56
5.664323402680484, 756.58
5.664189796457838, 756.60
5.664056197298512, 756.62
5.663922605201946, 756.64
5.663789020167578, 756.66
5.663655442194851, 756.68
5.663521871283203, 756.70
5.663388307432076, 756.72
5.663254750640907, 756.74
5.663121200909139, 756.76
5.662987658236212, 756.78
5.662854122621565, 756.80
5.662720594064639, 756.82
5.662587072564876, 756.84
5.662453558121713, 756.86
5.662320050734595, 756.88
5.662186550402960, 756.90
5.662053057126248, 756.92
5.661919570903902, 756.94
5.661786091735363, 756.96
5.661652619620069, 756.98
5.661519154557464, 757.00
5.661385696546987, 757.02
5.661252245588081, 757.04
5.661118801680185, 757.06
5.660985364822741, 757.08
5.660851935015190, 757.10
5.660718512256974, 757.12
5.660585096547535, 757.14
5.660451687886312, 757.16
5.660318286272749, 757.18
5.660184891706287, 757.20
5.660051504186366, 757.22
5.659918123712430, 757.24
5.659784750283919, 757.26
5.659651383900275, 757.28
5.659518024560941, 757.30
5.659384672265357, 757.32
5.659251327012967, 757.34
5.659117988803211, 757.36
5.658984657635533, 757.38
5.658851333509375, 757.40
5.658718016424177, 757.42
5.658584706379383, 757.44
5.658451403374436, 757.46
5.658318107408776, 757.48
5.658184818481849, 757.50
5.658051536593094, 757.52
5.657918261741955, 757.54
5.657784993927875, 757.56
5.657651733150296, 757.58
5.657518479408659, 757.60
5.657385232702411, 757.62
5.657251993030991, 757.64
5.657118760393844, 757.66
5.656985534790413, 757.68
5.656852316220140, 757.70
5.656719104682469, 757.72
5.656585900176842, 757.74
5.656452702702703, 757.76
5.656319512259495, 757.78
5.656186328846662, 757.80
5.656053152463646, 757.82
5.655919983109892, 757.84
5.655786820784842, 757.86
5.655653665487940, 757.88
5.655520517218631, 757.90
5.655387375976356, 757.92
5.655254241760561, 757.94
5.655121114570690, 757.96
5.654987994406185, 757.98
5.654854881266491, 758.00
5.654721775151052, 758.02
5.654588676059311, 758.04
5.654455583990714, 758.06
5.654322498944703, 758.08
5.654189420920723, 758.10
5.654056349918219, 758.12
5.653923285936635, 758.14
5.653790228975414, 758.16
5.653657179034003, 758.18
5.653524136111844, 758.20
5.653391100208383, 758.22
5.653258071323064, 758.24
5.653125049455332, 758.26
5.652992034604632, 758.28
5.652859026770408, 758.30
5.652726025952106, 758.32
5.652593032149169, 758.34
5.652460045361043, 758.36
5.652327065587173, 758.38
5.652194092827004, 758.40
5.652061127079982, 758.42
5.651928168345552, 758.44
5.651795216623158, 758.46
5.651662271912246, 758.48
5.651529334212261, 758.50
5.651396403522650, 758.52
5.651263479842856, 758.54
5.651130563172327, 758.56
5.650997653510507, 758.58
5.650864750856842, 758.60
5.650731855210778, 758.62
5.650598966571760, 758.64
5.650466084939235, 758.66
5.650333210312648, 758.68
5.650200342691446, 758.70
5.650067482075074, 758.72
5.649934628462979, 758.74
5.649801781854605, 758.76
5.649668942249400, 758.78
5.649536109646811, 758.80
5.649403284046283, 758.82
5.649270465447263, 758.84
5.649137653849195, 758.86
5.649004849251529, 758.88
5.648872051653710, 758.90
5.648739261055184, 758.92
5.648606477455398, 758.94
5.648473700853800, 758.96
5.648340931249836, 758.98
5.648208168642951, 759.00
5.648075413032595, 759.02
5.647942664418213, 759.04
5.647809922799253, 759.06
5.647677188175161, 759.08
5.647544460545383, 759.10
5.647411739909369, 759.12
5.647279026266565, 759.14
5.647146319616418, 759.16
5.647013619958376, 759.18
5.646880927291886, 759.20
5.646748241616396, 759.22
5.646615562931353, 759.24
5.646482891236204, 759.26
5.646350226530398, 759.28
5.646217568813381, 759.30
5.646084918084603, 759.32
5.645952274343510, 759.34
5.645819637589550, 759.36
5.645687007822171, 759.38
5.645554385040822, 759.40
5.645421769244950, 759.42
5.645289160434004, 759.44
5.645156558607431, 759.46
5.645023963764682, 759.48
5.644891375905202, 759.50
5.644758795028439, 759.52
5.644626221133845, 759.54
5.644493654220866, 759.56
5.644361094288950, 759.58
5.644228541337546, 759.60
5.644095995366104, 759.62
5.643963456374072, 759.64
5.643830924360898, 759.66
5.643698399326032, 759.68
5.643565881268922, 759.70
5.643433370189017, 759.72
5.643300866085767, 759.74
5.643168368958619, 759.76
5.643035878807024, 759.78
5.642903395630429, 759.80
5.642770919428286, 759.82
5.642638450200043, 759.84
5.642505987945148, 759.86
5.642373532663052, 759.88
5.642241084353205, 759.90
5.642108643015054, 759.92
5.641976208648051, 759.94
5.641843781251645, 759.96
5.641711360825285, 759.98
5.641578947368421, 760.00
5.641446540880503, 760.02
5.641314141360982, 760.04
5.641181748809305, 760.06
5.641049363224925, 760.08
5.640916984607289, 760.10
5.640784612955850, 760.12
5.640652248270056, 760.14
5.640519890549358, 760.16
5.640387539793207, 760.18
5.640255196001053, 760.20
5.640122859172345, 760.22
5.639990529306535, 760.24
5.639858206403073, 760.26
5.639725890461410, 760.28
5.639593581480995, 760.30
5.639461279461281, 760.32
5.639328984401716, 760.34
5.639196696301752, 760.36
5.639064415160841, 760.38
5.638932140978433, 760.40
5.638799873753978, 760.42
5.638667613486929, 760.44
5.638535360176736, 760.46
5.638403113822849, 760.48
5.638270874424721, 760.50
5.638138641981802, 760.52
5.638006416493544, 760.54
5.637874197959399, 760.56
5.637741986378817, 760.58
5.637609781751249, 760.60
5.637477584076149, 760.62
5.637345393352966, 760.64
5.637213209581153, 760.66
5.637081032760162, 760.68
5.636948862889444, 760.70
5.636816699968451, 760.72
5.636684543996635, 760.74
5.636552394973448, 760.76
5.636420252898342, 760.78
5.636288117770769, 760.80
5.636155989590180, 760.82
5.636023868356029, 760.84
5.635891754067766, 760.86
5.635759646724845, 760.88
5.635627546326718, 760.90
5.635495452872838, 760.92
5.635363366362657, 760.94
5.635231286795626, 760.96
5.635099214171200, 760.98
5.634967148488831, 761.00
5.634835089747971, 761.02
5.634703037948071, 761.04
5.634570993088587, 761.06
5.634438955168971, 761.08
5.634306924188675, 761.10
5.634174900147152, 761.12
5.634042883043856, 761.14
5.633910872878238, 761.16
5.633778869649754, 761.18
5.633646873357856, 761.20
5.633514884001997, 761.22
5.633382901581630, 761.24
5.633250926096209, 761.26
5.633118957545188, 761.28
5.632986995928018, 761.30
5.632855041244156, 761.32
5.632723093493053, 761.34
5.632591152674162, 761.36
5.632459218786940, 761.38
5.632327291830839, 761.40
5.632195371805311, 761.42
5.632063458709813, 761.44
5.631931552543797, 761.46
5.631799653306719, 761.48
5.631667760998030, 761.50
5.631535875617187, 761.52
5.631403997163643, 761.54
5.631272125636851, 761.56
5.631140261036268, 761.58
5.631008403361345, 761.60
5.630876552611539, 761.62
5.630744708786303, 761.64
5.630612871885093, 761.66
5.630481041907363, 761.68
5.630349218852567, 761.70
5.630217402720159, 761.72
5.630085593509596, 761.74
5.629953791220332, 761.76
5.629821995851821, 761.78
5.629690207403518, 761.80
5.629558425874880, 761.82
5.629426651265359, 761.84
5.629294883574410, 761.86
5.629163122801492, 761.88
5.629031368946056, 761.90
5.628899622007560, 761.92
5.628767881985458, 761.94
5.628636148879206, 761.96
5.628504422688260, 761.98
5.628372703412074, 762.00
5.628240991050104, 762.02
5.628109285601806, 762.04
5.627977587066636, 762.06
5.627845895444048, 762.08
5.627714210733500, 762.10
5.627582532934446, 762.12
5.627450862046343, 762.14
5.627319198068647, 762.16
5.627187541000813, 762.18
5.627055890842299, 762.20
5.626924247592559, 762.22
5.626792611251050, 762.24
5.626660981817228, 762.26
5.626529359290550, 762.28
5.626397743670472, 762.30
5.626266134956450, 762.32
5.626134533147940, 762.34
5.626002938244399, 762.36
5.625871350245285, 762.38
5.625739769150053, 762.40
5.625608194958160, 762.42
5.625476627669062, 762.44
5.625345067282218, 762.46
5.625213513797084, 762.48
5.625081967213115, 762.50
5.624950427529770, 762.52
5.624818894746506, 762.54
5.624687368862778, 762.56
5.624555849878046, 762.58
5.624424337791766, 762.60
5.624292832603394, 762.62
5.624161334312389, 762.64
5.624029842918207, 762.66
5.623898358420307, 762.68
5.623766880818146, 762.70
5.623635410111182, 762.72
5.623503946298870, 762.74
5.623372489380671, 762.76
5.623241039356040, 762.78
5.623109596224437, 762.80
5.622978159985318, 762.82
5.622846730638143, 762.84
5.622715308182366, 762.86
5.622583892617450, 762.88
5.622452483942850, 762.90
5.622321082158024, 762.92
5.622189687262432, 762.94
5.622058299255531, 762.96
5.621926918136779, 762.98
5.621795543905636, 763.00
5.621664176561558, 763.02
5.621532816104006, 763.04
5.621401462532436, 763.06
5.621270115846308, 763.08
5.621138776045079, 763.10
5.621007443128211, 763.12
5.620876117095160, 763.14
5.620744797945385, 763.16
5.620613485678346, 763.18
5.620482180293501, 763.20
5.620350881790309, 763.22
5.620219590168230, 763.24
5.620088305426723, 763.26
5.619957027565246, 763.28
5.619825756583258, 763.30
5.619694492480218, 763.32
5.619563235255588, 763.34
5.619431984908824, 763.36
5.619300741439388, 763.38
5.619169504846739, 763.40
5.619038275130334, 763.42
5.618907052289637, 763.44
5.618775836324104, 763.46
5.618644627233196, 763.48
5.618513425016372, 763.50
5.618382229673093, 763.52
5.618251041202819, 763.54
5.618119859605009, 763.56
5.617988684879123, 763.58
5.617857517024620, 763.60
5.617726356040963, 763.62
5.617595201927610, 763.64
5.617464054684022, 763.66
5.617332914309658, 763.68
5.617201780803980, 763.70
5.617070654166449, 763.72
5.616939534396523, 763.74
5.616808421493663, 763.76
5.616677315457332, 763.78
5.616546216286987, 763.80
5.616415123982091, 763.82
5.616284038542104, 763.84
5.616152959966486, 763.86
5.616021888254700, 763.88
5.615890823406206, 763.90
5.615759765420463, 763.92
5.615628714296935, 763.94
5.615497670035080, 763.96
5.615366632634363, 763.98
5.615235602094241, 764.00
5.615104578414178, 764.02
5.614973561593635, 764.04
5.614842551632071, 764.06
5.614711548528951, 764.08
5.614580552283733, 764.10
5.614449562895881, 764.12
5.614318580364855, 764.14
5.614187604690117, 764.16
5.614056635871130, 764.18
5.613925673907354, 764.20
5.613794718798252, 764.22
5.613663770543285, 764.24
5.613532829141915, 764.26
5.613401894593605, 764.28
5.613270966897816, 764.30
5.613140046054010, 764.32
5.613009132061649, 764.34
5.612878224920195, 764.36
5.612747324629112, 764.38
5.612616431187861, 764.40
5.612485544595903, 764.42
5.612354664852703, 764.44
5.612223791957722, 764.46
5.612092925910423, 764.48
5.611962066710269, 764.50
5.611831214356721, 764.52
5.611700368849244, 764.54
5.611569530187298, 764.56
5.611438698370348, 764.58
5.611307873397855, 764.60
5.611177055269285, 764.62
5.611046243984098, 764.64
5.610915439541757, 764.66
5.610784641941727, 764.68
5.610653851183470, 764.70
5.610523067266451, 764.72
5.610392290190131, 764.74
5.610261519953973, 764.76
5.610130756557441, 764.78
5.610000000000000, 764.80
5.609869250281113, 764.82
5.609738507400241, 764.84
5.609607771356850, 764.86
5.609477042150403, 764.88
5.609346319780364, 764.90
5.609215604246195, 764.92
5.609084895547364, 764.94
5.608954193683330, 764.96
5.608823498653559, 764.98
5.608692810457517, 765.00
5.608562129094665, 765.02
5.608431454564467, 765.04
5.608300786866391, 765.06
5.608170125999896, 765.08
5.608039471964450, 765.10
5.607908824759515, 765.12
5.607778184384557, 765.14
5.607647550839040, 765.16
5.607516924122429, 765.18
5.607386304234187, 765.20
5.607255691173780, 765.22
5.607125084940672, 765.24
5.606994485534329, 765.26
5.606863892954213, 765.28
5.606733307199791, 765.30
5.606602728270528, 765.32
5.606472156165888, 765.34
5.606341590885335, 765.36
5.606211032428337, 765.38
5.606080480794357, 765.40
5.605949935982859, 765.42
5.605819397993311, 765.44
5.605688866825177, 765.46
5.605558342477923, 765.48
5.605427824951013, 765.50
5.605297314243913, 765.52
5.605166810356089, 765.54
5.605036313287006, 765.56
5.604905823036130, 765.58
5.604775339602926, 765.60
5.604644862986861, 765.62
5.604514393187399, 765.64
5.604383930204007, 765.66
5.604253474036151, 765.68
5.604123024683297, 765.70
5.603992582144910, 765.72
5.603862146420457, 765.74
5.603731717509403, 765.76
5.603601295411215, 765.78
5.603470880125360, 765.80
5.603340471651302, 765.82
5.603210069988510, 765.84
5.603079675136448, 765.86
5.602949287094584, 765.88
5.602818905862384, 765.90
5.602688531439314, 765.92
5.602558163824843, 765.94
5.602427803018434, 765.96
5.602297449019557, 765.98
5.602167101827677, 766.00
5.602036761442260, 766.02
5.601906427862775, 766.04
5.601776101088689, 766.06
5.601645781119466, 766.08
5.601515467954576, 766.10
5.601385161593484, 766.12
5.601254862035660, 766.14
5.601124569280568, 766.16
5.600994283327678, 766.18
5.600864004176455, 766.20
5.600733731826368, 766.22
5.600603466276885, 766.24
5.600473207527472, 766.26
5.600342955577596, 766.28
5.600212710426726, 766.30
5.600082472074330, 766.32
5.599952240519874, 766.34
5.599822015762827, 766.36
5.599691797802657, 766.38
5.599561586638831, 766.40
5.599431382270818, 766.42
5.599301184698085, 766.44
5.599170993920100, 766.46
5.599040809936333, 766.48
5.598910632746249, 766.50
5.598780462349319, 766.52
5.598650298745010, 766.54
5.598520141932791, 766.56
5.598389991912130, 766.58
5.598259848682495, 766.60
5.598129712243354, 766.62
5.597999582594178, 766.64
5.597869459734432, 766.66
5.597739343663588, 766.68
5.597609234381114, 766.70
5.597479131886478, 766.72
5.597349036179148, 766.74
5.597218947258595, 766.76
5.597088865124286, 766.78
5.596958789775692, 766.80
5.596828721212280, 766.82
5.596698659433520, 766.84
5.596568604438881, 766.86
5.596438556227833, 766.88
5.596308514799844, 766.90
5.596178480154384, 766.92
5.596048452290923, 766.94
5.595918431208929, 766.96
5.595788416907872, 766.98
5.595658409387223, 767.00
5.595528408646451, 767.02
5.595398414685024, 767.04
5.595268427502412, 767.06
5.595138447098087, 767.08
5.595008473471516, 767.10
5.594878506622171, 767.12
5.594748546549522, 767.14
5.594618593253037, 767.16
5.594488646732188, 767.18
5.594358706986444, 767.20
5.594228774015276, 767.22
5.594098847818153, 767.24
5.593968928394547, 767.26
5.593839015743927, 767.28
5.593709109865764, 767.30
5.593579210759527, 767.32
5.593449318424689, 767.34
5.593319432860717, 767.36
5.593189554067086, 767.38
5.593059682043264, 767.40
5.592929816788721, 767.42
5.592799958302929, 767.44
5.592670106585359, 767.46
5.592540261635483, 767.48
5.592410423452769, 767.50
5.592280592036690, 767.52
5.592150767386716, 767.54
5.592020949502320, 767.56
5.591891138382970, 767.58
5.591761334028140, 767.60
5.591631536437300, 767.62
5.591501745609921, 767.64
5.591371961545476, 767.66
5.591242184243435, 767.68
5.591112413703270, 767.70
5.590982649924451, 767.72
5.590852892906453, 767.74
5.590723142648745, 767.76
5.590593399150799, 767.78
5.590463662412087, 767.80
5.590333932432081, 767.82
5.590204209210253, 767.84
5.590074492746074, 767.86
5.589944783039017, 767.88
5.589815080088553, 767.90
5.589685383894156, 767.92
5.589555694455296, 767.94
5.589426011771446, 767.96
5.589296335842080, 767.98
5.589166666666667, 768.00
5.589037004244681, 768.02
5.588907348575596, 768.04
5.588777699658881, 768.06
5.588648057494011, 768.08
5.588518422080458, 768.10
5.588388793417695, 768.12
5.588259171505195, 768.14
5.588129556342428, 768.16
5.587999947928870, 768.18
5.587870346263994, 768.20
5.587740751347271, 768.22
5.587611163178174, 768.24
5.587481581756177, 768.26
5.587352007080752, 768.28
5.587222439151374, 768.30
5.587092877967514, 768.32
5.586963323528647, 768.34
5.586833775834244, 768.36
5.586704234883782, 768.38
5.586574700676731, 768.40
5.586445173212566, 768.42
5.586315652490761, 768.44
5.586186138510788, 768.46
5.586056631272122, 768.48
5.585927130774236, 768.50
5.585797637016603, 768.52
5.585668149998700, 768.54
5.585538669719996, 768.56
5.585409196179969, 768.58
5.585279729378090, 768.60
5.585150269313836, 768.62
5.585020815986678, 768.64
5.584891369396091, 768.66
5.584761929541552, 768.68
5.584632496422532, 768.70
5.584503070038505, 768.72
5.584373650388948, 768.74
5.584244237473334, 768.76
5.584114831291137, 768.78
5.583985431841832, 768.80
5.583856039124893, 768.82
5.583726653139796, 768.84
5.583597273886014, 768.86
5.583467901363022, 768.88
5.583338535570296, 768.90
5.583209176507308, 768.92
5.583079824173538, 768.94
5.582950478568456, 768.96
5.582821139691539, 768.98
5.582691807542263, 769.00
5.582562482120101, 769.02
5.582433163424530, 769.04
5.582303851455023, 769.06
5.582174546211058, 769.08
5.582045247692108, 769.10
5.581915955897649, 769.12
5.581786670827158, 769.14
5.581657392480108, 769.16
5.581528120855976, 769.18
5.581398855954238, 769.20
5.581269597774369, 769.22
5.581140346315845, 769.24
5.581011101578141, 769.26
5.580881863560733, 769.28
5.580752632263097, 769.30
5.580623407684709, 769.32
5.580494189825045, 769.34
5.580364978683582, 769.36
5.580235774259794, 769.38
5.580106576553159, 769.40
5.579977385563152, 769.42
5.579848201289249, 769.44
5.579719023730928, 769.46
5.579589852887665, 769.48
5.579460688758934, 769.50
5.579331531344215, 769.52
5.579202380642982, 769.54
5.579073236654713, 769.56
5.578944099378883, 769.58
5.578814968814969, 769.60
5.578685844962449, 769.62
5.578556727820800, 769.64
5.578427617389496, 769.66
5.578298513668018, 769.68
5.578169416655840, 769.70
5.578040326352440, 769.72
5.577911242757295, 769.74
5.577782165869882, 769.76
5.577653095689678, 769.78
5.577524032216161, 769.80
5.577394975448807, 769.82
5.577265925387095, 769.84
5.577136882030500, 769.86
5.577007845378501, 769.88
5.576878815430576, 769.90
5.576749792186201, 769.92
5.576620775644855, 769.94
5.576491765806016, 769.96
5.576362762669160, 769.98
5.576233766233766, 770.00
5.576104776499312, 770.02
5.575975793465275, 770.04
5.575846817131134, 770.06
5.575717847496365, 770.08
5.575588884560447, 770.10
5.575459928322859, 770.12
5.575330978783079, 770.14
5.575202035940584, 770.16
5.575073099794853, 770.18
5.574944170345365, 770.20
5.574815247591597, 770.22
5.574686331533029, 770.24
5.574557422169138, 770.26
5.574428519499404, 770.28
5.574299623523303, 770.30
5.574170734240316, 770.32
5.574041851649921, 770.34
5.573912975751597, 770.36
5.573784106544823, 770.38
5.573655244029077, 770.40
5.573526388203836, 770.42
5.573397539068584, 770.44
5.573268696622796, 770.46
5.573139860865954, 770.48
5.573011031797535, 770.50
5.572882209417018, 770.52
5.572753393723882, 770.54
5.572624584717609, 770.56
5.572495782397676, 770.58
5.572366986763561, 770.60
5.572238197814747, 770.62
5.572109415550711, 770.64
5.571980639970934, 770.66
5.571851871074895, 770.68
5.571723108862074, 770.70
5.571594353331950, 770.72
5.571465604484002, 770.74
5.571336862317713, 770.76
5.571208126832560, 770.78
5.571079398028023, 770.80
5.570950675903584, 770.82
5.570821960458721, 770.84
5.570693251692915, 770.86
5.570564549605646, 770.88
5.570435854196394, 770.90
5.570307165464640, 770.92
5.570178483409864, 770.94
5.570049808031545, 770.96
5.569921139329166, 770.98
5.569792477302205, 771.00
5.569663821950145, 771.02
5.569535173272464, 771.04
5.569406531268644, 771.06
5.569277895938165, 771.08
5.569149267280508, 771.10
5.569020645295155, 771.12
5.568892029981586, 771.14
5.568763421339280, 771.16
5.568634819367722, 771.18
5.568506224066391, 771.20
5.568377635434766, 771.22
5.568249053472330, 771.24
5.568120478178566, 771.26
5.567991909552951, 771.28
5.567863347594970, 771.30
5.567734792304103, 771.32
5.567606243679831, 771.34
5.567477701721635, 771.36
5.567349166428998, 771.38
5.567220637801401, 771.40
5.567092115838324, 771.42
5.566963600539252, 771.44
5.566835091903664, 771.46
5.566706589931042, 771.48
5.566578094620869, 771.50
5.566449605972626, 771.52
5.566321123985795, 771.54
5.566192648659858, 771.56
5.566064179994298, 771.58
5.565935717988595, 771.60
5.565807262642234, 771.62
5.565678813954694, 771.64
5.565550371925459, 771.66
5.565421936554012, 771.68
5.565293507839834, 771.70
5.565165085782408, 771.72
5.565036670381216, 771.74
5.564908261635742, 771.76
5.564779859545467, 771.78
5.564651464109874, 771.80
5.564523075328445, 771.82
5.564394693200664, 771.84
5.564266317726013, 771.86
5.564137948903975, 771.88
5.564009586734033, 771.90
5.563881231215670, 771.92
5.563752882348369, 771.94
5.563624540131613, 771.96
5.563496204564886, 771.98
5.563367875647669, 772.00
5.563239553379447, 772.02
5.563111237759702, 772.04
5.562982928787918, 772.06
5.562854626463579, 772.08
5.562726330786168, 772.10
5.562598041755168, 772.12
5.562469759370063, 772.14
5.562341483630336, 772.16
5.562213214535471, 772.18
5.562084952084952, 772.20
5.561956696278263, 772.22
5.561828447114887, 772.24
5.561700204594308, 772.26
5.561571968716010, 772.28
5.561443739479477, 772.30
5.561315516884194, 772.32
5.561187300929643, 772.34
5.561059091615309, 772.36
5.560930888940677, 772.38
5.560802692905231, 772.40
5.560674503508454, 772.42
5.560546320749832, 772.44
5.560418144628848, 772.46
5.560289975144988, 772.48
5.560161812297735, 772.50
5.560033656086574, 772.52
5.559905506510990, 772.54
5.559777363570467, 772.56
5.559649227264491, 772.58
5.559521097592545, 772.60
5.559392974554115, 772.62
5.559264858148685, 772.64
5.559136748375741, 772.66
5.559008645234767, 772.68
5.558880548725250, 772.70
5.558752458846672, 772.72
5.558624375598519, 772.74
5.558496298980279, 772.76
5.558368228991434, 772.78
5.558240165631471, 772.80
5.558112108899874, 772.82
5.557984058796129, 772.84
5.557856015319722, 772.86
5.557727978470138, 772.88
5.557599948246863, 772.90
5.557471924649382, 772.92
5.557343907677181, 772.94
5.557215897329746, 772.96
5.557087893606562, 772.98
5.556959896507116, 773.00
5.556831906030892, 773.02
5.556703922177378, 773.04
5.556575944946059, 773.06
5.556447974336422, 773.08
5.556320010347950, 773.10
5.556192052980133, 773.12
5.556064102232456, 773.14
5.555936158104402, 773.16
5.555808220595463, 773.18
5.555680289705122, 773.20
5.555552365432865, 773.22
5.555424447778180, 773.24
5.555296536740554, 773.26
5.555168632319471, 773.28
5.555040734514419, 773.30
5.554912843324885, 773.32
5.554784958750356, 773.34
5.554657080790318, 773.36
5.554529209444258, 773.38
5.554401344711663, 773.40
5.554273486592019, 773.42
5.554145635084816, 773.44
5.554017790189538, 773.46
5.553889951905673, 773.48
5.553762120232709, 773.50
5.553634295170132, 773.52
5.553506476717430, 773.54
5.553378664874089, 773.56
5.553250859639599, 773.58
5.553123061013443, 773.60
5.552995268995114, 773.62
5.552867483584096, 773.64
5.552739704779877, 773.66
5.552611932581946, 773.68
5.552484166989790, 773.70
5.552356408002895, 773.72
5.552228655620752, 773.74
5.552100909842846, 773.76
5.551973170668666, 773.78
5.551845438097700, 773.80
5.551717712129436, 773.82
5.551589992763363, 773.84
5.551462279998966, 773.86
5.551334573835737, 773.88
5.551206874273162, 773.90
5.551079181310730, 773.92
5.550951494947928, 773.94
5.550823815184248, 773.96
5.550696142019174, 773.98
5.550568475452197, 774.00
5.550440815482805, 774.02
5.550313162110486, 774.04
5.550185515334729, 774.06
5.550057875155024, 774.08
5.549930241570856, 774.10
5.549802614581719, 774.12
5.549674994187098, 774.14
5.549547380386484, 774.16
5.549419773179364, 774.18
5.549292172565228, 774.20
5.549164578543566, 774.22
5.549036991113867, 774.24
5.548909410275618, 774.26
5.548781836028311, 774.28
5.548654268371433, 774.30
5.548526707304474, 774.32
5.548399152826924, 774.34
5.548271604938272, 774.36
5.548144063638007, 774.38
5.548016528925620, 774.40
5.547889000800599, 774.42
5.547761479262435, 774.44
5.547633964310617, 774.46
5.547506455944634, 774.48
5.547378954163977, 774.50
5.547251458968136, 774.52
5.547123970356600, 774.54
5.546996488328858, 774.56
5.546869012884403, 774.58
5.546741544022722, 774.60
5.546614081743306, 774.62
5.546486626045647, 774.64
5.546359176929233, 774.66
5.546231734393556, 774.68
5.546104298438105, 774.70
5.545976869062371, 774.72
5.545849446265844, 774.74
5.545722030048015, 774.76
5.545594620408375, 774.78
5.545467217346412, 774.80
5.545339820861620, 774.82
5.545212430953488, 774.84
5.545085047621506, 774.86
5.544957670865166, 774.88
5.544830300683960, 774.90
5.544702937077376, 774.92
5.544575580044906, 774.94
5.544448229586044, 774.96
5.544320885700277, 774.98
5.544193548387097, 775.00
5.544066217645996, 775.02
5.543938893476466, 775.04
5.543811575877998, 775.06
5.543684264850080, 775.08
5.543556960392207, 775.10
5.543429662503871, 775.12
5.543302371184561, 775.14
5.543175086433768, 775.16
5.543047808250987, 775.18
5.542920536635707, 775.20
5.542793271587421, 775.22
5.542666013105619, 775.24
5.542538761189795, 775.26
5.542411515839439, 775.28
5.542284277054044, 775.30
5.542157044833102, 775.32
5.542029819176104, 775.34
5.541902600082542, 775.36
5.541775387551910, 775.38
5.541648181583700, 775.40
5.541520982177400, 775.42
5.541393789332508, 775.44
5.541266603048514, 775.46
5.541139423324909, 775.48
5.541012250161186, 775.50
5.540885083556840, 775.52
5.540757923511360, 775.54
5.540630770024241, 775.56
5.540503623094975, 775.58
5.540376482723054, 775.60
5.540249348907970, 775.62
5.540122221649219, 775.64
5.539995100946291, 775.66
5.539867986798680, 775.68
5.539740879205879, 775.70
5.539613778167380, 775.72
5.539486683682678, 775.74
5.539359595751264, 775.76
5.539232514372632, 775.78
5.539105439546275, 775.80
5.538978371271687, 775.82
5.538851309548361, 775.84
5.538724254375790, 775.86
5.538597205753468, 775.88
5.538470163680887, 775.90
5.538343128157542, 775.92
5.538216099182926, 775.94
5.538089076756534, 775.96
5.537962060877858, 775.98
5.537835051546392, 776.00
5.537708048761631, 776.02
5.537581052523066, 776.04
5.537454062830194, 776.06
5.537327079682508, 776.08
5.537200103079500, 776.10
5.537073133020667, 776.12
5.536946169505502, 776.14
5.536819212533498, 776.16
5.536692262104151, 776.18
5.536565318216955, 776.20
5.536438380871402, 776.22
5.536311450066989, 776.24
5.536184525803210, 776.26
5.536057608079560, 776.28
5.535930696895531, 776.30
5.535803792250619, 776.32
5.535676894144319, 776.34
5.535550002576125, 776.36
5.535423117545532, 776.38
5.535296239052036, 776.40
5.535169367095129, 776.42
5.535042501674308, 776.44
5.534915642789068, 776.46
5.534788790438904, 776.48
5.534661944623310, 776.50
5.534535105341782, 776.52
5.534408272593814, 776.54
5.534281446378903, 776.56
5.534154626696542, 776.58
5.534027813546228, 776.60
5.533901006927455, 776.62
5.533774206839721, 776.64
5.533647413282517, 776.66
5.533520626255343, 776.68
5.533393845757693, 776.70
5.533267071789062, 776.72
5.533140304348946, 776.74
5.533013543436841, 776.76
5.532886789052242, 776.78
5.532760041194646, 776.80
5.532633299863547, 776.82
5.532506565058442, 776.84
5.532379836778828, 776.86
5.532253115024200, 776.88
5.532126399794054, 776.90
5.531999691087885, 776.92
5.531872988905192, 776.94
5.531746293245470, 776.96
5.531619604108214, 776.98
5.531492921492922, 777.00
5.531366245399089, 777.02
5.531239575826213, 777.04
5.531112912773789, 777.06
5.530986256241315, 777.08
5.530859606228285, 777.10
5.530732962734199, 777.12
5.530606325758551, 777.14
5.530479695300839, 777.16
5.530353071360560, 777.18
5.530226453937210, 777.20
5.530099843030287, 777.22
5.529973238639288, 777.24
5.529846640763709, 777.26
5.529720049403047, 777.28
5.529593464556799, 777.30
5.529466886224465, 777.32
5.529340314405538, 777.34
5.529213749099516, 777.36
5.529087190305900, 777.38
5.528960638024183, 777.40
5.528834092253865, 777.42
5.528707552994443, 777.44
5.528581020245414, 777.46
5.528454494006277, 777.48
5.528327974276528, 777.50
5.528201461055665, 777.52
5.528074954343185, 777.54
5.527948454138588, 777.56
5.527821960441370, 777.58
5.527695473251029, 777.60
5.527568992567064, 777.62
5.527442518388972, 777.64
5.527316050716252, 777.66
5.527189589548400, 777.68
5.527063134884918, 777.70
5.526936686725300, 777.72
5.526810245069046, 777.74
5.526683809915656, 777.76
5.526557381264626, 777.78
5.526430959115454, 777.80
5.526304543467641, 777.82
5.526178134320684, 777.84
5.526051731674080, 777.86
5.525925335527331, 777.88
5.525798945879933, 777.90
5.525672562731386, 777.92
5.525546186081189, 777.94
5.525419815928839, 777.96
5.525293452273838, 777.98
5.525167095115681, 778.00
5.525040744453871, 778.02
5.524914400287903, 778.04
5.524788062617279, 778.06
5.524661731441498, 778.08
5.524535406760057, 778.10
5.524409088572457, 778.12
5.524282776878197, 778.14
5.524156471676775, 778.16
5.524030172967694, 778.18
5.523903880750450, 778.20
5.523777595024543, 778.22
5.523651315789474, 778.24
5.523525043044741, 778.26
5.523398776789845, 778.28
5.523272517024284, 778.30
5.523146263747559, 778.32
5.523020016959171, 778.34
5.522893776658615, 778.36
5.522767542845397, 778.38
5.522641315519014, 778.40
5.522515094678965, 778.42
5.522388880324752, 778.44
5.522262672455875, 778.46
5.522136471071833, 778.48
5.522010276172126, 778.50
5.521884087756256, 778.52
5.521757905823722, 778.54
5.521631730374025, 778.56
5.521505561406665, 778.58
5.521379398921141, 778.60
5.521253242916956, 778.62
5.521127093393610, 778.64
5.521000950350602, 778.66
5.520874813787435, 778.68
5.520748683703609, 778.70
5.520622560098624, 778.72
5.520496442971980, 778.74
5.520370332323181, 778.76
5.520244228151725, 778.78
5.520118130457115, 778.80
5.519992039238849, 778.82
5.519865954496431, 778.84
5.519739876229361, 778.86
5.519613804437141, 778.88
5.519487739119271, 778.90
5.519361680275253, 778.92
5.519235627904588, 778.94
5.519109582006778, 778.96
5.518983542581324, 778.98
5.518857509627728, 779.00
5.518731483145491, 779.02
5.518605463134114, 779.04
5.518479449593100, 779.06
5.518353442521950, 779.08
5.518227441920165, 779.10
5.518101447787248, 779.12
5.517975460122700, 779.14
5.517849478926022, 779.16
5.517723504196719, 779.18
5.517597535934292, 779.20
5.517471574138241, 779.22
5.517345618808069, 779.24
5.517219669943280, 779.26
5.517093727543374, 779.28
5.516967791607854, 779.30
5.516841862136222, 779.32
5.516715939127981, 779.34
5.516590022582633, 779.36
5.516464112499680, 779.38
5.516338208878625, 779.40
5.516212311718970, 779.42
5.516086421020219, 779.44
5.515960536781875, 779.46
5.515834659003438, 779.48
5.515708787684414, 779.50
5.515582922824303, 779.52
5.515457064422609, 779.54
5.515331212478835, 779.56
5.515205366992484, 779.58
5.515079527963058, 779.60
5.514953695390062, 779.62
5.514827869272998, 779.64
5.514702049611369, 779.66
5.514576236404679, 779.68
5.514450429652430, 779.70
5.514324629354127, 779.72
5.514198835509273, 779.74
5.514073048117369, 779.76
5.513947267177922, 779.78
5.513821492690434, 779.80
5.513695724654408, 779.82
5.513569963069348, 779.84
5.513444207934758, 779.86
5.513318459250141, 779.88
5.513192717015002, 779.90
5.513066981228844, 779.92
5.512941251891171, 779.94
5.512815529001488, 779.96
5.512689812559296, 779.98
5.512564102564103, 780.00
5.512438399015410, 780.02
5.512312701912723, 780.04
5.512187011255545, 780.06
5.512061327043381, 780.08
5.511935649275734, 780.10
5.511809977952110, 780.12
5.511684313072013, 780.14
5.511558654634946, 780.16
5.511433002640416, 780.18
5.511307357087926, 780.20
5.511181717976981, 780.22
5.511056085307085, 780.24
5.510930459077744, 780.26
5.510804839288461, 780.28
5.510679225938742, 780.30
5.510553619028092, 780.32
5.510428018556015, 780.34
5.510302424522016, 780.36
5.510176836925600, 780.38
5.510051255766274, 780.40
5.509925681043541, 780.42
5.509800112756906, 780.44
5.509674550905876, 780.46
5.509548995489955, 780.48
5.509423446508649, 780.50
5.509297903961462, 780.52
5.509172367847901, 780.54
5.509046838167470, 780.56
5.508921314919676, 780.58
5.508795798104023, 780.60
5.508670287720018, 780.62
5.508544783767165, 780.64
5.508419286244972, 780.66
5.508293795152944, 780.68
5.508168310490586, 780.70
5.508042832257404, 780.72
5.507917360452904, 780.74
5.507791895076593, 780.76
5.507666436127975, 780.78
5.507540983606558, 780.80
5.507415537511847, 780.82
5.507290097843349, 780.84
5.507164664600569, 780.86
5.507039237783014, 780.88
5.506913817390191, 780.90
5.506788403421605, 780.92
5.506662995876764, 780.94
5.506537594755173, 780.96
5.506412200056340, 780.98
5.506286811779770, 781.00
5.506161429924970, 781.02
5.506036054491448, 781.04
5.505910685478709, 781.06
5.505785322886261, 781.08
5.505659966713609, 781.10
5.505534616960262, 781.12
5.505409273625727, 781.14
5.505283936709509, 781.16
5.505158606211117, 781.18
5.505033282130056, 781.20
5.504907964465835, 781.22
5.504782653217961, 781.24
5.504657348385941, 781.26
5.504532049969281, 781.28
5.504406757967491, 781.30
5.504281472380075, 781.32
5.504156193206543, 781.34
5.504030920446401, 781.36
5.503905654099158, 781.38
5.503780394164321, 781.40
5.503655140641396, 781.42
5.503529893529893, 781.44
5.503404652829319, 781.46
5.503279418539182, 781.48
5.503154190658989, 781.50
5.503028969188249, 781.52
5.502903754126469, 781.54
5.502778545473157, 781.56
5.502653343227822, 781.58
5.502528147389969, 781.60
5.502402957959111, 781.62
5.502277774934753, 781.64
5.502152598316403, 781.66
5.502027428103572, 781.68
5.501902264295766, 781.70
5.501777106892494, 781.72
5.501651955893264, 781.74
5.501526811297586, 781.76
5.501401673104966, 781.78
5.501276541314915, 781.80
5.501151415926940, 781.82
5.501026296940552, 781.84
5.500901184355255, 781.86
5.500776078170563, 781.88
5.500650978385983, 781.90
5.500525885001023, 781.92
5.500400798015193, 781.94
5.500275717428002, 781.96
5.500150643238958, 781.98
5.500025575447570, 782.00
5.499900514053349, 782.02
5.499775459055804, 782.04
5.499650410454442, 782.06
5.499525368248773, 782.08
5.499400332438308, 782.10
5.499275303022555, 782.12
5.499150280001023, 782.14
5.499025263373222, 782.16
5.498900253138664, 782.18
5.498775249296855, 782.20
5.498650251847306, 782.22
5.498525260789528, 782.24
5.498400276123029, 782.26
5.498275297847319, 782.28
5.498150325961908, 782.30
5.498025360466306, 782.32
5.497900401360023, 782.34
5.497775448642569, 782.36
5.497650502313454, 782.38
5.497525562372188, 782.40
5.497400628818282, 782.42
5.497275701651245, 782.44
5.497150780870587, 782.46
5.497025866475821, 782.48
5.496900958466454, 782.50
5.496776056841998, 782.52
5.496651161601964, 782.54
5.496526272745861, 782.56
5.496401390273200, 782.58
5.496276514183491, 782.60
5.496151644476247, 782.62
5.496026781150976, 782.64
5.495901924207191, 782.66
5.495777073644401, 782.68
5.495652229462118, 782.70
5.495527391659853, 782.72
5.495402560237116, 782.74
5.495277735193419, 782.76
5.495152916528271, 782.78
5.495028104241186, 782.80
5.494903298331673, 782.82
5.494778498799245, 782.84
5.494653705643410, 782.86
5.494528918863683, 782.88
5.494404138459574, 782.90
5.494279364430593, 782.92
5.494154596776253, 782.94
5.494029835496066, 782.96
5.493905080589543, 782.98
5.493780332056194, 783.00
5.493655589895533, 783.02
5.493530854107070, 783.04
5.493406124690318, 783.06
5.493281401644788, 783.08
5.493156684969991, 783.10
5.493031974665441, 783.12
5.492907270730649, 783.14
5.492782573165126, 783.16
5.492657881968385, 783.18
5.492533197139939, 783.20
5.492408518679299, 783.22
5.492283846585977, 783.24
5.492159180859485, 783.26
5.492034521499336, 783.28
5.491909868505044, 783.30
5.491785221876118, 783.32
5.491660581612072, 783.34
5.491535947712419, 783.36
5.491411320176670, 783.38
5.491286699004340, 783.40
5.491162084194940, 783.42
5.491037475747984, 783.44
5.490912873662983, 783.46
5.490788277939449, 783.48
5.490663688576899, 783.50
5.490539105574842, 783.52
5.490414528932793, 783.54
5.490289958650264, 783.56
5.490165394726768, 783.58
5.490040837161818, 783.60
5.489916285954927, 783.62
5.489791741105610, 783.64
5.489667202613378, 783.66
5.489542670477746, 783.68
5.489418144698226, 783.70
5.489293625274333, 783.72
5.489169112205579, 783.74
5.489044605491477, 783.76
5.488920105131543, 783.78
5.488795611125288, 783.80
5.488671123472226, 783.82
5.488546642171872, 783.84
5.488422167223739, 783.86
5.488297698627341, 783.88
5.488173236382192, 783.90
5.488048780487805, 783.92
5.487924330943694, 783.94
5.487799887749375, 783.96
5.487675450904360, 783.98
5.487551020408164, 784.00
5.487426596260300, 784.02
5.487302178460284, 784.04
5.487177767007628, 784.06
5.487053361901848, 784.08
5.486928963142456, 784.10
5.486804570728970, 784.12
5.486680184660903, 784.14
5.486555804937767, 784.16
5.486431431559081, 784.18
5.486307064524356, 784.20
5.486182703833109, 784.22
5.486058349484852, 784.24
5.485934001479102, 784.26
5.485809659815373, 784.28
5.485685324493179, 784.30
5.485560995512037, 784.32
5.485436672871460, 784.34
5.485312356570962, 784.36
5.485188046610062, 784.38
5.485063742988272, 784.40
5.484939445705106, 784.42
5.484815154760083, 784.44
5.484690870152717, 784.46
5.484566591882521, 784.48
5.484442319949013, 784.50
5.484318054351706, 784.52
5.484193795090117, 784.54
5.484069542163761, 784.56
5.483945295572154, 784.58
5.483821055314810, 784.60
5.483696821391247, 784.62
5.483572593800980, 784.64
5.483448372543521, 784.66
5.483324157618392, 784.68
5.483199949025106, 784.70
5.483075746763177, 784.72
5.482951550832123, 784.74
5.482827361231459, 784.76
5.482703177960703, 784.78
5.482579001019369, 784.80
5.482454830406973, 784.82
5.482330666123032, 784.84
5.482206508167062, 784.86
5.482082356538579, 784.88
5.481958211237100, 784.90
5.481834072262141, 784.92
5.481709939613219, 784.94
5.481585813289850, 784.96
5.481461693291549, 784.98
5.481337579617835, 785.00
5.481213472268223, 785.02
5.481089371242231, 785.04
5.480965276539373, 785.06
5.480841188159169, 785.08
5.480717106101133, 785.10
5.480593030364785, 785.12
5.480468960949640, 785.14
5.480344897855214, 785.16
5.480220841081026, 785.18
5.480096790626592, 785.20
5.479972746491430, 785.22
5.479848708675055, 785.24
5.479724677176987, 785.26
5.479600651996741, 785.28
5.479476633133835, 785.30
5.479352620587787, 785.32
5.479228614358113, 785.34
5.479104614444331, 785.36
5.478980620845960, 785.38
5.478856633562517, 785.40
5.478732652593517, 785.42
5.478608677938480, 785.44
5.478484709596924, 785.46
5.478360747568366, 785.48
5.478236791852324, 785.50
5.478112842448315, 785.52
5.477988899355858, 785.54
5.477864962574470, 785.56
5.477741032103669, 785.58
5.477617107942974, 785.60
5.477493190091902, 785.62
5.477369278549973, 785.64
5.477245373316702, 785.66
5.477121474391610, 785.68
5.476997581774214, 785.70
5.476873695464033, 785.72
5.476749815460585, 785.74
5.476625941763388, 785.76
5.476502074371962, 785.78
5.476378213285824, 785.80
5.476254358504493, 785.82
5.476130510027487, 785.84
5.476006667854326, 785.86
5.475882831984527, 785.88
5.475759002417611, 785.90
5.475635179153095, 785.92
5.475511362190498, 785.94
5.475387551529340, 785.96
5.475263747169139, 785.98
5.475139949109415, 786.00
5.475016157349686, 786.02
5.474892371889472, 786.04
5.474768592728291, 786.06
5.474644819865663, 786.08
5.474521053301107, 786.10
5.474397293034142, 786.12
5.474273539064289, 786.14
5.474149791391065, 786.16
5.474026050013991, 786.18
5.473902314932587, 786.20
5.473778586146372, 786.22
5.473654863654864, 786.24
5.473531147457584, 786.26
5.473407437554052, 786.28
5.473283733943788, 786.30
5.473160036626311, 786.32
5.473036345601140, 786.34
5.472912660867796, 786.36
5.472788982425800, 786.38
5.472665310274670, 786.40
5.472541644413926, 786.42
5.472417984843091, 786.44
5.472294331561682, 786.46
5.472170684569220, 786.48
5.472047043865226, 786.50
5.471923409449220, 786.52
5.471799781320722, 786.54
5.471676159479252, 786.56
5.471552543924331, 786.58
5.471428934655480, 786.60
5.471305331672218, 786.62
5.471181734974067, 786.64
5.471058144560547, 786.66
5.470934560431179, 786.68
5.470810982585483, 786.70
5.470687411022982, 786.72
5.470563845743194, 786.74
5.470440286745641, 786.76
5.470316734029844, 786.78
5.470193187595323, 786.80
5.470069647441601, 786.82
5.469946113568198, 786.84
5.469822585974634, 786.86
5.469699064660431, 786.88
5.469575549625111, 786.90
5.469452040868195, 786.92
5.469328538389203, 786.94
5.469205042187659, 786.96
5.469081552263082, 786.98
5.468958068614994, 787.00
5.468834591242917, 787.02
5.468711120146372, 787.04
5.468587655324881, 787.06
5.468464196777965, 787.08
5.468340744505146, 787.10
5.468217298505946, 787.12
5.468093858779887, 787.14
5.467970425326490, 787.16
5.467846998145278, 787.18
5.467723577235772, 787.20
5.467600162597495, 787.22
5.467476754229968, 787.24
5.467353352132714, 787.26
5.467229956305254, 787.28
5.467106566747111, 787.30
5.466983183457807, 787.32
5.466859806436864, 787.34
5.466736435683805, 787.36
5.466613071198151, 787.38
5.466489712979427, 787.40
5.466366361027152, 787.42
5.466243015340852, 787.44
5.466119675920047, 787.46
5.465996342764261, 787.48
5.465873015873016, 787.50
5.465749695245836, 787.52
5.465626380882242, 787.54
5.465503072781757, 787.56
5.465379770943905, 787.58
5.465256475368207, 787.60
5.465133186054189, 787.62
5.465009903001372, 787.64
5.464886626209278, 787.66
5.464763355677432, 787.68
5.464640091405357, 787.70
5.464516833392576, 787.72
5.464393581638612, 787.74
5.464270336142988, 787.76
5.464147096905227, 787.78
5.464023863924854, 787.80
5.463900637201392, 787.82
5.463777416734363, 787.84
5.463654202523291, 787.86
5.463530994567701, 787.88
5.463407792867115, 787.90
5.463284597421058, 787.92
5.463161408229053, 787.94
5.463038225290624, 787.96
5.462915048605295, 787.98
5.462791878172589, 788.00
5.462668713992031, 788.02
5.462545556063144, 788.04
5.462422404385453, 788.06
5.462299258958482, 788.08
5.462176119781754, 788.10
5.462052986854794, 788.12
5.461929860177126, 788.14
5.461806739748274, 788.16
5.461683625567764, 788.18
5.461560517635118, 788.20
5.461437415949862, 788.22
5.461314320511519, 788.24
5.461191231319615, 788.26
5.461068148373675, 788.28
5.460945071673222, 788.30
5.460822001217780, 788.32
5.460698937006876, 788.34
5.460575879040032, 788.36
5.460452827316777, 788.38
5.460329781836632, 788.40
5.460206742599122, 788.42
5.460083709603775, 788.44
5.459960682850113, 788.46
5.459837662337662, 788.48
5.459714648065948, 788.50
5.459591640034495, 788.52
5.459468638242829, 788.54
5.459345642690474, 788.56
5.459222653376957, 788.58
5.459099670301801, 788.60
5.458976693464534, 788.62
5.458853722864679, 788.64
5.458730758501762, 788.66
5.458607800375311, 788.68
5.458484848484849, 788.70
5.458361902829902, 788.72
5.458238963409996, 788.74
5.458116030224657, 788.76
5.457993103273410, 788.78
5.457870182555782, 788.80
5.457747268071297, 788.82
5.457624359819483, 788.84
5.457501457799864, 788.86
5.457378562011967, 788.88
5.457255672455318, 788.90
5.457132789129442, 788.92
5.457009912033868, 788.94
5.456887041168121, 788.96
5.456764176531725, 788.98
5.456641318124208, 789.00
5.456518465945097, 789.02
5.456395619993917, 789.04
5.456272780270195, 789.06
5.456149946773459, 789.08
5.456027119503232, 789.10
5.455904298459044, 789.12
5.455781483640419, 789.14
5.455658675046885, 789.16
5.455535872677969, 789.18
5.455413076533199, 789.20
5.455290286612098, 789.22
5.455167502914196, 789.24
5.455044725439019, 789.26
5.454921954186094, 789.28
5.454799189154948, 789.30
5.454676430345108, 789.32
5.454553677756101, 789.34
5.454430931387454, 789.36
5.454308191238694, 789.38
5.454185457309349, 789.40
5.454062729598946, 789.42
5.453940008107012, 789.44
5.453817292833076, 789.46
5.453694583776663, 789.48
5.453571880937303, 789.50
5.453449184314521, 789.52
5.453326493907846, 789.54
5.453203809716805, 789.56
5.453081131740927, 789.58
5.452958459979737, 789.60
5.452835794432765, 789.62
5.452713135099540, 789.64
5.452590481979586, 789.66
5.452467835072435, 789.68
5.452345194377612, 789.70
5.452222559894646, 789.72
5.452099931623066, 789.74
5.451977309562399, 789.76
5.451854693712174, 789.78
5.451732084071917, 789.80
5.451609480641159, 789.82
5.451486883419427, 789.84
5.451364292406249, 789.86
5.451241707601155, 789.88
5.451119129003672, 789.90
5.450996556613328, 789.92
5.450873990429653, 789.94
5.450751430452175, 789.96
5.450628876680423, 789.98
5.450506329113924, 790.00
5.450383787752210, 790.02
5.450261252594806, 790.04
5.450138723641243, 790.06
5.450016200891050, 790.08
5.449893684343754, 790.10
5.449771173998887, 790.12
5.449648669855975, 790.14
5.449526171914549, 790.16
5.449403680174138, 790.18
5.449281194634270, 790.20
5.449158715294475, 790.22
5.449036242154283, 790.24
5.448913775213222, 790.26
5.448791314470821, 790.28
5.448668859926610, 790.30
5.448546411580121, 790.32
5.448423969430879, 790.34
5.448301533478415, 790.36
5.448179103722261, 790.38
5.448056680161944, 790.40
5.447934262796994, 790.42
5.447811851626942, 790.44
5.447689446651317, 790.46
5.447567047869649, 790.48
5.447444655281468, 790.50
5.447322268886303, 790.52
5.447199888683685, 790.54
5.447077514673143, 790.56
5.446955146854209, 790.58
5.446832785226411, 790.60
5.446710429789279, 790.62
5.446588080542345, 790.64
5.446465737485139, 790.66
5.446343400617190, 790.68
5.446221069938030, 790.70
5.446098745447188, 790.72
5.445976427144195, 790.74
5.445854115028580, 790.76
5.445731809099876, 790.78
5.445609509357613, 790.80
5.445487215801321, 790.82
5.445364928430530, 790.84
5.445242647244772, 790.86
5.445120372243577, 790.88
5.444998103426476, 790.90
5.444875840793000, 790.92
5.444753584342680, 790.94
5.444631334075048, 790.96
5.444509089989634, 790.98
5.444386852085968, 791.00
5.444264620363581, 791.02
5.444142394822007, 791.04
5.444020175460775, 791.06
5.443897962279416, 791.08
5.443775755277462, 791.10
5.443653554454444, 791.12
5.443531359809895, 791.14
5.443409171343344, 791.16
5.443286989054324, 791.18
5.443164812942366, 791.20
5.443042643007002, 791.22
5.442920479247763, 791.24
5.442798321664181, 791.26
5.442676170255789, 791.28
5.442554025022116, 791.30
5.442431885962696, 791.32
5.442309753077060, 791.34
5.442187626364739, 791.36
5.442065505825267, 791.38
5.441943391458175, 791.40
5.441821283262995, 791.42
5.441699181239260, 791.44
5.441577085386501, 791.46
5.441454995704251, 791.48
5.441332912192041, 791.50
5.441210834849404, 791.52
5.441088763675872, 791.54
5.440966698670979, 791.56
5.440844639834256, 791.58
5.440722587165235, 791.60
5.440600540663450, 791.62
5.440478500328433, 791.64
5.440356466159715, 791.66
5.440234438156831, 791.68
5.440112416319313, 791.70
5.439990400646693, 791.72
5.439868391138505, 791.74
5.439746387794282, 791.76
5.439624390613555, 791.78
5.439502399595858, 791.80
5.439380414740724, 791.82
5.439258436047687, 791.84
5.439136463516278, 791.86
5.439014497146032, 791.88
5.438892536936482, 791.90
5.438770582887160, 791.92
5.438648634997601, 791.94
5.438526693267336, 791.96
5.438404757695902, 791.98
5.438282828282828, 792.00
5.438160905027651, 792.02
5.438038987929903, 792.04
5.437917076989118, 792.06
5.437795172204829, 792.08
5.437673273576569, 792.10
5.437551381103874, 792.12
5.437429494786276, 792.14
5.437307614623308, 792.16
5.437185740614507, 792.18
5.437063872759405, 792.20
5.436942011057535, 792.22
5.436820155508432, 792.24
5.436698306111630, 792.26
5.436576462866664, 792.28
5.436454625773067, 792.30
5.436332794830372, 792.32
5.436210970038116, 792.34
5.436089151395830, 792.36
5.435967338903052, 792.38
5.435845532559314, 792.40
5.435723732364150, 792.42
5.435601938317096, 792.44
5.435480150417686, 792.46
5.435358368665455, 792.48
5.435236593059937, 792.50
5.435114823600666, 792.52
5.434993060287178, 792.54
5.434871303119007, 792.56
5.434749552095688, 792.58
5.434627807216756, 792.60
5.434506068481745, 792.62
5.434384335890190, 792.64
5.434262609441626, 792.66
5.434140889135590, 792.68
5.434019174971616, 792.70
5.433897466949238, 792.72
5.433775765067992, 792.74
5.433654069327414, 792.76
5.433532379727037, 792.78
5.433410696266399, 792.80
5.433289018945032, 792.82
5.433167347762475, 792.84
5.433045682718260, 792.86
5.432924023811927, 792.88
5.432802371043008, 792.90
5.432680724411037, 792.92
5.432559083915555, 792.94
5.432437449556094, 792.96
5.432315821332190, 792.98
5.432194199243380, 793.00
5.432072583289199, 793.02
5.431950973469182, 793.04
5.431829369782867, 793.06
5.431707772229789, 793.08
5.431586180809482, 793.10
5.431464595521485, 793.12
5.431343016365333, 793.14
5.431221443340561, 793.16
5.431099876446708, 793.18
5.430978315683308, 793.20
5.430856761049898, 793.22
5.430735212546014, 793.24
5.430613670171192, 793.26
5.430492133924970, 793.28
5.430370603806884, 793.30
5.430249079816468, 793.32
5.430127561953261, 793.34
5.430006050216799, 793.36
5.429884544606620, 793.38
5.429763045122259, 793.40
5.429641551763253, 793.42
5.429520064529139, 793.44
5.429398583419454, 793.46
5.429277108433735, 793.48
5.429155639571519, 793.50
5.429034176832342, 793.52
5.428912720215743, 793.54
5.428791269721256, 793.56
5.428669825348422, 793.58
5.428548387096774, 793.60
5.428426954965853, 793.62
5.428305528955194, 793.64
5.428184109064334, 793.66
5.428062695292813, 793.68
5.427941287640166, 793.70
5.427819886105932, 793.72
5.427698490689647, 793.74
5.427577101390849, 793.76
5.427455718209076, 793.78
5.427334341143865, 793.80
5.427212970194756, 793.82
5.427091605361283, 793.84
5.426970246642985, 793.86
5.426848894039402, 793.88
5.426727547550070, 793.90
5.426606207174526, 793.92
5.426484872912311, 793.94
5.426363544762960, 793.96
5.426242222726014, 793.98
5.426120906801008, 794.00
5.425999596987482, 794.02
5.425878293284973, 794.04
5.425756995693021, 794.06
5.425635704211163, 794.08
5.425514418838937, 794.10
5.425393139575883, 794.12
5.425271866421538, 794.14
5.425150599375440, 794.16
5.425029338437130, 794.18
5.424908083606145, 794.20
5.424786834882023, 794.22
5.424665592264303, 794.24
5.424544355752524, 794.26
5.424423125346226, 794.28
5.424301901044946, 794.30
5.424180682848223, 794.32
5.424059470755597, 794.34
5.423938264766605, 794.36
5.423817064880788, 794.38
5.423695871097684, 794.40
5.423574683416832, 794.42
5.423453501837773, 794.44
5.423332326360043, 794.46
5.423211156983184, 794.48
5.423089993706734, 794.50
5.422968836530233, 794.52
5.422847685453219, 794.54
5.422726540475233, 794.56
5.422605401595813, 794.58
5.422484268814498, 794.60
5.422363142130830, 794.62
5.422242021544347, 794.64
5.422120907054589, 794.66
5.421999798661096, 794.68
5.421878696363407, 794.70
5.421757600161063, 794.72
5.421636510053602, 794.74
5.421515426040566, 794.76
5.421394348121493, 794.78
5.421273276295924, 794.80
5.421152210563399, 794.82
5.421031150923457, 794.84
5.420910097375638, 794.86
5.420789049919485, 794.88
5.420668008554536, 794.90
5.420546973280330, 794.92
5.420425944096410, 794.94
5.420304921002315, 794.96
5.420183903997585, 794.98
5.420062893081761, 795.00
5.419941888254384, 795.02
5.419820889514994, 795.04
5.419699896863131, 795.06
5.419578910298336, 795.08
5.419457929820148, 795.10
5.419336955428112, 795.12
5.419215987121765, 795.14
5.419095024900649, 795.16
5.418974068764305, 795.18
5.418853118712273, 795.20
5.418732174744096, 795.22
5.418611236859313, 795.24
5.418490305057466, 795.26
5.418369379338095, 795.28
5.418248459700743, 795.30
5.418127546144949, 795.32
5.418006638670255, 795.34
5.417885737276202, 795.36
5.417764841962333, 795.38
5.417643952728188, 795.40
5.417523069573307, 795.42
5.417402192497234, 795.44
5.417281321499510, 795.46
5.417160456579675, 795.48
5.417039597737272, 795.50
5.416918744971842, 795.52
5.416797898282928, 795.54
5.416677057670070, 795.56
5.416556223132810, 795.58
5.416435394670689, 795.60
5.416314572283251, 795.62
5.416193755970037, 795.64
5.416072945730588, 795.66
5.415952141564448, 795.68
5.415831343471157, 795.70
5.415710551450259, 795.72
5.415589765501295, 795.74
5.415468985623806, 795.76
5.415348211817337, 795.78
5.415227444081428, 795.80
5.415106682415622, 795.82
5.414985926819462, 795.84
5.414865177292489, 795.86
5.414744433834247, 795.88
5.414623696444277, 795.90
5.414502965122122, 795.92
5.414382239867327, 795.94
5.414261520679431, 795.96
5.414140807557979, 795.98
5.414020100502513, 796.00
5.413899399512576, 796.02
5.413778704587710, 796.04
5.413658015727458, 796.06
5.413537332931364, 796.08
5.413416656198971, 796.10
5.413295985529820, 796.12
5.413175320923456, 796.14
5.413054662379421, 796.16
5.412934009897259, 796.18
5.412813363476514, 796.20
5.412692723116726, 796.22
5.412572088817442, 796.24
5.412451460578203, 796.26
5.412330838398554, 796.28
5.412210222278037, 796.30
5.412089612216195, 796.32
5.411969008212574, 796.34
5.411848410266714, 796.36
5.411727818378162, 796.38
5.411607232546459, 796.40
5.411486652771151, 796.42
5.411366079051780, 796.44
5.411245511387891, 796.46
5.411124949779028, 796.48
5.411004394224734, 796.50
5.410883844724553, 796.52
5.410763301278028, 796.54
5.410642763884705, 796.56
5.410522232544127, 796.58
5.410401707255837, 796.60
5.410281188019382, 796.62
5.410160674834304, 796.64
5.410040167700148, 796.66
5.409919666616458, 796.68
5.409799171582779, 796.70
5.409678682598654, 796.72
5.409558199663629, 796.74
5.409437722777248, 796.76
5.409317251939055, 796.78
5.409196787148595, 796.80
5.409076328405412, 796.82
5.408955875709052, 796.84
5.408835429059057, 796.86
5.408714988454975, 796.88
5.408594553896349, 796.90
5.408474125382724, 796.92
5.408353702913645, 796.94
5.408233286488657, 796.96
5.408112876107305, 796.98
5.407992471769135, 797.00
5.407872073473690, 797.02
5.407751681220517, 797.04
5.407631295009160, 797.06
5.407510914839164, 797.08
5.407390540710074, 797.10
5.407270172621438, 797.12
5.407149810572798, 797.14
5.407029454563701, 797.16
5.406909104593693, 797.18
5.406788760662318, 797.20
5.406668422769123, 797.22
5.406548090913653, 797.24
5.406427765095453, 797.26
5.406307445314068, 797.28
5.406187131569046, 797.30
5.406066823859931, 797.32
5.405946522186270, 797.34
5.405826226547608, 797.36
5.405705936943490, 797.38
5.405585653373464, 797.40
5.405465375837075, 797.42
5.405345104333868, 797.44
5.405224838863392, 797.46
5.405104579425189, 797.48
5.404984326018809, 797.50
5.404864078643796, 797.52
5.404743837299697, 797.54
5.404623601986058, 797.56
5.404503372702425, 797.58
5.404383149448345, 797.60
5.404262932223364, 797.62
5.404142721027030, 797.64
5.404022515858887, 797.66
5.403902316718484, 797.68
5.403782123605366, 797.70
5.403661936519080, 797.72
5.403541755459172, 797.74
5.403421580425191, 797.76
5.403301411416682, 797.78
5.403181248433192, 797.80
5.403061091474268, 797.82
5.402940940539457, 797.84
5.402820795628306, 797.86
5.402700656740362, 797.88
5.402580523875173, 797.90
5.402460397032284, 797.92
5.402340276211244, 797.94
5.402220161411599, 797.96
5.402100052632898, 797.98
5.401979949874687, 798.00
5.401859853136513, 798.02
5.401739762417924, 798.04
5.401619677718468, 798.06
5.401499599037691, 798.08
5.401379526375141, 798.10
5.401259459730366, 798.12
5.401139399102915, 798.14
5.401019344492332, 798.16
5.400899295898168, 798.18
5.400779253319970, 798.20
5.400659216757285, 798.22
5.400539186209661, 798.24
5.400419161676647, 798.26
5.400299143157790, 798.28
5.400179130652638, 798.30
5.400059124160738, 798.32
5.399939123681640, 798.34
5.399819129214891, 798.36
5.399699140760039, 798.38
5.399579158316634, 798.40
5.399459181884221, 798.42
5.399339211462352, 798.44
5.399219247050572, 798.46
5.399099288648432, 798.48
5.398979336255479, 798.50
5.398859389871262, 798.52
5.398739449495330, 798.54
5.398619515127230, 798.56
5.398499586766511, 798.58
5.398379664412722, 798.60
5.398259748065414, 798.62
5.398139837724131, 798.64
5.398019933388426, 798.66
5.397900035057845, 798.68
5.397780142731939, 798.70
5.397660256410257, 798.72
5.397540376092346, 798.74
5.397420501777756, 798.76
5.397300633466037, 798.78
5.397180771156735, 798.80
5.397060914849404, 798.82
5.396941064543589, 798.84
5.396821220238841, 798.86
5.396701381934709, 798.88
5.396581549630743, 798.90
5.396461723326491, 798.92
5.396341903021503, 798.94
5.396222088715330, 798.96
5.396102280407519, 798.98
5.395982478097622, 799.00
5.395862681785188, 799.02
5.395742891469764, 799.04
5.395623107150903, 799.06
5.395503328828153, 799.08
5.395383556501064, 799.10
5.395263790169186, 799.12
5.395144029832070, 799.14
5.395024275489264, 799.16
5.394904527140318, 799.18
5.394784784784785, 799.20
5.394665048422212, 799.22
5.394545318052150, 799.24
5.394425593674149, 799.26
5.394305875287760, 799.28
5.394186162892532, 799.30
5.394066456488016, 799.32
5.393946756073762, 799.34
5.393827061649319, 799.36
5.393707373214242, 799.38
5.393587690768077, 799.40
5.393468014310375, 799.42
5.393348343840689, 799.44
5.393228679358567, 799.46
5.393109020863561, 799.48
5.392989368355222, 799.50
5.392869721833100, 799.52
5.392750081296747, 799.54
5.392630446745711, 799.56
5.392510818179545, 799.58
5.392391195597799, 799.60
5.392271579000026, 799.62
5.392151968385774, 799.64
5.392032363754596, 799.66
5.391912765106042, 799.68
5.391793172439665, 799.70
5.391673585755014, 799.72
5.391554005051642, 799.74
5.391434430329099, 799.76
5.391314861586937, 799.78
5.391195298824707, 799.80
5.391075742041960, 799.82
5.390956191238248, 799.84
5.390836646413122, 799.86
5.390717107566135, 799.88
5.390597574696837, 799.90
5.390478047804780, 799.92
5.390358526889517, 799.94
5.390239011950598, 799.96
5.390119502987575, 799.98
5.390000000000001, 800.00
5.388805298675331, 800.2
5.387611194402799, 800.4
5.386417686734949, 800.6
5.385224775224776, 800.8
5.384032459425718, 801.0
5.382840738891662, 801.2
5.381649613176941, 801.4
5.380459081836327, 801.6
5.379269144425044, 801.8
5.378079800498753, 802.0
5.376891049613563, 802.2
5.375702891326022, 802.4
5.374515325193123, 802.6
5.373328350772297, 802.8
5.372141967621420, 803.0
5.370956175298804, 803.2
5.369770973363207, 803.4
5.368586361373818, 803.6
5.367402338890272, 803.8
5.366218905472637, 804.0
5.365036060681422, 804.2
5.363853804077574, 804.4
5.362672135222471, 804.6
5.361491053677933, 804.8
5.360310559006211, 805.0
5.359130650769995, 805.2
5.357951328532407, 805.4
5.356772591857001, 805.6
5.355594440307769, 805.8
5.354416873449132, 806.0
5.353239890845944, 806.2
5.352063492063492, 806.4
5.350887676667494, 806.6
5.349712444224096, 806.8
5.348537794299876, 807.0
5.347363726461843, 807.2
5.346190240277434, 807.4
5.345017335314513, 807.6
5.343845011141372, 807.8
5.342673267326733, 808.0
5.341502103439742, 808.2
5.340331519049975, 808.4
5.339161513727430, 808.6
5.337992087042533, 808.8
5.336823238566131, 809.0
5.335654967869501, 809.2
5.334487274524339, 809.4
5.333320158102767, 809.6
5.332153618177328, 809.8
5.330987654320988, 810.0
5.329822266107134, 810.2
5.328657453109576, 810.4
5.327493214902542, 810.6
5.326329551060681, 810.8
5.325166461159063, 811.0
5.324003944773176, 811.2
5.322842001478926, 811.4
5.321680630852637, 811.6
5.320519832471053, 811.8
5.319359605911330, 812.0
5.318199950751047, 812.2
5.317040866568194, 812.4
5.315882352941177, 812.6
5.314724409448820, 812.8
5.313567035670357, 813.0
5.312410231185440, 813.2
5.311253995574134, 813.4
5.310098328416912, 813.6
5.308943229294668, 813.8
5.307788697788698, 814.0
5.306634733480717, 814.2
5.305481335952849, 814.4
5.304328504787626, 814.6
5.303176239567993, 814.8
5.302024539877300, 815.0
5.300873405299313, 815.2
5.299722835418200, 815.4
5.298572829818538, 815.6
5.297423388085315, 815.8
5.296274509803922, 816.0
5.295126194560157, 816.2
5.293978441940226, 816.4
5.292831251530737, 816.6
5.291684622918708, 816.8
5.290538555691555, 817.0
5.289393049437102, 817.2
5.288248103743578, 817.4
5.287103718199609, 817.6
5.285959892394229, 817.8
5.284816625916871, 818.0
5.283673918357370, 818.2
5.282531769305963, 818.4
5.281390178353286, 818.6
5.280249145090377, 818.8
5.279108669108670, 819.0
5.277968750000000, 819.2
5.276829387356603, 819.4
5.275690580771108, 819.6
5.274552329836546, 819.8
5.273414634146341, 820.0
5.272277493294318, 820.2
5.271140906874695, 820.4
5.270004874482087, 820.6
5.268869395711501, 820.8
5.267734470158344, 821.0
5.266600097418412, 821.2
5.265466277087899, 821.4
5.264333008763389, 821.6
5.263200292041860, 821.8
5.262068126520681, 822.0
5.260936511797616, 822.2
5.259805447470818, 822.4
5.258674933138829, 822.6
5.257544968400584, 822.8
5.256415552855407, 823.0
5.255286686103013, 823.2
5.254158367743503, 823.4
5.253030597377368, 823.6
5.251903374605488, 823.8
5.250776699029126, 824.0
5.249650570249940, 824.2
5.248524987869967, 824.4
5.247399951491633, 824.6
5.246275460717750, 824.8
5.245151515151515, 825.0
5.244028114396510, 825.2
5.242905258056700, 825.4
5.241782945736435, 825.6
5.240661177040447, 825.8
5.239539951573851, 826.0
5.238419268942144, 826.2
5.237299128751211, 826.4
5.236179530607307, 826.6
5.235060474117079, 826.8
5.233941958887546, 827.0
5.232823984526112, 827.2
5.231706550640562, 827.4
5.230589656839053, 827.6
5.229473302730129, 827.8
5.228357487922706, 828.0
5.227242212026081, 828.2
5.226127474649928, 828.4
5.225013275404296, 828.6
5.223899613899614, 828.8
5.222786489746683, 829.0
5.221673902556681, 829.2
5.220561851941163, 829.4
5.219450337512054, 829.6
5.218339358881659, 829.8
5.217228915662651, 830.0
5.216119007468080, 830.2
5.215009633911368, 830.4
5.213900794606309, 830.6
5.212792489167068, 830.8
5.211684717208183, 831.0
5.210577478344562, 831.2
5.209470772191485, 831.4
5.208364598364598, 831.6
5.207258956479923, 831.8
5.206153846153846, 832.0
5.205049267003124, 832.2
5.203945218644883, 832.4
5.202841700696613, 832.6
5.201738712776177, 832.8
5.200636254501801, 833.0
5.199534325492079, 833.2
5.198432925365971, 833.4
5.197332053742802, 833.6
5.196231710242265, 833.8
5.195131894484413, 834.0
5.194032606089666, 834.2
5.192933844678811, 834.4
5.191835609872993, 834.6
5.190737901293724, 834.8
5.189640718562875, 835.0
5.188544061302682, 835.2
5.187447929135744, 835.4
5.186352321685017, 835.6
5.185257238573822, 835.8
5.184162679425838, 836.0
5.183068643865104, 836.2
5.181975131516022, 836.4
5.180882142003347, 836.6
5.179789674952199, 836.8
5.178697729988053, 837.0
5.177606306736742, 837.2
5.176515404824457, 837.4
5.175425023877746, 837.6
5.174335163523515, 837.8
5.173245823389022, 838.0
5.172157003101885, 838.2
5.171068702290077, 838.4
5.169980920581922, 838.6
5.168893657606104, 838.8
5.167806912991657, 839.0
5.166720686367969, 839.2
5.165634977364784, 839.4
5.164549785612197, 839.6
5.163465110740654, 839.8
5.162380952380953, 840.0
5.161297310164247, 840.2
5.160214183722037, 840.4
5.159131572686177, 840.6
5.158049476688868, 840.8
5.156967895362664, 841.0
5.155886828340466, 841.2
5.154806275255527, 841.4
5.153726235741445, 841.6
5.152646709432170, 841.8
5.151567695961996, 842.0
5.150489194965567, 842.2
5.149411206077874, 842.4
5.148333728934252, 842.6
5.147256763170385, 842.8
5.146180308422301, 843.0
5.145104364326376, 843.2
5.144028930519327, 843.4
5.142954006638218, 843.6
5.141879592320455, 843.8
5.140805687203792, 844.0
5.139732290926321, 844.2
5.138659403126481, 844.4
5.137587023443050, 844.6
5.136515151515152, 844.8
5.135443786982249, 845.0
5.134372929484146, 845.2
5.133302578660989, 845.4
5.132232734153265, 845.6
5.131163395601797, 845.8
5.130094562647755, 846.0
5.129026234932640, 846.2
5.127958412098299, 846.4
5.126891093786913, 846.6
5.125824279641002, 846.8
5.124757969303424, 847.0
5.123692162417375, 847.2
5.122626858626387, 847.4
5.121562057574327, 847.6
5.120497758905403, 847.8
5.119433962264151, 848.0
5.118370667295450, 848.2
5.117307873644508, 848.4
5.116245580956870, 848.6
5.115183788878417, 848.8
5.114122497055360, 849.0
5.113061705134244, 849.2
5.112001412761950, 849.4
5.110941619585687, 849.6
5.109882325253001, 849.8
5.108823529411765, 850.0
5.107765231710186, 850.2
5.106707431796802, 850.4
5.105650129320479, 850.6
5.104593323930419, 850.8
5.103537015276146, 851.0
5.102481203007519, 851.2
5.101425886774725, 851.4
5.100371066228276, 851.6
5.099316741019019, 851.8
5.098262910798122, 852.0
5.097209575217085, 852.2
5.096156733927734, 852.4
5.095104386582220, 852.6
5.094052532833021, 852.8
5.093001172332943, 853.0
5.091950304735115, 853.2
5.090899929692993, 853.4
5.089850046860357, 853.6
5.088800655891310, 853.8
5.087751756440281, 854.0
5.086703348162023, 854.2
5.085655430711611, 854.4
5.084608003744442, 854.6
5.083561066916238, 854.8
5.082514619883042, 855.0
5.081468662301216, 855.2
5.080423193827450, 855.4
5.079378214118747, 855.6
5.078333722832438, 855.8
5.077289719626169, 856.0
5.076246204157907, 856.2
5.075203176085942, 856.4
5.074160635068877, 856.6
5.073118580765640, 856.8
5.072077012835473, 857.0
5.071035930937938, 857.2
5.069995334732914, 857.4
5.068955223880597, 857.6
5.067915598041502, 857.8
5.066876456876457, 858.0
5.065837800046610, 858.2
5.064799627213421, 858.4
5.063761938038668, 858.6
5.062724732184444, 858.8
5.061688009313155, 859.0
5.060651769087523, 859.2
5.059616011170585, 859.4
5.058580735225687, 859.6
5.057545940916492, 859.8
5.056511627906978, 860.0
5.055477795861428, 860.2
5.054444444444445, 860.4
5.053411573320939, 860.6
5.052379182156135, 860.8
5.051347270615564, 861.0
5.050315838365072, 861.2
5.049284885070815, 861.4
5.048254410399258, 861.6
5.047224414017174, 861.8
5.046194895591648, 862.0
5.045165854790072, 862.2
5.044137291280149, 862.4
5.043109204729887, 862.6
5.042081594807604, 862.8
5.041054461181924, 863.0
5.040027803521779, 863.2
5.039001621496410, 863.4
5.037975914775359, 863.6
5.036950683028479, 863.8
5.035925925925926, 864.0
5.034901643138163, 864.2
5.033877834335956, 864.4
5.032854499190377, 864.6
5.031831637372804, 864.8
5.030809248554913, 865.0
5.029787332408691, 865.2
5.028765888606425, 865.4
5.027744916820702, 865.6
5.026724416724417, 865.8
5.025704387990762, 866.0
5.024684830293235, 866.2
5.023665743305633, 866.4
5.022647126702054, 866.6
5.021628980156899, 866.8
5.020611303344868, 867.0
5.019594095940960, 867.2
5.018577357620475, 867.4
5.017561088059014, 867.6
5.016545286932473, 867.8
5.015529953917051, 868.0
5.014515088689242, 868.2
5.013500690925841, 868.4
5.012486760303937, 868.6
5.011473296500921, 868.8
5.010460299194476, 869.0
5.009447768062587, 869.2
5.008435702783530, 869.4
5.007424103035879, 869.6
5.006412968498506, 869.8
5.005402298850575, 870.0
5.004392093771547, 870.2
5.003382352941177, 870.4
5.002373076039513, 870.6
5.001364262746900, 870.8
5.000355912743973, 871.0
4.999348025711662, 871.2
4.998340601331192, 871.4
4.997333639284076, 871.6
4.996327139252123, 871.8
4.995321100917431, 872.0
4.994315523962394, 872.2
4.993310408069693, 872.4
4.992305752922301, 872.6
4.991301558203483, 872.8
4.990297823596793, 873.0
4.989294548786074, 873.2
4.988291733455462, 873.4
4.987289377289377, 873.6
4.986287479972535, 873.8
4.985286041189932, 874.0
4.984285060626859, 874.2
4.983284537968894, 874.4
4.982284472901898, 874.6
4.981284865112026, 874.8
4.980285714285714, 875.0
4.979287020109689, 875.2
4.978288782270963, 875.4
4.977291000456829, 875.6
4.976293674354876, 875.8
4.975296803652968, 876.0
4.974300388039261, 876.2
4.973304427202192, 876.4
4.972308920830482, 876.6
4.971313868613139, 876.8
4.970319270239453, 877.0
4.969325125398997, 877.2
4.968331433781628, 877.4
4.967338195077485, 877.6
4.966345408976989, 877.8
4.965353075170843, 878.0
4.964361193350034, 878.2
4.963369763205829, 878.4
4.962378784429775, 878.6
4.961388256713701, 878.8
4.960398179749716, 879.0
4.959408553230209, 879.2
4.958419376847851, 879.4
4.957430650295589, 879.6
4.956442373266652, 879.8
4.955454545454546, 880.0
4.954467166553056, 880.2
4.953480236256247, 880.4
4.952493754258461, 880.6
4.951507720254315, 880.8
4.950522133938707, 881.0
4.949536995006809, 881.2
4.948552303154074, 881.4
4.947568058076225, 881.6
4.946584259469268, 881.8
4.945600907029479, 882.0
4.944618000453412, 882.2
4.943635539437897, 882.4
4.942653523680036, 882.6
4.941671952877210, 882.8
4.940690826727067, 883.0
4.939710144927536, 883.2
4.938729907176818, 883.4
4.937750113173382, 883.6
4.936770762615977, 883.8
4.935791855203620, 884.0
4.934813390635603, 884.2
4.933835368611488, 884.4
4.932857788831110, 884.6
4.931880650994575, 884.8
4.930903954802260, 885.0
4.929927699954813, 885.2
4.928951886153151, 885.4
4.927976513098464, 885.6
4.927001580492211, 885.8
4.926027088036117, 886.0
4.925053035432183, 886.2
4.924079422382672, 886.4
4.923106248590120, 886.6
4.922133513757331, 886.8
4.921161217587374, 887.0
4.920189359783589, 887.2
4.919217940049584, 887.4
4.918246958089229, 887.6
4.917276413606669, 887.8
4.916306306306307, 888.0
4.915336635892817, 888.2
4.914367402071139, 888.4
4.913398604546478, 888.6
4.912430243024303, 888.8
4.911462317210349, 889.0
4.910494826810616, 889.2
4.909527771531370, 889.4
4.908561151079136, 889.6
4.907594965160711, 889.8
4.906629213483146, 890.0
4.905663895753763, 890.2
4.904699011680144, 890.4
4.903734560970133, 890.6
4.902770543331837, 890.8
4.901806958473625, 891.0
4.900843806104129, 891.2
4.899881085932241, 891.4
4.898918797667116, 891.6
4.897956941018166, 891.8
4.896995515695068, 892.0
4.896034521407756, 892.2
4.895073957866428, 892.4
4.894113824781537, 892.6
4.893154121863800, 892.8
4.892194848824189, 893.0
4.891236005373936, 893.2
4.890277591224536, 893.4
4.889319606087735, 893.6
4.888362049675544, 893.8
4.887404921700224, 894.0
4.886448221874301, 894.2
4.885491949910555, 894.4
4.884536105522021, 894.6
4.883580688421994, 894.8
4.882625698324023, 895.0
4.881671134941913, 895.2
4.880716997989726, 895.4
4.879763287181778, 895.6
4.878810002232642, 895.8
4.877857142857144, 896.0
4.876904708770364, 896.2
4.875952699687640, 896.4
4.875001115324560, 896.6
4.874049955396967, 896.8
4.873099219620959, 897.0
4.872148907712885, 897.2
4.871199019389348, 897.4
4.870249554367201, 897.6
4.869300512363556, 897.8
4.868351893095769, 898.0
4.867403696281452, 898.2
4.866455921638469, 898.4
4.865508568884932, 898.6
4.864561637739208, 898.8
4.863615127919911, 899.0
4.862669039145907, 899.2
4.861723371136313, 899.4
4.860778123610494, 899.6
4.859833296288064, 899.8
4.858888888888889, 900.0
4.857944901133082, 900.2
4.857001332741004, 900.4
4.856058183433267, 900.6
4.855115452930729, 900.8
4.854173140954495, 901.0
4.853231247225921, 901.2
4.852289771466608, 901.4
4.851348713398403, 901.6
4.850408072743402, 901.8
4.849467849223947, 902.0
4.848528042562624, 902.2
4.847588652482270, 902.4
4.846649678705961, 902.6
4.845711120957023, 902.8
4.844772978959026, 903.0
4.843835252435784, 903.2
4.842897941111358, 903.4
4.841961044710049, 903.6
4.841024562956407, 903.8
4.840088495575221, 904.0
4.839152842291528, 904.2
4.838217602830606, 904.4
4.837282776917975, 904.6
4.836348364279400, 904.8
4.835414364640885, 905.0
4.834480777728679, 905.2
4.833547603269274, 905.4
4.832614840989399, 905.6
4.831682490616030, 905.8
4.830750551876380, 906.0
4.829819024497904, 906.2
4.828887908208297, 906.4
4.827957202735496, 906.6
4.827026907807676, 906.8
4.826097023153253, 907.0
4.825167548500882, 907.2
4.824238483579459, 907.4
4.823309828118114, 907.6
4.822381581846222, 907.8
4.821453744493392, 908.0
4.820526315789474, 908.2
4.819599295464553, 908.4
4.818672683248955, 908.6
4.817746478873240, 908.8
4.816820682068207, 909.0
4.815895292564893, 909.2
4.814970310094568, 909.4
4.814045734388743, 909.6
4.813121565179161, 909.8
4.812197802197803, 910.0
4.811274445176885, 910.2
4.810351493848858, 910.4
4.809428947946409, 910.6
4.808506807202460, 910.8
4.807585071350165, 911.0
4.806663740122915, 911.2
4.805742813254335, 911.4
4.804822290478280, 911.6
4.803902171528844, 911.8
4.802982456140351, 912.0
4.802063144047358, 912.2
4.801144234984656, 912.4
4.800225728687267, 912.6
4.799307624890448, 912.8
4.798389923329682, 913.0
4.797472623740692, 913.2
4.796555725859426, 913.4
4.795639229422067, 913.6
4.794723134165026, 913.8
4.793807439824946, 914.0
4.792892146138700, 914.2
4.791977252843395, 914.4
4.791062759676361, 914.6
4.790148666375164, 914.8
4.789234972677596, 915.0
4.788321678321679, 915.2
4.787408783045663, 915.4
4.786496286588030, 915.6
4.785584188687487, 915.8
4.784672489082970, 916.0
4.783761187513643, 916.2
4.782850283718901, 916.4
4.781939777438359, 916.6
4.781029668411868, 916.8
4.780119956379498, 917.0
4.779210641081552, 917.2
4.778301722258557, 917.4
4.777393199651264, 917.6
4.776485073000655, 917.8
4.775577342047931, 918.0
4.774670006534524, 918.2
4.773763066202091, 918.4
4.772856520792510, 918.6
4.771950370047889, 918.8
4.771044613710555, 919.0
4.770139251523064, 919.2
4.769234283228193, 919.4
4.768329708568944, 919.6
4.767425527288541, 919.8
4.766521739130435, 920.0
4.765618343838296, 920.2
4.764715341156020, 920.4
4.763812730827722, 920.6
4.762910512597742, 920.8
4.762008686210641, 921.0
4.761107251411203, 921.2
4.760206207944432, 921.4
4.759305555555556, 921.6
4.758405293990020, 921.8
4.757505422993493, 922.0
4.756605942311863, 922.2
4.755706851691241, 922.4
4.754808150877953, 922.6
4.753909839618553, 922.8
4.753011917659805, 923.0
4.752114384748700, 923.2
4.751217240632446, 923.4
4.750320485058467, 923.6
4.749424117774411, 923.8
4.748528138528139, 924.0
4.747632547067735, 924.2
4.746737343141498, 924.4
4.745842526497945, 924.6
4.744948096885814, 924.8
4.744054054054055, 925.0
4.743160397751837, 925.2
4.742267127728550, 925.4
4.741374243733794, 925.6
4.740481745517391, 925.8
4.739589632829374, 926.0
4.738697905419996, 926.2
4.737806563039724, 926.4
4.736915605439241, 926.6
4.736025032369444, 926.8
4.735134843581446, 927.0
4.734245038826574, 927.2
4.733355617856373, 927.4
4.732466580422596, 927.6
4.731577926277216, 927.8
4.730689655172414, 928.0
4.729801766860590, 928.2
4.728914261094356, 928.4
4.728027137626535, 928.6
4.727140396210165, 928.8
4.726254036598493, 929.0
4.725368058544985, 929.2
4.724482461803315, 929.4
4.723597246127367, 929.6
4.722712411271242, 929.8
4.721827956989248, 930.0
4.720943883035907, 930.2
4.720060189165951, 930.4
4.719176875134322, 930.6
4.718293940696176, 930.8
4.717411385606875, 931.0
4.716529209621993, 931.2
4.715647412497316, 931.4
4.714765993988837, 931.6
4.713884953852759, 931.8
4.713004291845494, 932.0
4.712124007723665, 932.2
4.711244101244102, 932.4
4.710364572163844, 932.6
4.709485420240138, 932.8
4.708606645230439, 933.0
4.707728246892414, 933.2
4.706850224983930, 933.4
4.705972579263068, 933.6
4.705095309488113, 933.8
4.704218415417559, 934.0
4.703341896810105, 934.2
4.702465753424658, 934.4
4.701589985020330, 934.6
4.700714591356441, 934.8
4.699839572192514, 935.0
4.698964927288281, 935.2
4.698090656403678, 935.4
4.697216759298846, 935.6
4.696343235734131, 935.8
4.695470085470085, 936.0
4.694597308267464, 936.2
4.693724903887228, 936.4
4.692852872090540, 936.6
4.691981212638771, 936.8
4.691109925293490, 937.0
4.690239009816475, 937.2
4.689368465969704, 937.4
4.688498293515359, 937.6
4.687628492215825, 937.8
4.686759061833689, 938.0
4.685890002131742, 938.2
4.685021312872975, 938.4
4.684152993820584, 938.6
4.683285044737964, 938.8
4.682417465388712, 939.0
4.681550255536627, 939.2
4.680683414945711, 939.4
4.679816943380162, 939.6
4.678950840604385, 939.8
4.678085106382979, 940.0
4.677219740480749, 940.2
4.676354742662697, 940.4
4.675490112694026, 940.6
4.674625850340137, 940.8
4.673761955366632, 941.0
4.672898427539312, 941.2
4.672035266624177, 941.4
4.671172472387426, 941.6
4.670310044595456, 941.8
4.669447983014862, 942.0
4.668586287412439, 942.2
4.667724957555179, 942.4
4.666863993210270, 942.6
4.666003394145100, 942.8
4.665143160127254, 943.0
4.664283290924512, 943.2
4.663423786304855, 943.4
4.662564646036456, 943.6
4.661705869887689, 943.8
4.660847457627119, 944.0
4.659989409023512, 944.2
4.659131723845828, 944.4
4.658274401863223, 944.6
4.657417442845047, 944.8
4.656560846560847, 945.0
4.655704612780364, 945.2
4.654848741273535, 945.4
4.653993231810491, 945.6
4.653138084161557, 945.8
4.652283298097251, 946.0
4.651428873388290, 946.2
4.650574809805580, 946.4
4.649721107120220, 946.6
4.648867765103507, 946.8
4.648014783526928, 947.0
4.647162162162163, 947.2
4.646309900781086, 947.4
4.645457999155762, 947.6
4.644606457058452, 947.8
4.643755274261603, 948.0
4.642904450537861, 948.2
4.642053985660059, 948.4
4.641203879401223, 948.6
4.640354131534570, 948.8
4.639504741833509, 949.0
4.638655710071640, 949.2
4.637807036022751, 949.4
4.636958719460826, 949.6
4.636110760160034, 949.8
4.635263157894737, 950.0
4.634415912439486, 950.2
4.633569023569024, 950.4
4.632722491058280, 950.6
4.631876314682374, 950.8
4.631030494216614, 951.0
4.630185029436501, 951.2
4.629339920117721, 951.4
4.628495166036150, 951.6
4.627650766967851, 951.8
4.626806722689076, 952.0
4.625963032976266, 952.2
4.625119697606048, 952.4
4.624276716355238, 952.6
4.623434089000840, 952.8
4.622591815320042, 953.0
4.621749895090223, 953.2
4.620908328088945, 953.4
4.620067114093960, 953.6
4.619226252883204, 953.8
4.618385744234801, 954.0
4.617545587927060, 954.2
4.616705783738475, 954.4
4.615866331447727, 954.6
4.615027230833683, 954.8
4.614188481675393, 955.0
4.613350083752094, 955.2
4.612512036843207, 955.4
4.611674340728339, 955.6
4.610836995187278, 955.8
4.610000000000000, 956.0
4.609163354946664, 956.2
4.608327059807612, 956.4
4.607491114363370, 956.6
4.606655518394649, 956.8
4.605820271682341, 957.0
4.604985374007522, 957.2
4.604150825151452, 957.4
4.603316624895572, 957.6
4.602482773021508, 957.8
4.601649269311065, 958.0
4.600816113546232, 958.2
4.599983305509182, 958.4
4.599150844982266, 958.6
4.598318731748019, 958.8
4.597486965589155, 959.0
4.596655546288574, 959.2
4.595824473629352, 959.4
4.594993747394748, 959.6
4.594163367368202, 959.8
4.593333333333334, 960.0
4.592503645073942, 960.2
4.591674302374011, 960.4
4.590845305017697, 960.6
4.590016652789343, 960.8
4.589188345473465, 961.0
4.588360382854765, 961.2
4.587532764718119, 961.4
4.586705490848586, 961.6
4.585878561031400, 961.8
4.585051975051975, 962.0
4.584225732695905, 962.2
4.583399833748961, 962.4
4.582574277997091, 962.6
4.581749065226423, 962.8
4.580924195223261, 963.0
4.580099667774086, 963.2
4.579275482665560, 963.4
4.578451639684516, 963.6
4.577628138617971, 963.8
4.576804979253112, 964.0
4.575982161377308, 964.2
4.575159684778100, 964.4
4.574337549243210, 964.6
4.573515754560531, 964.8
4.572694300518135, 965.0
4.571873186904268, 965.2
4.571052413507354, 965.4
4.570231980115990, 965.6
4.569411886518949, 965.8
4.568592132505176, 966.0
4.567772717863797, 966.2
4.566953642384106, 966.4
4.566134905855576, 966.6
4.565316508067853, 966.8
4.564498448810755, 967.0
4.563680727874276, 967.2
4.562863345048584, 967.4
4.562046300124019, 967.6
4.561229592891094, 967.8
4.560413223140496, 968.0
4.559597190663086, 968.2
4.558781495249897, 968.4
4.557966136692133, 968.6
4.557151114781173, 968.8
4.556336429308566, 969.0
4.555522080066034, 969.2
4.554708066845472, 969.4
4.553894389438944, 969.6
4.553081047638688, 969.8
4.552268041237114, 970.0
4.551455370026798, 970.2
4.550643033800495, 970.4
4.549831032351123, 970.6
4.549019365471776, 970.8
4.548208032955716, 971.0
4.547397034596376, 971.2
4.546586370187359, 971.4
4.545776039522437, 971.6
4.544966042395555, 971.8
4.544156378600823, 972.0
4.543347047932524, 972.2
4.542538050185109, 972.4
4.541729385153197, 972.6
4.540921052631579, 972.8
4.540113052415211, 973.0
4.539305384299219, 973.2
4.538498048078899, 973.4
4.537691043549712, 973.6
4.536884370507291, 973.8
4.536078028747434, 974.0
4.535272018066105, 974.2
4.534466338259442, 974.4
4.533660989123743, 974.6
4.532855970455478, 974.8
4.532051282051282, 975.0
4.531246923707958, 975.2
4.530442895222473, 975.4
4.529639196391964, 975.6
4.528835827013733, 975.8
4.528032786885246, 976.0
4.527230075804138, 976.2
4.526427693568210, 976.4
4.525625639975425, 976.6
4.524823914823915, 976.8
4.524022517911976, 977.0
4.523221449038068, 977.2
4.522420708000818, 977.4
4.521620294599018, 977.6
4.520820208631623, 977.8
4.520020449897751, 978.0
4.519221018196688, 978.2
4.518421913327883, 978.4
4.517623135090946, 978.6
4.516824683285656, 978.8
4.516026557711951, 979.0
4.515228758169934, 979.2
4.514431284459874, 979.4
4.513634136382197, 979.6
4.512837313737498, 979.8
4.512040816326531, 980.0
4.511244643950215, 980.2
4.510448796409629, 980.4
4.509653273506017, 980.6
4.508858075040783, 980.8
4.508063200815495, 981.0
4.507268650631879, 981.2
4.506474424291828, 981.4
4.505680521597392, 981.6
4.504886942350785, 981.8
4.504093686354379, 982.0
4.503300753410711, 982.2
4.502508143322475, 982.4
4.501715855892530, 982.6
4.500923890923891, 982.8
4.500132248219735, 983.0
4.499340927583401, 983.2
4.498549928818385, 983.4
4.497759251728345, 983.6
4.496968896117097, 983.8
4.496178861788618, 984.0
4.495389148547043, 984.2
4.494599756196668, 984.4
4.493810684541946, 984.6
4.493021933387491, 984.8
4.492233502538071, 985.0
4.491445391798620, 985.2
4.490657600974224, 985.4
4.489870129870130, 985.6
4.489082978291743, 985.8
4.488296146044624, 986.0
4.487509632934496, 986.2
4.486723438767235, 986.4
4.485937563348875, 986.6
4.485152006485611, 986.8
4.484366767983789, 987.0
4.483581847649919, 987.2
4.482797245290662, 987.4
4.482012960712839, 987.6
4.481228993723426, 987.8
4.480445344129555, 988.0
4.479662011738514, 988.2
4.478878996357750, 988.4
4.478096297794862, 988.6
4.477313915857605, 988.8
4.476531850353893, 989.0
4.475750101091791, 989.2
4.474968667879523, 989.4
4.474187550525465, 989.6
4.473406748838149, 989.8
4.472626262626263, 990.0
4.471846091698646, 990.2
4.471066235864297, 990.4
4.470286694932364, 990.6
4.469507468712152, 990.8
4.468728557013118, 991.0
4.467949959644875, 991.2
4.467171676417188, 991.4
4.466393707139976, 991.6
4.465616051623312, 991.8
4.464838709677419, 992.0
4.464061681112679, 992.2
4.463284965739621, 992.4
4.462508563368930, 992.6
4.461732473811443, 992.8
4.460956696878148, 993.0
4.460181232380185, 993.2
4.459406080128851, 993.4
4.458631239935587, 993.6
4.457856711611995, 993.8
4.457082494969819, 994.0
4.456308589820962, 994.2
4.455534995977474, 994.4
4.454761713251559, 994.6
4.453988741455570, 994.8
4.453216080402010, 995.0
4.452443729903537, 995.2
4.451671689772955, 995.4
4.450899959823222, 995.6
4.450128539867444, 995.8
4.449357429718876, 996.0
4.448586629190926, 996.2
4.447816138097150, 996.4
4.447045956251254, 996.6
4.446276083467095, 996.8
4.445506519558676, 997.0
4.444737264340152, 997.2
4.443968317625828, 997.4
4.443199679230152, 997.6
4.442431348967729, 997.8
4.441663326653306, 998.0
4.440895612101783, 998.2
4.440128205128206, 998.4
4.439361105547767, 998.6
4.438594313175812, 998.8
4.437827827827828, 999.0
4.437061649319456, 999.2
4.436295777466480, 999.4
4.435530212084834, 999.6
4.434764952990599, 999.8
4.434000000000000, 1000.0
4.433235352929414, 1000.2
4.432471011595362, 1000.4
4.431706975814511, 1000.6
4.430943245403677, 1000.8
4.430179820179820, 1001.0
4.429416699960048, 1001.2
4.428653884561614, 1001.4
4.427891373801917, 1001.6
4.427129167498503, 1001.8
4.426367265469062, 1002.0
4.425605667531431, 1002.2
4.424844373503592, 1002.4
4.424083383203670, 1002.6
4.423322696449940, 1002.8
4.422562313060817, 1003.0
4.421802232854865, 1003.2
4.421042455650787, 1003.4
4.420282981267437, 1003.6
4.419523809523810, 1003.8
4.418764940239044, 1004.0
4.418006373232424, 1004.2
4.417248108323378, 1004.4
4.416490145331475, 1004.6
4.415732484076433, 1004.8
4.414975124378110, 1005.0
4.414218066056506, 1005.2
4.413461308931769, 1005.4
4.412704852824184, 1005.6
4.411948697554186, 1005.8
4.411192842942346, 1006.0
4.410437288809382, 1006.2
4.409682034976153, 1006.4
4.408927081263660, 1006.6
4.408172427493048, 1006.8
4.407418073485601, 1007.0
4.406664019062748, 1007.2
4.405910264046059, 1007.4
4.405156808257245, 1007.6
4.404403651518159, 1007.8
4.403650793650794, 1008.0
4.402898234477286, 1008.2
4.402145973819913, 1008.4
4.401394011501091, 1008.6
4.400642347343378, 1008.8
4.399890981169475, 1009.0
4.399139912802219, 1009.2
4.398389142064593, 1009.4
4.397638668779715, 1009.6
4.396888492770846, 1009.8
4.396138613861386, 1010.0
4.395389031874876, 1010.2
4.394639746634996, 1010.4
4.393890757965565, 1010.6
4.393142065690542, 1010.8
4.392393669634026, 1011.0
4.391645569620253, 1011.2
4.390897765473601, 1011.4
4.390150257018584, 1011.6
4.389403044079858, 1011.8
4.388656126482213, 1012.0
4.387909504050583, 1012.2
4.387163176610036, 1012.4
4.386417143985780, 1012.6
4.385671406003159, 1012.8
4.384925962487660, 1013.0
4.384180813264903, 1013.2
4.383435958160647, 1013.4
4.382691397000789, 1013.6
4.381947129611364, 1013.8
4.381203155818540, 1014.0
4.380459475448629, 1014.2
4.379716088328076, 1014.4
4.378972994283462, 1014.6
4.378230193141506, 1014.8
4.377487684729064, 1015.0
4.376745468873128, 1015.2
4.376003545400827, 1015.4
4.375261914139425, 1015.6
4.374520574916322, 1015.8
4.373779527559055, 1016.0
4.373038771895296, 1016.2
4.372298307752853, 1016.4
4.371558134959669, 1016.6
4.370818253343824, 1016.8
4.370078662733530, 1017.0
4.369339362957137, 1017.2
4.368600353843130, 1017.4
4.367861635220126, 1017.6
4.367123206916879, 1017.8
4.366385068762279, 1018.0
4.365647220585346, 1018.2
4.364909662215240, 1018.4
4.364172393481248, 1018.6
4.363435414212800, 1018.8
4.362698724239451, 1019.0
4.361962323390895, 1019.2
4.361226211496959, 1019.4
4.360490388387603, 1019.6
4.359754853892921, 1019.8
4.359019607843138, 1020.0
4.358284650068614, 1020.2
4.357549980399844, 1020.4
4.356815598667451, 1020.6
4.356081504702194, 1020.8
4.355347698334966, 1021.0
4.354614179396788, 1021.2
4.353880947718817, 1021.4
4.353148003132342, 1021.6
4.352415345468781, 1021.8
4.351682974559687, 1022.0
4.350950890236744, 1022.2
4.350219092331769, 1022.4
4.349487580676707, 1022.6
4.348756355103637, 1022.8
4.348025415444770, 1023.0
4.347294761532448, 1023.2
4.346564393199141, 1023.4
4.345834310277452, 1023.6
4.345104512600117, 1023.8
4.344375000000000, 1024.0
4.343645772310095, 1024.2
4.342916829363530, 1024.4
4.342188170993559, 1024.6
4.341459797033568, 1024.8
4.340731707317073, 1025.0
4.340003901677721, 1025.2
4.339276379949288, 1025.4
4.338549141965679, 1025.6
4.337822187560929, 1025.8
4.337095516569200, 1026.0
4.336369128824790, 1026.2
4.335643024162120, 1026.4
4.334917202415742, 1026.6
4.334191663420335, 1026.8
4.333466407010711, 1027.0
4.332741433021806, 1027.2
4.332016741288689, 1027.4
4.331292331646556, 1027.6
4.330568203930726, 1027.8
4.329844357976654, 1028.0
4.329120793619918, 1028.2
4.328397510696227, 1028.4
4.327674509041416, 1028.6
4.326951788491447, 1028.8
4.326229348882411, 1029.0
4.325507190050525, 1029.2
4.324785311832135, 1029.4
4.324063714063715, 1029.6
4.323342396581861, 1029.8
4.322621359223301, 1030.0
4.321900601824888, 1030.2
4.321180124223602, 1030.4
4.320459926256550, 1030.6
4.319740007760963, 1030.8
4.319020368574200, 1031.0
4.318301008533747, 1031.2
4.317581927477216, 1031.4
4.316863125242342, 1031.6
4.316144601666990, 1031.8
4.315426356589147, 1032.0
4.314708389846929, 1032.2
4.313990701278574, 1032.4
4.313273290722448, 1032.6
4.312556158017041, 1032.8
4.311839303000968, 1033.0
4.311122725512969, 1033.2
4.310406425391910, 1033.4
4.309690402476781, 1033.6
4.308974656606694, 1033.8
4.308259187620890, 1034.0
4.307543995358731, 1034.2
4.306829079659706, 1034.4
4.306114440363426, 1034.6
4.305400077309625, 1034.8
4.304685990338164, 1035.0
4.303972179289026, 1035.2
4.303258644002318, 1035.4
4.302545384318270, 1035.6
4.301832400077235, 1035.8
4.301119691119691, 1036.0
4.300407257286238, 1036.2
4.299695098417599, 1036.4
4.298983214354621, 1036.6
4.298271604938272, 1036.8
4.297560270009643, 1037.0
4.296849209409950, 1037.2
4.296138422980528, 1037.4
4.295427910562838, 1037.6
4.294717671998458, 1037.8
4.294007707129095, 1038.0
4.293298015796571, 1038.2
4.292588597842835, 1038.4
4.291879453109956, 1038.6
4.291170581440124, 1038.8
4.290461982675650, 1039.0
4.289753656658968, 1039.2
4.289045603232634, 1039.4
4.288337822239323, 1039.6
4.287630313521832, 1039.8
4.286923076923077, 1040.0
4.286216112286099, 1040.2
4.285509419454056, 1040.4
4.284802998270229, 1040.6
4.284096848578018, 1040.8
4.283390970220942, 1041.0
4.282685363042643, 1041.2
4.281980026886883, 1041.4
4.281274961597543, 1041.6
4.280570167018622, 1041.8
4.279865642994242, 1042.0
4.279161389368643, 1042.2
4.278457405986186, 1042.4
4.277753692691349, 1042.6
4.277050249328731, 1042.8
4.276347075743049, 1043.0
4.275644171779141, 1043.2
4.274941537281963, 1043.4
4.274239172096589, 1043.6
4.273537076068212, 1043.8
4.272835249042146, 1044.0
4.272133690863819, 1044.2
4.271432401378782, 1044.4
4.270731380432702, 1044.6
4.270030627871363, 1044.8
4.269330143540670, 1045.0
4.268629927286644, 1045.2
4.267929978955424, 1045.4
4.267230298393267, 1045.6
4.266530885446548, 1045.8
4.265831739961759, 1046.0
4.265132861785509, 1046.2
4.264434250764526, 1046.4
4.263735906745653, 1046.6
4.263037829575850, 1046.8
4.262340019102197, 1047.0
4.261642475171887, 1047.2
4.260945197632232, 1047.4
4.260248186330661, 1047.6
4.259551441114716, 1047.8
4.258854961832061, 1048.0
4.258158748330471, 1048.2
4.257462800457840, 1048.4
4.256767118062179, 1048.6
4.256071700991610, 1048.8
4.255376549094375, 1049.0
4.254681662218833, 1049.2
4.253987040213455, 1049.4
4.253292682926830, 1049.6
4.252598590207659, 1049.8
4.251904761904762, 1050.0
4.251211197867073, 1050.2
4.250517897943641, 1050.4
4.249824861983629, 1050.6
4.249132089836316, 1050.8
4.248439581351095, 1051.0
4.247747336377473, 1051.2
4.247055354765075, 1051.4
4.246363636363637, 1051.6
4.245672181023008, 1051.8
4.244980988593156, 1052.0
4.244290058924159, 1052.2
4.243599391866210, 1052.4
4.242908987269619, 1052.6
4.242218844984802, 1052.8
4.241528964862298, 1053.0
4.240839346752754, 1053.2
4.240149990506930, 1053.4
4.239460895975703, 1053.6
4.238772063010059, 1053.8
4.238083491461101, 1054.0
4.237395181180042, 1054.2
4.236707132018209, 1054.4
4.236019343827044, 1054.6
4.235331816458096, 1054.8
4.234644549763034, 1055.0
4.233957543593632, 1055.2
4.233270797801781, 1055.4
4.232584312239485, 1055.6
4.231898086758856, 1055.8
4.231212121212121, 1056.0
4.230526415451619, 1056.2
4.229840969329799, 1056.4
4.229155782699224, 1056.6
4.228470855412566, 1056.8
4.227786187322612, 1057.0
4.227101778282255, 1057.2
4.226417628144505, 1057.4
4.225733736762481, 1057.6
4.225050103989412, 1057.8
4.224366729678639, 1058.0
4.223683613683614, 1058.2
4.223000755857899, 1058.4
4.222318156055167, 1058.6
4.221635814129203, 1058.8
4.220953729933900, 1059.0
4.220271903323263, 1059.2
4.219590334151406, 1059.4
4.218909022272556, 1059.6
4.218227967541046, 1059.8
4.217547169811321, 1060.0
4.216866628937936, 1060.2
4.216186344775556, 1060.4
4.215506317178956, 1060.6
4.214826546003017, 1060.8
4.214147031102733, 1061.0
4.213467772333208, 1061.2
4.212788769549651, 1061.4
4.212110022607385, 1061.6
4.211431531361838, 1061.8
4.210753295668550, 1062.0
4.210075315383167, 1062.2
4.209397590361446, 1062.4
4.208720120459251, 1062.6
4.208042905532555, 1062.8
4.207365945437441, 1063.0
4.206689240030098, 1063.2
4.206012789166823, 1063.4
4.205336592704024, 1063.6
4.204660650498214, 1063.8
4.203984962406015, 1064.0
4.203309528284157, 1064.2
4.202634347989477, 1064.4
4.201959421378922, 1064.6
4.201284748309542, 1064.8
4.200610328638498, 1065.0
4.199936162223056, 1065.2
4.199262248920593, 1065.4
4.198588588588589, 1065.6
4.197915181084632, 1065.8
4.197242026266417, 1066.0
4.196569123991746, 1066.2
4.195896474118530, 1066.4
4.195224076504782, 1066.6
4.194551931008625, 1066.8
4.193880037488285, 1067.0
4.193208395802099, 1067.2
4.192537005808506, 1067.4
4.191865867366055, 1067.6
4.191194980333396, 1067.8
4.190524344569289, 1068.0
4.189853959932597, 1068.2
4.189183826282291, 1068.4
4.188513943477448, 1068.6
4.187844311377246, 1068.8
4.187174929840973, 1069.0
4.186505798728021, 1069.2
4.185836917897887, 1069.4
4.185168287210172, 1069.6
4.184499906524584, 1069.8
4.183831775700935, 1070.0
4.183163894599140, 1070.2
4.182496263079223, 1070.4
4.181828881001308, 1070.6
4.181161748225626, 1070.8
4.180494864612512, 1071.0
4.179828230022404, 1071.2
4.179161844315848, 1071.4
4.178495707353490, 1071.6
4.177829818996082, 1071.8
4.177164179104477, 1072.0
4.176498787539638, 1072.2
4.175833644162625, 1072.4
4.175168748834608, 1072.6
4.174504101416853, 1072.8
4.173839701770737, 1073.0
4.173175549757734, 1073.2
4.172511645239426, 1073.4
4.171847988077497, 1073.6
4.171184578133731, 1073.8
4.170521415270018, 1074.0
4.169858499348353, 1074.2
4.169195830230827, 1074.4
4.168533407779639, 1074.6
4.167871231857090, 1074.8
4.167209302325581, 1075.0
4.166547619047619, 1075.2
4.165886181885810, 1075.4
4.165224990702864, 1075.6
4.164564045361591, 1075.8
4.163903345724907, 1076.0
4.163242891655826, 1076.2
4.162582683017465, 1076.4
4.161922719673045, 1076.6
4.161263001485884, 1076.8
4.160603528319406, 1077.0
4.159944300037133, 1077.2
4.159285316502691, 1077.4
4.158626577579807, 1077.6
4.157968083132307, 1077.8
4.157309833024119, 1078.0
4.156651827119273, 1078.2
4.155994065281899, 1078.4
4.155336547376229, 1078.6
4.154679273266593, 1078.8
4.154022242817423, 1079.0
4.153365455893254, 1079.2
4.152708912358718, 1079.4
4.152052612078548, 1079.6
4.151396554917578, 1079.8
4.150740740740741, 1080.0
4.150085169413072, 1080.2
4.149429840799703, 1080.4
4.148774754765872, 1080.6
4.148119911176906, 1080.8
4.147465309898243, 1081.0
4.146810950795413, 1081.2
4.146156833734048, 1081.4
4.145502958579882, 1081.6
4.144849325198743, 1081.8
4.144195933456562, 1082.0
4.143542783219368, 1082.2
4.142889874353289, 1082.4
4.142237206724553, 1082.6
4.141584780199483, 1082.8
4.140932594644506, 1083.0
4.140280649926145, 1083.2
4.139628945911021, 1083.4
4.138977482465855, 1083.6
4.138326259457465, 1083.8
4.137675276752768, 1084.0
4.137024534218779, 1084.2
4.136374031722611, 1084.4
4.135723769131477, 1084.6
4.135073746312685, 1084.8
4.134423963133640, 1085.0
4.133774419461850, 1085.2
4.133125115164916, 1085.4
4.132476050110538, 1085.6
4.131827224166513, 1085.8
4.131178637200737, 1086.0
4.130530289081200, 1086.2
4.129882179675993, 1086.4
4.129234308853304, 1086.6
4.128586676481413, 1086.8
4.127939282428703, 1087.0
4.127292126563650, 1087.2
4.126645208754828, 1087.4
4.125998528870909, 1087.6
4.125352086780659, 1087.8
4.124705882352941, 1088.0
4.124059915456717, 1088.2
4.123414185961043, 1088.4
4.122768693735073, 1088.6
4.122123438648053, 1088.8
4.121478420569329, 1089.0
4.120833639368343, 1089.2
4.120189094914632, 1089.4
4.119544787077827, 1089.6
4.118900715727657, 1089.8
4.118256880733945, 1090.0
4.117613281966611, 1090.2
4.116969919295671, 1090.4
4.116326792591234, 1090.6
4.115683901723506, 1090.8
4.115041246562787, 1091.0
4.114398826979472, 1091.2
4.113756642844053, 1091.4
4.113114694027116, 1091.6
4.112472980399341, 1091.8
4.111831501831502, 1092.0
4.111190258194470, 1092.2
4.110549249359209, 1092.4
4.109908475196779, 1092.6
4.109267935578331, 1092.8
4.108627630375114, 1093.0
4.107987559458470, 1093.2
4.107347722699835, 1093.4
4.106708119970739, 1093.6
4.106068751142805, 1093.8
4.105429616087751, 1094.0
4.104790714677390, 1094.2
4.104152046783626, 1094.4
4.103513612278459, 1094.6
4.102875411033979, 1094.8
4.102237442922375, 1095.0
4.101599707815924, 1095.2
4.100962205587000, 1095.4
4.100324936108069, 1095.6
4.099687899251689, 1095.8
4.099051094890511, 1096.0
4.098414522897281, 1096.2
4.097778183144838, 1096.4
4.097142075506111, 1096.6
4.096506199854121, 1096.8
4.095870556061987, 1097.0
4.095235144002917, 1097.2
4.094599963550209, 1097.4
4.093965014577260, 1097.6
4.093330296957552, 1097.8
4.092695810564663, 1098.0
4.092061555272264, 1098.2
4.091427530954115, 1098.4
4.090793737484071, 1098.6
4.090160174736076, 1098.8
4.089526842584167, 1099.0
4.088893740902474, 1099.2
4.088260869565217, 1099.4
4.087628228446708, 1099.6
4.086995817421349, 1099.8
4.086363636363637, 1100.0
4.085731685148155, 1100.2
4.085099963649582, 1100.4
4.084468471742686, 1100.6
4.083837209302326, 1100.8
4.083206176203451, 1101.0
4.082575372321104, 1101.2
4.081944797530416, 1101.4
4.081314451706609, 1101.6
4.080684334724996, 1101.8
4.080054446460980, 1102.0
4.079424786790057, 1102.2
4.078795355587808, 1102.4
4.078166152729912, 1102.6
4.077537178092129, 1102.8
4.076908431550318, 1103.0
4.076279912980421, 1103.2
4.075651622258474, 1103.4
4.075023559260602, 1103.6
4.074395723863019, 1103.8
4.073768115942029, 1104.0
4.073140735374026, 1104.2
4.072513582035494, 1104.4
4.071886655803006, 1104.6
4.071259956553223, 1104.8
4.070633484162896, 1105.0
4.070007238508867, 1105.2
4.069381219468066, 1105.4
4.068755426917511, 1105.6
4.068129860734310, 1105.8
4.067504520795660, 1106.0
4.066879406978846, 1106.2
4.066254519161244, 1106.4
4.065629857220315, 1106.6
4.065005421033611, 1106.8
4.064381210478771, 1107.0
4.063757225433526, 1107.2
4.063133465775691, 1107.4
4.062509931383171, 1107.6
4.061886622133960, 1107.8
4.061263537906138, 1108.0
4.060640678577874, 1108.2
4.060018044027426, 1108.4
4.059395634133141, 1108.6
4.058773448773449, 1108.8
4.058151487826871, 1109.0
4.057529751172016, 1109.2
4.056908238687579, 1109.4
4.056286950252344, 1109.6
4.055665885745180, 1109.8
4.055045045045045, 1110.0
4.054424428030986, 1110.2
4.053804034582132, 1110.4
4.053183864577706, 1110.6
4.052563917897011, 1110.8
4.051944194419442, 1111.0
4.051324694024478, 1111.2
4.050705416591686, 1111.4
4.050086362000720, 1111.6
4.049467530131319, 1111.8
4.048848920863310, 1112.0
4.048230534076604, 1112.2
4.047612369651205, 1112.4
4.046994427467195, 1112.6
4.046376707404745, 1112.8
4.045759209344115, 1113.0
4.045141933165649, 1113.2
4.044524878749775, 1113.4
4.043908045977012, 1113.6
4.043291434727958, 1113.8
4.042675044883303, 1114.0
4.042058876323820, 1114.2
4.041442928930365, 1114.4
4.040827202583887, 1114.6
4.040211697165411, 1114.8
4.039596412556054, 1115.0
4.038981348637016, 1115.2
4.038366505289582, 1115.4
4.037751882395124, 1115.6
4.037137479835097, 1115.8
4.036523297491040, 1116.0
4.035909335244580, 1116.2
4.035295592977428, 1116.4
4.034682070571378, 1116.6
4.034068767908310, 1116.8
4.033455684870188, 1117.0
4.032842821339062, 1117.2
4.032230177197064, 1117.4
4.031617752326414, 1117.6
4.031005546609411, 1117.8
4.030393559928444, 1118.0
4.029781792165981, 1118.2
4.029170243204578, 1118.4
4.028558912926873, 1118.6
4.027947801215588, 1118.8
4.027336907953530, 1119.0
4.026726233023588, 1119.2
4.026115776308736, 1119.4
4.025505537692033, 1119.6
4.024895517056618, 1119.8
4.024285714285714, 1120.0
4.023676129262632, 1120.2
4.023066761870760, 1120.4
4.022457611993575, 1120.6
4.021848679514632, 1120.8
4.021239964317574, 1121.0
4.020631466286122, 1121.2
4.020023185304084, 1121.4
4.019415121255350, 1121.6
4.018807274023890, 1121.8
4.018199643493761, 1122.0
4.017592229549100, 1122.2
4.016985032074126, 1122.4
4.016378050953145, 1122.6
4.015771286070538, 1122.8
4.015164737310775, 1123.0
4.014558404558405, 1123.2
4.013952287698059, 1123.4
4.013346386614454, 1123.6
4.012740701192383, 1123.8
4.012135231316726, 1124.0
4.011529976872443, 1124.2
4.010924937744575, 1124.4
4.010320113818246, 1124.6
4.009715504978663, 1124.8
4.009111111111111, 1125.0
4.008506932100960, 1125.2
4.007902967833659, 1125.4
4.007299218194741, 1125.6
4.006695683069817, 1125.8
4.006092362344583, 1126.0
4.005489255904813, 1126.2
4.004886363636364, 1126.4
4.004283685425174, 1126.6
4.003681221157260, 1126.8
4.003078970718723, 1127.0
4.002476933995742, 1127.2
4.001875110874579, 1127.4
4.001273501241576, 1127.6
4.000672104983154, 1127.8
4.000070921985816, 1128.0
3.999469952136146, 1128.2
3.998869195320808, 1128.4
3.998268651426546, 1128.6
3.997668320340184, 1128.8
3.997068201948627, 1129.0
3.996468296138859, 1129.2
3.995868602797946, 1129.4
3.995269121813031, 1129.6
3.994669853071340, 1129.8
3.994070796460177, 1130.0
3.993471951866926, 1130.2
3.992873319179051, 1130.4
3.992274898284097, 1130.6
3.991676689069685, 1130.8
3.991078691423519, 1131.0
3.990480905233380, 1131.2
3.989883330387130, 1131.4
3.989285966772711, 1131.6
3.988688814278141, 1131.8
3.988091872791519, 1132.0
3.987495142201024, 1132.2
3.986898622394913, 1132.4
3.986302313261522, 1132.6
3.985706214689265, 1132.8
3.985110326566637, 1133.0
3.984514648782210, 1133.2
3.983919181224633, 1133.4
3.983323923782640, 1133.6
3.982728876345035, 1133.8
3.982134038800705, 1134.0
3.981539411038617, 1134.2
3.980944992947813, 1134.4
3.980350784417416, 1134.6
3.979756785336623, 1134.8
3.979162995594713, 1135.0
3.978569415081043, 1135.2
3.977976043685044, 1135.4
3.977382881296231, 1135.6
3.976789927804191, 1135.8
3.976197183098591, 1136.0
3.975604647069177, 1136.2
3.975012319605772, 1136.4
3.974420200598276, 1136.6
3.973828289936664, 1136.8
3.973236587510994, 1137.0
3.972645093211396, 1137.2
3.972053806928081, 1137.4
3.971462728551336, 1137.6
3.970871857971524, 1137.8
3.970281195079086, 1138.0
3.969690739764540, 1138.2
3.969100491918482, 1138.4
3.968510451431583, 1138.6
3.967920618194591, 1138.8
3.967330992098332, 1139.0
3.966741573033707, 1139.2
3.966152360891697, 1139.4
3.965563355563356, 1139.6
3.964974556939814, 1139.8
3.964385964912281, 1140.0
3.963797579372040, 1140.2
3.963209400210452, 1140.4
3.962621427318955, 1140.6
3.962033660589060, 1140.8
3.961446099912358, 1141.0
3.960858745180512, 1141.2
3.960271596285263, 1141.4
3.959684653118430, 1141.6
3.959097915571904, 1141.8
3.958511383537653, 1142.0
3.957925056907722, 1142.2
3.957338935574229, 1142.4
3.956753019429372, 1142.6
3.956167308365418, 1142.8
3.955581802274716, 1143.0
3.954996501049685, 1143.2
3.954411404582823, 1143.4
3.953826512766702, 1143.6
3.953241825493968, 1143.8
3.952657342657342, 1144.0
3.952073064149624, 1144.2
3.951488989863684, 1144.4
3.950905119692469, 1144.6
3.950321453529001, 1144.8
3.949737991266375, 1145.0
3.949154732797764, 1145.2
3.948571678016413, 1145.4
3.947988826815643, 1145.6
3.947406179088846, 1145.8
3.946823734729494, 1146.0
3.946241493631129, 1146.2
3.945659455687369, 1146.4
3.945077620791907, 1146.6
3.944495988838507, 1146.8
3.943914559721011, 1147.0
3.943333333333333, 1147.2
3.942752309569461, 1147.4
3.942171488323458, 1147.6
3.941590869489458, 1147.8
3.941010452961673, 1148.0
3.940430238634384, 1148.2
3.939850226401950, 1148.4
3.939270416158802, 1148.6
3.938690807799443, 1148.8
3.938111401218451, 1149.0
3.937532196310477, 1149.2
3.936953192970245, 1149.4
3.936374391092554, 1149.6
3.935795790572274, 1149.8
3.935217391304348, 1150.0
3.934639193183794, 1150.2
3.934061196105702, 1150.4
3.933483399965236, 1150.6
3.932905804657629, 1150.8
3.932328410078193, 1151.0
3.931751216122307, 1151.2
3.931174222685426, 1151.4
3.930597429663078, 1151.6
3.930020836950860, 1151.8
3.929444444444445, 1152.0
3.928868252039576, 1152.2
3.928292259632072, 1152.4
3.927716467117821, 1152.6
3.927140874392783, 1152.8
3.926565481352992, 1153.0
3.925990287894554, 1153.2
3.925415293913646, 1153.4
3.924840499306519, 1153.6
3.924265903969492, 1153.8
3.923691507798960, 1154.0
3.923117310691388, 1154.2
3.922543312543312, 1154.4
3.921969513251343, 1154.6
3.921395912712158, 1154.8
3.920822510822511, 1155.0
3.920249307479224, 1155.2
3.919676302579193, 1155.4
3.919103496019384, 1155.6
3.918530887696833, 1155.8
3.917958477508650, 1156.0
3.917386265352015, 1156.2
3.916814251124178, 1156.4
3.916242434722462, 1156.6
3.915670816044260, 1156.8
3.915099394987035, 1157.0
3.914528171448323, 1157.2
3.913957145325730, 1157.4
3.913386316516932, 1157.6
3.912815684919675, 1157.8
3.912245250431779, 1158.0
3.911675012951131, 1158.2
3.911104972375690, 1158.4
3.910535128603487, 1158.6
3.909965481532620, 1158.8
3.909396031061259, 1159.0
3.908826777087647, 1159.2
3.908257719510091, 1159.4
3.907688858226975, 1159.6
3.907120193136748, 1159.8
3.906551724137931, 1160.0
3.905983451129115, 1160.2
3.905415374008962, 1160.4
3.904847492676202, 1160.6
3.904279807029635, 1160.8
3.903712316968131, 1161.0
3.903145022390630, 1161.2
3.902577923196142, 1161.4
3.902011019283746, 1161.6
3.901444310552591, 1161.8
3.900877796901893, 1162.0
3.900311478230941, 1162.2
3.899745354439091, 1162.4
3.899179425425770, 1162.6
3.898613691090471, 1162.8
3.898048151332760, 1163.0
3.897482806052269, 1163.2
3.896917655148702, 1163.4
3.896352698521829, 1163.6
3.895787936071490, 1163.8
3.895223367697594, 1164.0
3.894658993300120, 1164.2
3.894094812779113, 1164.4
3.893530826034690, 1164.6
3.892967032967033, 1164.8
3.892403433476395, 1165.0
3.891840027463096, 1165.2
3.891276814827527, 1165.4
3.890713795470144, 1165.6
3.890150969291474, 1165.8
3.889588336192110, 1166.0
3.889025896072714, 1166.2
3.888463648834019, 1166.4
3.887901594376822, 1166.6
3.887339732601988, 1166.8
3.886778063410454, 1167.0
3.886216586703221, 1167.2
3.885655302381360, 1167.4
3.885094210346009, 1167.6
3.884533310498373, 1167.8
3.883972602739726, 1168.0
3.883412086971409, 1168.2
3.882851763094830, 1168.4
3.882291631011467, 1168.6
3.881731690622861, 1168.8
3.881171941830624, 1169.0
3.880612384536435, 1169.2
3.880053018642038, 1169.4
3.879493844049248, 1169.6
3.878934860659942, 1169.8
3.878376068376068, 1170.0
3.877817467099641, 1170.2
3.877259056732741, 1170.4
3.876700837177516, 1170.6
3.876142808336180, 1170.8
3.875584970111016, 1171.0
3.875027322404371, 1171.2
3.874469865118661, 1171.4
3.873912598156367, 1171.6
3.873355521420037, 1171.8
3.872798634812287, 1172.0
3.872241938235796, 1172.2
3.871685431593312, 1172.4
3.871129114787652, 1172.6
3.870572987721692, 1172.8
3.870017050298380, 1173.0
3.869461302420729, 1173.2
3.868905743991818, 1173.4
3.868350374914792, 1173.6
3.867795195092861, 1173.8
3.867240204429301, 1174.0
3.866685402827457, 1174.2
3.866130790190735, 1174.4
3.865576366422612, 1174.6
3.865022131426626, 1174.8
3.864468085106383, 1175.0
3.863914227365555, 1175.2
3.863360558107878, 1175.4
3.862807077237155, 1175.6
3.862253784657255, 1175.8
3.861700680272109, 1176.0
3.861147763985716, 1176.2
3.860595035702142, 1176.4
3.860042495325514, 1176.6
3.859490142760027, 1176.8
3.858937977909940, 1177.0
3.858386000679578, 1177.2
3.857834210973331, 1177.4
3.857282608695652, 1177.6
3.856731193751061, 1177.8
3.856179966044142, 1178.0
3.855628925479545, 1178.2
3.855078071961982, 1178.4
3.854527405396233, 1178.6
3.853976925687140, 1178.8
3.853426632739610, 1179.0
3.852876526458616, 1179.2
3.852326606749194, 1179.4
3.851776873516446, 1179.6
3.851227326665537, 1179.8
3.850677966101695, 1180.0
3.850128791730215, 1180.2
3.849579803456455, 1180.4
3.849031001185838, 1180.6
3.848482384823848, 1180.8
3.847933954276037, 1181.0
3.847385709448019, 1181.2
3.846837650245471, 1181.4
3.846289776574137, 1181.6
3.845742088339821, 1181.8
3.845194585448392, 1182.0
3.844647267805786, 1182.2
3.844100135317997, 1182.4
3.843553187891088, 1182.6
3.843006425431180, 1182.8
3.842459847844463, 1183.0
3.841913455037187, 1183.2
3.841367246915667, 1183.4
3.840821223386279, 1183.6
3.840275384355465, 1183.8
3.839729729729730, 1184.0
3.839184259415639, 1184.2
3.838638973319824, 1184.4
3.838093871348979, 1184.6
3.837548953409858, 1184.8
3.837004219409283, 1185.0
3.836459669254134, 1185.2
3.835915302851358, 1185.4
3.835371120107963, 1185.6
3.834827120931017, 1185.8
3.834283305227656, 1186.0
3.833739672905075, 1186.2
3.833196223870532, 1186.4
3.832652958031350, 1186.6
3.832109875294911, 1186.8
3.831566975568661, 1187.0
3.831024258760108, 1187.2
3.830481724776823, 1187.4
3.829939373526440, 1187.6
3.829397204916653, 1187.8
3.828855218855219, 1188.0
3.828313415249958, 1188.2
3.827771794008751, 1188.4
3.827230355039542, 1188.6
3.826689098250336, 1188.8
3.826148023549201, 1189.0
3.825607130844265, 1189.2
3.825066420043719, 1189.4
3.824525891055817, 1189.6
3.823985543788872, 1189.8
3.823445378151261, 1190.0
3.822905394051419, 1190.2
3.822365591397849, 1190.4
3.821825970099110, 1190.6
3.821286530063823, 1190.8
3.820747271200672, 1191.0
3.820208193418401, 1191.2
3.819669296625818, 1191.4
3.819130580731789, 1191.6
3.818592045645242, 1191.8
3.818053691275168, 1192.0
3.817515517530615, 1192.2
3.816977524320698, 1192.4
3.816439711554587, 1192.6
3.815902079141516, 1192.8
3.815364626990779, 1193.0
3.814827355011733, 1193.2
3.814290263113792, 1193.4
3.813753351206434, 1193.6
3.813216619199196, 1193.8
3.812680067001675, 1194.0
3.812143694523530, 1194.2
3.811607501674481, 1194.4
3.811071488364306, 1194.6
3.810535654502845, 1194.8
3.810000000000000, 1195.0
3.809464524765729, 1195.2
3.808929228710055, 1195.4
3.808394111743058, 1195.6
3.807859173774879, 1195.8
3.807324414715719, 1196.0
3.806789834475840, 1196.2
3.806255432965563, 1196.4
3.805721210095270, 1196.6
3.805187165775401, 1196.8
3.804653299916458, 1197.0
3.804119612429001, 1197.2
3.803586103223651, 1197.4
3.803052772211089, 1197.6
3.802519619302054, 1197.8
3.801986644407346, 1198.0
3.801453847437823, 1198.2
3.800921228304405, 1198.4
3.800388786918071, 1198.6
3.799856523189856, 1198.8
3.799324437030859, 1199.0
3.798792528352235, 1199.2
3.798260797065199, 1199.4
3.797729243081027, 1199.6
3.797197866311052, 1199.8
3.796666666666666, 1200.0
3.796135644059323, 1200.2
3.795604798400533, 1200.4
3.795074129601866, 1200.6
3.794543637574950, 1200.8
3.794013322231474, 1201.0
3.793483183483183, 1201.2
3.792953221241884, 1201.4
3.792423435419441, 1201.6
3.791893825927775, 1201.8
3.791364392678868, 1202.0
3.790835135584761, 1202.2
3.790306054557551, 1202.4
3.789777149509396, 1202.6
3.789248420352511, 1202.8
3.788719866999168, 1203.0
3.788191489361702, 1203.2
3.787663287352501, 1203.4
3.787135260884015, 1203.6
3.786607409868749, 1203.8
3.786079734219269, 1204.0
3.785552233848198, 1204.2
3.785024908668216, 1204.4
3.784497758592064, 1204.6
3.783970783532537, 1204.8
3.783443983402489, 1205.0
3.782917358114835, 1205.2
3.782390907582545, 1205.4
3.781864631718646, 1205.6
3.781338530436225, 1205.8
3.780812603648425, 1206.0
3.780286851268446, 1206.2
3.779761273209549, 1206.4
3.779235869385049, 1206.6
3.778710639708319, 1206.8
3.778185584092792, 1207.0
3.777660702451955, 1207.2
3.777135994699353, 1207.4
3.776611460748593, 1207.6
3.776087100513330, 1207.8
3.775562913907285, 1208.0
3.775038900844231, 1208.2
3.774515061238001, 1208.4
3.773991395002482, 1208.6
3.773467902051622, 1208.8
3.772944582299421, 1209.0
3.772421435659940, 1209.2
3.771898462047296, 1209.4
3.771375661375661, 1209.6
3.770853033559266, 1209.8
3.770330578512397, 1210.0
3.769808296149396, 1210.2
3.769286186384666, 1210.4
3.768764249132662, 1210.6
3.768242484307895, 1210.8
3.767720891824938, 1211.0
3.767199471598415, 1211.2
3.766678223543008, 1211.4
3.766157147573457, 1211.6
3.765636243604555, 1211.8
3.765115511551155, 1212.0
3.764594951328164, 1212.2
3.764074562850544, 1212.4
3.763554346033317, 1212.6
3.763034300791557, 1212.8
3.762514427040395, 1213.0
3.761994724695021, 1213.2
3.761475193670677, 1213.4
3.760955833882663, 1213.6
3.760436645246334, 1213.8
3.759917627677100, 1214.0
3.759398781090430, 1214.2
3.758880105401844, 1214.4
3.758361600526923, 1214.6
3.757843266381297, 1214.8
3.757325102880658, 1215.0
3.756807109940750, 1215.2
3.756289287477373, 1215.4
3.755771635406384, 1215.6
3.755254153643691, 1215.8
3.754736842105263, 1216.0
3.754219700707120, 1216.2
3.753702729365340, 1216.4
3.753185927996055, 1216.6
3.752669296515450, 1216.8
3.752152834839770, 1217.0
3.751636542885310, 1217.2
3.751120420568424, 1217.4
3.750604467805519, 1217.6
3.750088684513056, 1217.8
3.749573070607553, 1218.0
3.749057626005582, 1218.2
3.748542350623769, 1218.4
3.748027244378795, 1218.6
3.747512307187397, 1218.8
3.746997538966366, 1219.0
3.746482939632546, 1219.2
3.745968509102837, 1219.4
3.745454247294195, 1219.6
3.744940154123627, 1219.8
3.744426229508197, 1220.0
3.743912473365022, 1220.2
3.743398885611275, 1220.4
3.742885466164182, 1220.6
3.742372214941022, 1220.8
3.741859131859132, 1221.0
3.741346216835899, 1221.2
3.740833469788767, 1221.4
3.740320890635233, 1221.6
3.739808479292847, 1221.8
3.739296235679214, 1222.0
3.738784159711995, 1222.2
3.738272251308900, 1222.4
3.737760510387699, 1222.6
3.737248936866209, 1222.8
3.736737530662306, 1223.0
3.736226291693917, 1223.2
3.735715219879025, 1223.4
3.735204315135666, 1223.6
3.734693577381925, 1223.8
3.734183006535948, 1224.0
3.733672602515929, 1224.2
3.733162365240117, 1224.4
3.732652294626817, 1224.6
3.732142390594383, 1224.8
3.731632653061224, 1225.0
3.731123081945805, 1225.2
3.730613677166639, 1225.4
3.730104438642298, 1225.6
3.729595366291401, 1225.8
3.729086460032626, 1226.0
3.728577719784700, 1226.2
3.728069145466405, 1226.4
3.727560736996576, 1226.6
3.727052494294099, 1226.8
3.726544417277914, 1227.0
3.726036505867014, 1227.2
3.725528759980446, 1227.4
3.725021179537308, 1227.6
3.724513764456752, 1227.8
3.724006514657980, 1228.0
3.723499430060250, 1228.2
3.722992510582872, 1228.4
3.722485756145206, 1228.6
3.721979166666667, 1228.8
3.721472742066721, 1229.0
3.720966482264887, 1229.2
3.720460387180738, 1229.4
3.719954456733897, 1229.6
3.719448690844040, 1229.8
3.718943089430894, 1230.0
3.718437652414242, 1230.2
3.717932379713914, 1230.4
3.717427271249797, 1230.6
3.716922326941826, 1230.8
3.716417546709992, 1231.0
3.715912930474334, 1231.2
3.715408478154945, 1231.4
3.714904189671972, 1231.6
3.714400064945608, 1231.8
3.713896103896104, 1232.0
3.713392306443759, 1232.2
3.712888672508925, 1232.4
3.712385202012007, 1232.6
3.711881894873459, 1232.8
3.711378751013787, 1233.0
3.710875770353551, 1233.2
3.710372952813361, 1233.4
3.709870298313878, 1233.6
3.709367806775814, 1233.8
3.708865478119935, 1234.0
3.708363312267055, 1234.2
3.707861309138043, 1234.4
3.707359468653815, 1234.6
3.706857790735342, 1234.8
3.706356275303643, 1235.0
3.705854922279793, 1235.2
3.705353731584911, 1235.4
3.704852703140175, 1235.6
3.704351836866807, 1235.8
3.703851132686084, 1236.0
3.703350590519333, 1236.2
3.702850210287932, 1236.4
3.702349991913311, 1236.6
3.701849935316947, 1236.8
3.701350040420372, 1237.0
3.700850307145166, 1237.2
3.700350735412962, 1237.4
3.699851325145443, 1237.6
3.699352076264340, 1237.8
3.698852988691438, 1238.0
3.698354062348570, 1238.2
3.697855297157622, 1238.4
3.697356693040530, 1238.6
3.696858249919277, 1238.8
3.696359967715900, 1239.0
3.695861846352485, 1239.2
3.695363885751170, 1239.4
3.694866085834140, 1239.6
3.694368446523633, 1239.8
3.693870967741935, 1240.0
3.693373649411385, 1240.2
3.692876491454369, 1240.4
3.692379493793326, 1240.6
3.691882656350741, 1240.8
3.691385979049154, 1241.0
3.690889461811150, 1241.2
3.690393104559368, 1241.4
3.689896907216495, 1241.6
3.689400869705266, 1241.8
3.688904991948470, 1242.0
3.688409273868942, 1242.2
3.687913715389568, 1242.4
3.687418316433285, 1242.6
3.686923076923077, 1242.8
3.686427996781979, 1243.0
3.685933075933076, 1243.2
3.685438314299501, 1243.4
3.684943711804439, 1243.6
3.684449268371121, 1243.8
3.683954983922829, 1244.0
3.683460858382896, 1244.2
3.682966891674702, 1244.4
3.682473083721678, 1244.6
3.681979434447301, 1244.8
3.681485943775100, 1245.0
3.680992611628654, 1245.2
3.680499437931588, 1245.4
3.680006422607579, 1245.6
3.679513565580350, 1245.8
3.679020866773675, 1246.0
3.678528326111378, 1246.2
3.678035943517330, 1246.4
3.677543718915450, 1246.6
3.677051652229708, 1246.8
3.676559743384122, 1247.0
3.676067992302758, 1247.2
3.675576398909732, 1247.4
3.675084963129208, 1247.6
3.674593684885398, 1247.8
3.674102564102564, 1248.0
3.673611600705015, 1248.2
3.673120794617109, 1248.4
3.672630145763255, 1248.6
3.672139654067905, 1248.8
3.671649319455564, 1249.0
3.671159141850784, 1249.2
3.670669121178165, 1249.4
3.670179257362356, 1249.6
3.669689550328052, 1249.8
3.669200000000000, 1250.0
3.668710606302991, 1250.2
3.668221369161868, 1250.4
3.667732288501520, 1250.6
3.667243364246882, 1250.8
3.666754596322941, 1251.0
3.666265984654731, 1251.2
3.665777529167332, 1251.4
3.665289229785874, 1251.6
3.664801086435533, 1251.8
3.664313099041534, 1252.0
3.663825267529148, 1252.2
3.663337591823698, 1252.4
3.662850071850551, 1252.6
3.662362707535121, 1252.8
3.661875498802873, 1253.0
3.661388445579317, 1253.2
3.660901547790011, 1253.4
3.660414805360562, 1253.6
3.659928218216622, 1253.8
3.659441786283891, 1254.0
3.658955509488120, 1254.2
3.658469387755102, 1254.4
3.657983421010681, 1254.6
3.657497609180746, 1254.8
3.657011952191235, 1255.0
3.656526449968132, 1255.2
3.656041102437470, 1255.4
3.655555909525327, 1255.6
3.655070871157827, 1255.8
3.654585987261147, 1256.0
3.654101257761503, 1256.2
3.653616682585163, 1256.4
3.653132261658444, 1256.6
3.652647994907702, 1256.8
3.652163882259348, 1257.0
3.651679923639835, 1257.2
3.651196118975664, 1257.4
3.650712468193384, 1257.6
3.650228971219590, 1257.8
3.649745627980922, 1258.0
3.649262438404069, 1258.2
3.648779402415766, 1258.4
3.648296519942793, 1258.6
3.647813790911980, 1258.8
3.647331215250198, 1259.0
3.646848792884371, 1259.2
3.646366523741464, 1259.4
3.645884407748492, 1259.6
3.645402444832513, 1259.8
3.644920634920635, 1260.0
3.644438977940009, 1260.2
3.643957473817835, 1260.4
3.643476122481358, 1260.6
3.642994923857868, 1260.8
3.642513877874702, 1261.0
3.642032984459245, 1261.2
3.641552243538924, 1261.4
3.641071655041217, 1261.6
3.640591218893644, 1261.8
3.640110935023772, 1262.0
3.639630803359214, 1262.2
3.639150823827630, 1262.4
3.638670996356725, 1262.6
3.638191320874248, 1262.8
3.637711797307997, 1263.0
3.637232425585814, 1263.2
3.636753205635586, 1263.4
3.636274137385249, 1263.6
3.635795220762779, 1263.8
3.635316455696203, 1264.0
3.634837842113589, 1264.2
3.634359379943056, 1264.4
3.633881069112763, 1264.6
3.633402909550917, 1264.8
3.632924901185770, 1265.0
3.632447043945621, 1265.2
3.631969337758811, 1265.4
3.631491782553729, 1265.6
3.631014378258809, 1265.8
3.630537124802527, 1266.0
3.630060022113410, 1266.2
3.629583070120025, 1266.4
3.629106268750987, 1266.6
3.628629617934954, 1266.8
3.628153117600631, 1267.0
3.627676767676768, 1267.2
3.627200568092157, 1267.4
3.626724518775639, 1267.6
3.626248619656097, 1267.8
3.625772870662460, 1268.0
3.625297271723703, 1268.2
3.624821822768842, 1268.4
3.624346523726943, 1268.6
3.623871374527112, 1268.8
3.623396375098503, 1269.0
3.622921525370312, 1269.2
3.622446825271782, 1269.4
3.621972274732199, 1269.6
3.621497873680894, 1269.8
3.621023622047244, 1270.0
3.620549519760667, 1270.2
3.620075566750629, 1270.4
3.619601762946639, 1270.6
3.619128108278250, 1270.8
3.618654602675059, 1271.0
3.618181246066708, 1271.2
3.617708038382885, 1271.4
3.617234979553319, 1271.6
3.616762069507784, 1271.8
3.616289308176101, 1272.0
3.615816695488131, 1272.2
3.615344231373781, 1272.4
3.614871915763005, 1272.6
3.614399748585795, 1272.8
3.613927729772191, 1273.0
3.613455859252277, 1273.2
3.612984136956180, 1273.4
3.612512562814071, 1273.6
3.612041136756162, 1273.8
3.611569858712716, 1274.0
3.611098728614032, 1274.2
3.610627746390458, 1274.4
3.610156911972384, 1274.6
3.609686225290242, 1274.8
3.609215686274510, 1275.0
3.608745294855709, 1275.2
3.608275050964403, 1275.4
3.607804954531201, 1275.6
3.607335005486753, 1275.8
3.606865203761755, 1276.0
3.606395549286945, 1276.2
3.605926041993105, 1276.4
3.605456681811061, 1276.6
3.604987468671679, 1276.8
3.604518402505873, 1277.0
3.604049483244598, 1277.2
3.603580710818850, 1277.4
3.603112085159674, 1277.6
3.602643606198153, 1277.8
3.602175273865415, 1278.0
3.601707088092630, 1278.2
3.601239048811014, 1278.4
3.600771155951823, 1278.6
3.600303409446356, 1278.8
3.599835809225957, 1279.0
3.599368355222014, 1279.2
3.598901047365953, 1279.4
3.598433885589247, 1279.6
3.597966869823410, 1279.8
3.597500000000000, 1280.0
3.597033276050617, 1280.2
3.596566697906904, 1280.4
3.596100265500547, 1280.6
3.595633978763273, 1280.8
3.595167837626854, 1281.0
3.594701842023103, 1281.2
3.594235991883877, 1281.4
3.593770287141074, 1281.6
3.593304727726634, 1281.8
3.592839313572543, 1282.0
3.592374044610825, 1282.2
3.591908920773549, 1282.4
3.591443941992827, 1282.6
3.590979108200811, 1282.8
3.590514419329696, 1283.0
3.590049875311720, 1283.2
3.589585476079165, 1283.4
3.589121221564350, 1283.6
3.588657111699642, 1283.8
3.588193146417445, 1284.0
3.587729325650210, 1284.2
3.587265649330426, 1284.4
3.586802117390627, 1284.6
3.586338729763387, 1284.8
3.585875486381323, 1285.0
3.585412387177093, 1285.2
3.584949432083398, 1285.4
3.584486621032981, 1285.6
3.584023953958625, 1285.8
3.583561430793157, 1286.0
3.583099051469445, 1286.2
3.582636815920398, 1286.4
3.582174724078968, 1286.6
3.581712775878148, 1286.8
3.581250971250971, 1287.0
3.580789310130516, 1287.2
3.580327792449899, 1287.4
3.579866418142280, 1287.6
3.579405187140861, 1287.8
3.578944099378882, 1288.0
3.578483154789629, 1288.2
3.578022353306426, 1288.4
3.577561694862642, 1288.6
3.577101179391682, 1288.8
3.576640806826997, 1289.0
3.576180577102078, 1289.2
3.575720490150457, 1289.4
3.575260545905707, 1289.6
3.574800744301442, 1289.8
3.574341085271318, 1290.0
3.573881568749031, 1290.2
3.573422194668320, 1290.4
3.572962962962963, 1290.6
3.572503873566780, 1290.8
3.572044926413633, 1291.0
3.571586121437422, 1291.2
3.571127458572092, 1291.4
3.570668937751626, 1291.6
3.570210558910048, 1291.8
3.569752321981424, 1292.0
3.569294226899860, 1292.2
3.568836273599505, 1292.4
3.568378462014544, 1292.6
3.567920792079208, 1292.8
3.567463263727765, 1293.0
3.567005876894525, 1293.2
3.566548631513839, 1293.4
3.566091527520099, 1293.6
3.565634564847735, 1293.8
3.565177743431221, 1294.0
3.564721063205068, 1294.2
3.564264524103832, 1294.4
3.563808126062104, 1294.6
3.563351869014519, 1294.8
3.562895752895753, 1295.0
3.562439777640519, 1295.2
3.561983943183572, 1295.4
3.561528249459710, 1295.6
3.561072696403766, 1295.8
3.560617283950617, 1296.0
3.560162012035180, 1296.2
3.559706880592409, 1296.4
3.559251889557304, 1296.6
3.558797038864898, 1296.8
3.558342328450270, 1297.0
3.557887758248535, 1297.2
3.557433328194851, 1297.4
3.556979038224414, 1297.6
3.556524888272461, 1297.8
3.556070878274268, 1298.0
3.555617008165151, 1298.2
3.555163277880468, 1298.4
3.554709687355614, 1298.6
3.554256236526024, 1298.8
3.553802925327175, 1299.0
3.553349753694581, 1299.2
3.552896721563799, 1299.4
3.552443828870422, 1299.6
3.551991075550085, 1299.8
3.551538461538462, 1300.0
3.551085986771266, 1300.2
3.550633651184250, 1300.4
3.550181454713210, 1300.6
3.549729397293973, 1300.8
3.549277478862413, 1301.0
3.548825699354442, 1301.2
3.548374058706008, 1301.4
3.547922556853104, 1301.6
3.547471193731756, 1301.8
3.547019969278034, 1302.0
3.546568883428045, 1302.2
3.546117936117936, 1302.4
3.545667127283894, 1302.6
3.545216456862143, 1302.8
3.544765924788948, 1303.0
3.544315531000614, 1303.2
3.543865275433481, 1303.4
3.543415158023934, 1303.6
3.542965178708391, 1303.8
3.542515337423313, 1304.0
3.542065634105198, 1304.2
3.541616068690586, 1304.4
3.541166641116051, 1304.6
3.540717351318210, 1304.8
3.540268199233716, 1305.0
3.539819184799264, 1305.2
3.539370307951585, 1305.4
3.538921568627451, 1305.6
3.538472966763670, 1305.8
3.538024502297090, 1306.0
3.537576175164599, 1306.2
3.537127985303123, 1306.4
3.536679932649625, 1306.6
3.536232017141108, 1306.8
3.535784238714613, 1307.0
3.535336597307221, 1307.2
3.534889092856050, 1307.4
3.534441725298256, 1307.6
3.533994494571035, 1307.8
3.533547400611621, 1308.0
3.533100443357285, 1308.2
3.532653622745337, 1308.4
3.532206938713129, 1308.6
3.531760391198044, 1308.8
3.531313980137509, 1309.0
3.530867705468988, 1309.2
3.530421567129983, 1309.4
3.529975565058033, 1309.6
3.529529699190716, 1309.8
3.529083969465649, 1310.0
3.528638375820485, 1310.2
3.528192918192918, 1310.4
3.527747596520677, 1310.6
3.527302410741532, 1310.8
3.526857360793287, 1311.0
3.526412446613789, 1311.2
3.525967668140918, 1311.4
3.525523025312595, 1311.6
3.525078518066779, 1311.8
3.524634146341463, 1312.0
3.524189910074683, 1312.2
3.523745809204510, 1312.4
3.523301843669054, 1312.6
3.522858013406459, 1312.8
3.522414318354912, 1313.0
3.521970758452635, 1313.2
3.521527333637886, 1313.4
3.521084043848965, 1313.6
3.520640889024205, 1313.8
3.520197869101978, 1314.0
3.519754984020697, 1314.2
3.519312233718807, 1314.4
3.518869618134794, 1314.6
3.518427137207180, 1314.8
3.517984790874525, 1315.0
3.517542579075426, 1315.2
3.517100501748517, 1315.4
3.516658558832472, 1315.6
3.516216750265998, 1315.8
3.515775075987842, 1316.0
3.515333535936787, 1316.2
3.514892130051656, 1316.4
3.514450858271305, 1316.6
3.514009720534629, 1316.8
3.513568716780562, 1317.0
3.513127846948072, 1317.2
3.512687110976165, 1317.4
3.512246508803886, 1317.6
3.511806040370314, 1317.8
3.511365705614567, 1318.0
3.510925504475800, 1318.2
3.510485436893203, 1318.4
3.510045502806006, 1318.6
3.509605702153473, 1318.8
3.509166034874905, 1319.0
3.508726500909642, 1319.2
3.508287100197059, 1319.4
3.507847832676569, 1319.6
3.507408698287619, 1319.8
3.506969696969697, 1320.0
3.506530828662324, 1320.2
3.506092093305059, 1320.4
3.505653490837498, 1320.6
3.505215021199273, 1320.8
3.504776684330053, 1321.0
3.504338480169543, 1321.2
3.503900408657484, 1321.4
3.503462469733656, 1321.6
3.503024663337873, 1321.8
3.502586989409985, 1322.0
3.502149447889880, 1322.2
3.501712038717483, 1322.4
3.501274761832754, 1322.6
3.500837617175688, 1322.8
3.500400604686319, 1323.0
3.499963724304715, 1323.2
3.499526975970984, 1323.4
3.499090359625264, 1323.6
3.498653875207735, 1323.8
3.498217522658610, 1324.0
3.497781301918139, 1324.2
3.497345212926608, 1324.4
3.496909255624340, 1324.6
3.496473429951691, 1324.8
3.496037735849057, 1325.0
3.495602173256867, 1325.2
3.495166742115587, 1325.4
3.494731442365721, 1325.6
3.494296273947805, 1325.8
3.493861236802413, 1326.0
3.493426330870155, 1326.2
3.492991556091676, 1326.4
3.492556912407659, 1326.6
3.492122399758818, 1326.8
3.491688018085908, 1327.0
3.491253767329717, 1327.2
3.490819647431068, 1327.4
3.490385658330823, 1327.6
3.489951799969875, 1327.8
3.489518072289156, 1328.0
3.489084475229634, 1328.2
3.488651008732309, 1328.4
3.488217672738221, 1328.6
3.487784467188441, 1328.8
3.487351392024078, 1329.0
3.486918447186277, 1329.2
3.486485632616218, 1329.4
3.486052948255114, 1329.6
3.485620394044217, 1329.8
3.485187969924812, 1330.0
3.484755675838219, 1330.2
3.484323511725796, 1330.4
3.483891477528934, 1330.6
3.483459573189059, 1330.8
3.483027798647633, 1331.0
3.482596153846154, 1331.2
3.482164638726152, 1331.4
3.481733253229198, 1331.6
3.481301997296891, 1331.8
3.480870870870871, 1332.0
3.480439873892809, 1332.2
3.480009006304413, 1332.4
3.479578268047426, 1332.6
3.479147659063625, 1332.8
3.478717179294823, 1333.0
3.478286828682868, 1333.2
3.477856607169641, 1333.4
3.477426514697061, 1333.6
3.476996551207078, 1333.8
3.476566716641679, 1334.0
3.476137010942887, 1334.2
3.475707434052758, 1334.4
3.475277985913382, 1334.6
3.474848666466886, 1334.8
3.474419475655431, 1335.0
3.473990413421210, 1335.2
3.473561479706455, 1335.4
3.473132674453429, 1335.6
3.472703997604432, 1335.8
3.472275449101796, 1336.0
3.471847028887891, 1336.2
3.471418736905118, 1336.4
3.470990573095915, 1336.6
3.470562537402753, 1336.8
3.470134629768137, 1337.0
3.469706850134609, 1337.2
3.469279198444743, 1337.4
3.468851674641148, 1337.6
3.468424278666467, 1337.8
3.467997010463378, 1338.0
3.467569869974592, 1338.2
3.467142857142857, 1338.4
3.466715971910952, 1338.6
3.466289214221691, 1338.8
3.465862584017924, 1339.0
3.465436081242533, 1339.2
3.465009705838435, 1339.4
3.464583457748582, 1339.6
3.464157336915958, 1339.8
3.463731343283582, 1340.0
3.463305476794508, 1340.2
3.462879737391823, 1340.4
3.462454125018648, 1340.6
3.462028639618139, 1340.8
3.461603281133482, 1341.0
3.461178049507903, 1341.2
3.460752944684657, 1341.4
3.460327966607037, 1341.6
3.459903115218363, 1341.8
3.459478390461997, 1342.0
3.459053792281329, 1342.2
3.458629320619785, 1342.4
3.458204975420825, 1342.6
3.457780756627942, 1342.8
3.457356664184661, 1343.0
3.456932698034544, 1343.2
3.456508858121185, 1343.4
3.456085144388211, 1343.6
3.455661556779283, 1343.8
3.455238095238095, 1344.0
3.454814759708376, 1344.2
3.454391550133888, 1344.4
3.453968466458426, 1344.6
3.453545508625818, 1344.8
3.453122676579925, 1345.0
3.452699970264645, 1345.2
3.452277389623903, 1345.4
3.451854934601665, 1345.6
3.451432605141923, 1345.8
3.451010401188707, 1346.0
3.450588322686079, 1346.2
3.450166369578134, 1346.4
3.449744541809001, 1346.6
3.449322839322839, 1346.8
3.448901262063846, 1347.0
3.448479809976247, 1347.2
3.448058483004304, 1347.4
3.447637281092312, 1347.6
3.447216204184597, 1347.8
3.446795252225519, 1348.0
3.446374425159472, 1348.2
3.445953722930881, 1348.4
3.445533145484206, 1348.6
3.445112692763938, 1348.8
3.444692364714603, 1349.0
3.444272161280759, 1349.2
3.443852082406996, 1349.4
3.443432128037937, 1349.6
3.443012298118240, 1349.8
3.442592592592593, 1350.0
3.442173011405718, 1350.2
3.441753554502369, 1350.4
3.441334221827336, 1350.6
3.440915013325437, 1350.8
3.440495928941524, 1351.0
3.440076968620485, 1351.2
3.439658132307237, 1351.4
3.439239419946730, 1351.6
3.438820831483947, 1351.8
3.438402366863905, 1352.0
3.437984026031652, 1352.2
3.437565808932268, 1352.4
3.437147715510868, 1352.6
3.436729745712596, 1352.8
3.436311899482631, 1353.0
3.435894176766184, 1353.2
3.435476577508497, 1353.4
3.435059101654846, 1353.6
3.434641749150539, 1353.8
3.434224519940916, 1354.0
3.433807413971348, 1354.2
3.433390431187241, 1354.4
3.432973571534032, 1354.6
3.432556834957189, 1354.8
3.432140221402214, 1355.0
3.431723730814640, 1355.2
3.431307363140032, 1355.4
3.430891118323990, 1355.6
3.430474996312141, 1355.8
3.430058997050147, 1356.0
3.429643120483704, 1356.2
3.429227366558537, 1356.4
3.428811735220404, 1356.6
3.428396226415094, 1356.8
3.427980840088430, 1357.0
3.427565576186266, 1357.2
3.427150434654486, 1357.4
3.426735415439010, 1357.6
3.426320518485786, 1357.8
3.425905743740795, 1358.0
3.425491091150051, 1358.2
3.425076560659599, 1358.4
3.424662152215516, 1358.6
3.424247865763909, 1358.8
3.423833701250920, 1359.0
3.423419658622719, 1359.2
3.423005737825511, 1359.4
3.422591938805531, 1359.6
3.422178261509045, 1359.8
3.421764705882353, 1360.0
3.421351271871783, 1360.2
3.420937959423699, 1360.4
3.420524768484492, 1360.6
3.420111699000588, 1360.8
3.419698750918442, 1361.0
3.419285924184543, 1361.2
3.418873218745409, 1361.4
3.418460634547591, 1361.6
3.418048171537670, 1361.8
3.417635829662261, 1362.0
3.417223608868007, 1362.2
3.416811509101585, 1362.4
3.416399530309702, 1362.6
3.415987672439096, 1362.8
3.415575935436537, 1363.0
3.415164319248826, 1363.2
3.414752823822796, 1363.4
3.414341449105310, 1363.6
3.413930195043261, 1363.8
3.413519061583578, 1364.0
3.413108048673215, 1364.2
3.412697156259161, 1364.4
3.412286384288436, 1364.6
3.411875732708089, 1364.8
3.411465201465201, 1365.0
3.411054790506885, 1365.2
3.410644499780284, 1365.4
3.410234329232572, 1365.6
3.409824278810953, 1365.8
3.409414348462664, 1366.0
3.409004538134973, 1366.2
3.408594847775175, 1366.4
3.408185277330602, 1366.6
3.407775826748610, 1366.8
3.407366495976591, 1367.0
3.406957284961966, 1367.2
3.406548193652186, 1367.4
3.406139221994736, 1367.6
3.405730369937125, 1367.8
3.405321637426900, 1368.0
3.404913024411635, 1368.2
3.404504530838936, 1368.4
3.404096156656437, 1368.6
3.403687901811806, 1368.8
3.403279766252739, 1369.0
3.402871749926964, 1369.2
3.402463852782240, 1369.4
3.402056074766355, 1369.6
3.401648415827128, 1369.8
3.401240875912408, 1370.0
3.400833454970077, 1370.2
3.400426152948044, 1370.4
3.400018969794251, 1370.6
3.399611905456668, 1370.8
3.399204959883297, 1371.0
3.398798133022170, 1371.2
3.398391424821350, 1371.4
3.397984835228930, 1371.6
3.397578364193031, 1371.8
3.397172011661807, 1372.0
3.396765777583442, 1372.2
3.396359661906149, 1372.4
3.395953664578173, 1372.6
3.395547785547786, 1372.8
3.395142024763292, 1373.0
3.394736382173026, 1373.2
3.394330857725353, 1373.4
3.393925451368666, 1373.6
3.393520163051390, 1373.8
3.393114992721979, 1374.0
3.392709940328918, 1374.2
3.392305005820722, 1374.4
3.391900189145933, 1374.6
3.391495490253128, 1374.8
3.391090909090909, 1375.0
3.390686445607912, 1375.2
3.390282099752799, 1375.4
3.389877871474266, 1375.6
3.389473760721035, 1375.8
3.389069767441860, 1376.0
3.388665891585525, 1376.2
3.388262133100842, 1376.4
3.387858491936655, 1376.6
3.387454968041836, 1376.8
3.387051561365287, 1377.0
3.386648271855939, 1377.2
3.386245099462756, 1377.4
3.385842044134727, 1377.6
3.385439105820874, 1377.8
3.385036284470246, 1378.0
3.384633580031926, 1378.2
3.384230992455020, 1378.4
3.383828521688670, 1378.6
3.383426167682043, 1378.8
3.383023930384336, 1379.0
3.382621809744780, 1379.2
3.382219805712628, 1379.4
3.381817918237170, 1379.6
3.381416147267720, 1379.8
3.381014492753623, 1380.0
3.380612954644254, 1380.2
3.380211532889017, 1380.4
3.379810227437346, 1380.6
3.379409038238702, 1380.8
3.379007965242578, 1381.0
3.378607008398494, 1381.2
3.378206167656001, 1381.4
3.377805442964679, 1381.6
3.377404834274135, 1381.8
3.377004341534009, 1382.0
3.376603964693966, 1382.2
3.376203703703704, 1382.4
3.375803558512947, 1382.6
3.375403529071449, 1382.8
3.375003615328995, 1383.0
3.374603817235396, 1383.2
3.374204134740494, 1383.4
3.373804567794160, 1383.6
3.373405116346293, 1383.8
3.373005780346821, 1384.0
3.372606559745701, 1384.2
3.372207454492921, 1384.4
3.371808464538495, 1384.6
3.371409589832467, 1384.8
3.371010830324910, 1385.0
3.370612185965925, 1385.2
3.370213656705644, 1385.4
3.369815242494226, 1385.6
3.369416943281859, 1385.8
3.369018759018759, 1386.0
3.368620689655172, 1386.2
3.368222735141373, 1386.4
3.367824895427665, 1386.6
3.367427170464378, 1386.8
3.367029560201874, 1387.0
3.366632064590542, 1387.2
3.366234683580798, 1387.4
3.365837417123090, 1387.6
3.365440265167892, 1387.8
3.365043227665706, 1388.0
3.364646304567065, 1388.2
3.364249495822529, 1388.4
3.363852801382688, 1388.6
3.363456221198156, 1388.8
3.363059755219582, 1389.0
3.362663403397639, 1389.2
3.362267165683028, 1389.4
3.361871042026483, 1389.6
3.361475032378760, 1389.8
3.361079136690647, 1390.0
3.360683354912962, 1390.2
3.360287686996548, 1390.4
3.359892132892277, 1390.6
3.359496692551050, 1390.8
3.359101365923796, 1391.0
3.358706152961472, 1391.2
3.358311053615064, 1391.4
3.357916067835585, 1391.6
3.357521195574077, 1391.8
3.357126436781609, 1392.0
3.356731791409280, 1392.2
3.356337259408216, 1392.4
3.355942840729571, 1392.6
3.355548535324526, 1392.8
3.355154343144293, 1393.0
3.354760264140109, 1393.2
3.354366298263241, 1393.4
3.353972445464983, 1393.6
3.353578705696656, 1393.8
3.353185078909612, 1394.0
3.352791565055229, 1394.2
3.352398164084911, 1394.4
3.352004875950093, 1394.6
3.351611700602237, 1394.8
3.351218637992831, 1395.0
3.350825688073394, 1395.2
3.350432850795471, 1395.4
3.350040126110633, 1395.6
3.349647513970483, 1395.8
3.349255014326647, 1396.0
3.348862627130783, 1396.2
3.348470352334574, 1396.4
3.348078189889732, 1396.6
3.347686139747995, 1396.8
3.347294201861131, 1397.0
3.346902376180933, 1397.2
3.346510662659224, 1397.4
3.346119061247853, 1397.6
3.345727571898698, 1397.8
3.345336194563662, 1398.0
3.344944929194678, 1398.2
3.344553775743707, 1398.4
3.344162734162734, 1398.6
3.343771804403775, 1398.8
3.343380986418870, 1399.0
3.342990280160091, 1399.2
3.342599685579534, 1399.4
3.342209202629323, 1399.6
3.341818831261609, 1399.8
3.341428571428571, 1400.0
3.341038423082416, 1400.2
3.340648386175378, 1400.4
3.340258460659717, 1400.6
3.339868646487721, 1400.8
3.339478943611706, 1401.0
3.339089351984013, 1401.2
3.338699871557014, 1401.4
3.338310502283105, 1401.6
3.337921244114709, 1401.8
3.337532097004280, 1402.0
3.337143060904293, 1402.2
3.336754135767256, 1402.4
3.336365321545701, 1402.6
3.335976618192187, 1402.8
3.335588025659301, 1403.0
3.335199543899658, 1403.2
3.334811172865897, 1403.4
3.334422912510687, 1403.6
3.334034762786722, 1403.8
3.333646723646723, 1404.0
3.333258795043441, 1404.2
3.332870976929649, 1404.4
3.332483269258152, 1404.6
3.332095671981777, 1404.8
3.331708185053381, 1405.0
3.331320808425847, 1405.2
3.330933542052084, 1405.4
3.330546385885031, 1405.6
3.330159339877650, 1405.8
3.329772403982930, 1406.0
3.329385578153890, 1406.2
3.328998862343572, 1406.4
3.328612256505048, 1406.6
3.328225760591413, 1406.8
3.327839374555792, 1407.0
3.327453098351336, 1407.2
3.327066931931220, 1407.4
3.326680875248650, 1407.6
3.326294928256855, 1407.8
3.325909090909091, 1408.0
3.325523363158642, 1408.2
3.325137744958818, 1408.4
3.324752236262956, 1408.6
3.324366837024418, 1408.8
3.323981547196593, 1409.0
3.323596366732898, 1409.2
3.323211295586774, 1409.4
3.322826333711691, 1409.6
3.322441481061143, 1409.8
3.322056737588652, 1410.0
3.321672103247766, 1410.2
3.321287577992059, 1410.4
3.320903161775131, 1410.6
3.320518854550610, 1410.8
3.320134656272147, 1411.0
3.319750566893424, 1411.2
3.319366586368145, 1411.4
3.318982714650042, 1411.6
3.318598951692874, 1411.8
3.318215297450425, 1412.0
3.317831751876505, 1412.2
3.317448314924950, 1412.4
3.317064986549625, 1412.6
3.316681766704417, 1412.8
3.316298655343241, 1413.0
3.315915652420039, 1413.2
3.315532757888779, 1413.4
3.315149971703452, 1413.6
3.314767293818079, 1413.8
3.314384724186704, 1414.0
3.314002262763399, 1414.2
3.313619909502262, 1414.4
3.313237664357416, 1414.6
3.312855527283008, 1414.8
3.312473498233215, 1415.0
3.312091577162238, 1415.2
3.311709764024304, 1415.4
3.311328058773665, 1415.6
3.310946461364599, 1415.8
3.310564971751413, 1416.0
3.310183589888434, 1416.2
3.309802315730019, 1416.4
3.309421149230552, 1416.6
3.309040090344438, 1416.8
3.308659139026112, 1417.0
3.308278295230031, 1417.2
3.307897558910681, 1417.4
3.307516930022573, 1417.6
3.307136408520242, 1417.8
3.306755994358251, 1418.0
3.306375687491186, 1418.2
3.305995487873660, 1418.4
3.305615395460313, 1418.6
3.305235410205808, 1418.8
3.304855532064834, 1419.0
3.304475760992108, 1419.2
3.304096096942370, 1419.4
3.303716539870386, 1419.6
3.303337089730948, 1419.8
3.302957746478873, 1420.0
3.302578510069004, 1420.2
3.302199380456209, 1420.4
3.301820357595382, 1420.6
3.301441441441441, 1420.8
3.301062631949331, 1421.0
3.300683929074022, 1421.2
3.300305332770508, 1421.4
3.299926842993810, 1421.6
3.299548459698973, 1421.8
3.299170182841069, 1422.0
3.298792012375193, 1422.2
3.298413948256468, 1422.4
3.298035990440039, 1422.6
3.297658138881080, 1422.8
3.297280393534785, 1423.0
3.296902754356380, 1423.2
3.296525221301110, 1423.4
3.296147794324249, 1423.6
3.295770473381093, 1423.8
3.295393258426966, 1424.0
3.295016149417216, 1424.2
3.294639146307217, 1424.4
3.294262249052366, 1424.6
3.293885457608085, 1424.8
3.293508771929825, 1425.0
3.293132191973056, 1425.2
3.292755717693279, 1425.4
3.292379349046016, 1425.6
3.292003085986814, 1425.8
3.291626928471248, 1426.0
3.291250876454915, 1426.2
3.290874929893438, 1426.4
3.290499088742465, 1426.6
3.290123352957667, 1426.8
3.289747722494744, 1427.0
3.289372197309417, 1427.2
3.288996777357433, 1427.4
3.288621462594564, 1427.6
3.288246252976607, 1427.8
3.287871148459383, 1428.0
3.287496148998740, 1428.2
3.287121254550546, 1428.4
3.286746465070699, 1428.6
3.286371780515117, 1428.8
3.285997200839748, 1429.0
3.285622726000560, 1429.2
3.285248355953547, 1429.4
3.284874090654728, 1429.6
3.284499930060148, 1429.8
3.284125874125874, 1430.0
3.283751922807999, 1430.2
3.283378076062640, 1430.4
3.283004333845939, 1430.6
3.282630696114062, 1430.8
3.282257162823200, 1431.0
3.281883733929569, 1431.2
3.281510409389409, 1431.4
3.281137189158983, 1431.6
3.280764073194580, 1431.8
3.280391061452514, 1432.0
3.280018153889122, 1432.2
3.279645350460765, 1432.4
3.279272651123831, 1432.6
3.278900055834729, 1432.8
3.278527564549895, 1433.0
3.278155177225788, 1433.2
3.277782893818892, 1433.4
3.277410714285714, 1433.6
3.277038638582787, 1433.8
3.276666666666666, 1434.0
3.276294798493934, 1434.2
3.275923034021193, 1434.4
3.275551373205075, 1434.6
3.275179816002230, 1434.8
3.274808362369338, 1435.0
3.274437012263099, 1435.2
3.274065765640239, 1435.4
3.273694622457509, 1435.6
3.273323582671681, 1435.8
3.272952646239554, 1436.0
3.272581813117950, 1436.2
3.272211083263715, 1436.4
3.271840456633718, 1436.6
3.271469933184855, 1436.8
3.271099512874043, 1437.0
3.270729195658224, 1437.2
3.270358981494364, 1437.4
3.269988870339455, 1437.6
3.269618862150508, 1437.8
3.269248956884562, 1438.0
3.268879154498679, 1438.2
3.268509454949944, 1438.4
3.268139858195468, 1438.6
3.267770364192383, 1438.8
3.267400972897846, 1439.0
3.267031684269038, 1439.2
3.266662498263165, 1439.4
3.266293414837455, 1439.6
3.265924433949160, 1439.8
3.265555555555555, 1440.0
3.265186779613942, 1440.2
3.264818106081644, 1440.4
3.264449534916007, 1440.6
3.264081066074403, 1440.8
3.263712699514226, 1441.0
3.263344435192895, 1441.2
3.262976273067850, 1441.4
3.262608213096559, 1441.6
3.262240255236510, 1441.8
3.261872399445215, 1442.0
3.261504645680211, 1442.2
3.261136993899057, 1442.4
3.260769444059338, 1442.6
3.260401996118658, 1442.8
3.260034650034650, 1443.0
3.259667405764966, 1443.2
3.259300263267285, 1443.4
3.258933222499307, 1443.6
3.258566283418756, 1443.8
3.258199445983379, 1444.0
3.257832710150948, 1444.2
3.257466075879258, 1444.4
3.257099543126125, 1444.6
3.256733111849391, 1444.8
3.256366782006920, 1445.0
3.256000553556601, 1445.2
3.255634426456344, 1445.4
3.255268400664084, 1445.6
3.254902476137778, 1445.8
3.254536652835408, 1446.0
3.254170930714977, 1446.2
3.253805309734513, 1446.4
3.253439789852067, 1446.6
3.253074371025712, 1446.8
3.252709053213545, 1447.0
3.252343836373687, 1447.2
3.251978720464280, 1447.4
3.251613705443493, 1447.6
3.251248791269512, 1447.8
3.250883977900553, 1448.0
3.250519265294848, 1448.2
3.250154653410660, 1448.4
3.249790142206268, 1448.6
3.249425731639978, 1448.8
3.249061421670117, 1449.0
3.248697212255037, 1449.2
3.248333103353112, 1449.4
3.247969094922738, 1449.6
3.247605186922334, 1449.8
3.247241379310345, 1450.0
3.246877672045235, 1450.2
3.246514065085493, 1450.4
3.246150558389632, 1450.6
3.245787151916184, 1450.8
3.245423845623708, 1451.0
3.245060639470783, 1451.2
3.244697533416012, 1451.4
3.244334527418022, 1451.6
3.243971621435459, 1451.8
3.243608815426997, 1452.0
3.243246109351329, 1452.2
3.242883503167171, 1452.4
3.242520996833265, 1452.6
3.242158590308370, 1452.8
3.241796283551273, 1453.0
3.241434076520782, 1453.2
3.241071969175726, 1453.4
3.240709961474959, 1453.6
3.240348053377356, 1453.8
3.239986244841816, 1454.0
3.239624535827259, 1454.2
3.239262926292629, 1454.4
3.238901416196893, 1454.6
3.238540005499038, 1454.8
3.238178694158075, 1455.0
3.237817482133040, 1455.2
3.237456369382987, 1455.4
3.237095355866996, 1455.6
3.236734441544168, 1455.8
3.236373626373626, 1456.0
3.236012910314517, 1456.2
3.235652293326009, 1456.4
3.235291775367294, 1456.6
3.234931356397584, 1456.8
3.234571036376115, 1457.0
3.234210815262146, 1457.2
3.233850693014958, 1457.4
3.233490669593853, 1457.6
3.233130744958156, 1457.8
3.232770919067215, 1458.0
3.232411191880400, 1458.2
3.232051563357103, 1458.4
3.231692033456739, 1458.6
3.231332602138744, 1458.8
3.230973269362577, 1459.0
3.230614035087719, 1459.2
3.230254899273674, 1459.4
3.229895861879967, 1459.6
3.229536922866146, 1459.8
3.229178082191781, 1460.0
3.228819339816463, 1460.2
3.228460695699808, 1460.4
3.228102149801451, 1460.6
3.227743702081051, 1460.8
3.227385352498289, 1461.0
3.227027101012866, 1461.2
3.226668947584508, 1461.4
3.226310892172961, 1461.6
3.225952934737994, 1461.8
3.225595075239398, 1462.0
3.225237313636985, 1462.2
3.224879649890591, 1462.4
3.224522083960071, 1462.6
3.224164615805305, 1462.8
3.223807245386193, 1463.0
3.223449972662657, 1463.2
3.223092797594642, 1463.4
3.222735720142115, 1463.6
3.222378740265063, 1463.8
3.222021857923497, 1464.0
3.221665073077448, 1464.2
3.221308385686970, 1464.4
3.220951795712140, 1464.6
3.220595303113053, 1464.8
3.220238907849829, 1465.0
3.219882609882610, 1465.2
3.219526409171557, 1465.4
3.219170305676856, 1465.6
3.218814299358712, 1465.8
3.218458390177353, 1466.0
3.218102578093029, 1466.2
3.217746863066012, 1466.4
3.217391245056593, 1466.6
3.217035724025088, 1466.8
3.216680299931833, 1467.0
3.216324972737186, 1467.2
3.215969742401526, 1467.4
3.215614608885255, 1467.6
3.215259572148794, 1467.8
3.214904632152588, 1468.0
3.214549788857104, 1468.2
3.214195042222827, 1468.4
3.213840392210269, 1468.6
3.213485838779957, 1468.8
3.213131381892444, 1469.0
3.212777021508304, 1469.2
3.212422757588131, 1469.4
3.212068590092542, 1469.6
3.211714518982174, 1469.8
3.211360544217687, 1470.0
3.211006665759760, 1470.2
3.210652883569097, 1470.4
3.210299197606419, 1470.6
3.209945607832472, 1470.8
3.209592114208021, 1471.0
3.209238716693855, 1471.2
3.208885415250781, 1471.4
3.208532209839631, 1471.6
3.208179100421253, 1471.8
3.207826086956522, 1472.0
3.207473169406331, 1472.2
3.207120347731594, 1472.4
3.206767621893250, 1472.6
3.206414991852254, 1472.8
3.206062457569586, 1473.0
3.205710019006245, 1473.2
3.205357676123252, 1473.4
3.205005428881651, 1473.6
3.204653277242502, 1473.8
3.204301221166893, 1474.0
3.203949260615927, 1474.2
3.203597395550732, 1474.4
3.203245625932456, 1474.6
3.202893951722267, 1474.8
3.202542372881356, 1475.0
3.202190889370933, 1475.2
3.201839501152230, 1475.4
3.201488208186500, 1475.6
3.201137010435018, 1475.8
3.200785907859078, 1476.0
3.200434900419997, 1476.2
3.200083988079111, 1476.4
3.199733170797779, 1476.6
3.199382448537378, 1476.8
3.199031821259309, 1477.0
3.198681288924993, 1477.2
3.198330851495871, 1477.4
3.197980508933405, 1477.6
3.197630261199079, 1477.8
3.197280108254398, 1478.0
3.196930050060885, 1478.2
3.196580086580086, 1478.4
3.196230217773570, 1478.6
3.195880443602921, 1478.8
3.195530764029750, 1479.0
3.195181179015684, 1479.2
3.194831688522374, 1479.4
3.194482292511490, 1479.6
3.194132990944722, 1479.8
3.193783783783783, 1480.0
3.193434670990407, 1480.2
3.193085652526344, 1480.4
3.192736728353370, 1480.6
3.192387898433279, 1480.8
3.192039162727887, 1481.0
3.191690521199027, 1481.2
3.191341973808559, 1481.4
3.190993520518358, 1481.6
3.190645161290322, 1481.8
3.190296896086370, 1482.0
3.189948724868438, 1482.2
3.189600647598489, 1482.4
3.189252664238500, 1482.6
3.188904774750472, 1482.8
3.188556979096426, 1483.0
3.188209277238403, 1483.2
3.187861669138465, 1483.4
3.187514154758695, 1483.6
3.187166734061194, 1483.8
3.186819407008086, 1484.0
3.186472173561514, 1484.2
3.186125033683643, 1484.4
3.185777987336656, 1484.6
3.185431034482759, 1484.8
3.185084175084175, 1485.0
3.184737409103151, 1485.2
3.184390736501952, 1485.4
3.184044157242865, 1485.6
3.183697671288195, 1485.8
3.183351278600269, 1486.0
3.183004979141435, 1486.2
3.182658772874058, 1486.4
3.182312659760528, 1486.6
3.181966639763250, 1486.8
3.181620712844654, 1487.0
3.181274878967186, 1487.2
3.180929138093317, 1487.4
3.180583490185534, 1487.6
3.180237935206345, 1487.8
3.179892473118279, 1488.0
3.179547103883886, 1488.2
3.179201827465735, 1488.4
3.178856643826414, 1488.6
3.178511552928533, 1488.8
3.178166554734721, 1489.0
3.177821649207628, 1489.2
3.177476836309923, 1489.4
3.177132116004297, 1489.6
3.176787488253457, 1489.8
3.176442953020134, 1490.0
3.176098510267078, 1490.2
3.175754159957058, 1490.4
3.175409902052865, 1490.6
3.175065736517306, 1490.8
3.174721663313213, 1491.0
3.174377682403433, 1491.2
3.174033793750838, 1491.4
3.173689997318316, 1491.6
3.173346293068776, 1491.8
3.173002680965147, 1492.0
3.172659160970379, 1492.2
3.172315733047440, 1492.4
3.171972397159319, 1492.6
3.171629153269024, 1492.8
3.171286001339585, 1493.0
3.170942941334047, 1493.2
3.170599973215481, 1493.4
3.170257096946974, 1493.6
3.169914312491632, 1493.8
3.169571619812583, 1494.0
3.169229018872975, 1494.2
3.168886509635974, 1494.4
3.168544092064767, 1494.6
3.168201766122558, 1494.8
3.167859531772575, 1495.0
3.167517388978063, 1495.2
3.167175337702287, 1495.4
3.166833377908532, 1495.6
3.166491509560101, 1495.8
3.166149732620321, 1496.0
3.165808047052533, 1496.2
3.165466452820101, 1496.4
3.165124949886409, 1496.6
3.164783538214858, 1496.8
3.164442217768871, 1497.0
3.164100988511889, 1497.2
3.163759850407372, 1497.4
3.163418803418804, 1497.6
3.163077847509681, 1497.8
3.162736982643525, 1498.0
3.162396208783874, 1498.2
3.162055525894287, 1498.4
3.161714933938343, 1498.6
3.161374432879637, 1498.8
3.161034022681788, 1499.0
3.160693703308431, 1499.2
3.160353474723222, 1499.4
3.160013336889837, 1499.6
3.159673289771970, 1499.8
3.159333333333333, 1500.0
3.158993467537662, 1500.2
3.158653692348707, 1500.4
3.158314007730241, 1500.6
3.157974413646055, 1500.8
3.157634910059960, 1501.0
3.157295496935784, 1501.2
3.156956174237378, 1501.4
3.156616941928609, 1501.6
3.156277799973365, 1501.8
3.155938748335553, 1502.0
3.155599786979097, 1502.2
3.155260915867944, 1502.4
3.154922134966059, 1502.6
3.154583444237423, 1502.8
3.154244843646041, 1503.0
3.153906333155934, 1503.2
3.153567912731142, 1503.4
3.153229582335728, 1503.6
3.152891341933768, 1503.8
3.152553191489361, 1504.0
3.152215130966626, 1504.2
3.151877160329699, 1504.4
3.151539279542736, 1504.6
3.151201488569910, 1504.8
3.150863787375415, 1505.0
3.150526175923465, 1505.2
3.150188654178291, 1505.4
3.149851222104144, 1505.6
3.149513879665294, 1505.8
3.149176626826029, 1506.0
3.148839463550657, 1506.2
3.148502389803505, 1506.4
3.148165405548918, 1506.6
3.147828510751261, 1506.8
3.147491705374917, 1507.0
3.147154989384289, 1507.2
3.146818362743797, 1507.4
3.146481825417883, 1507.6
3.146145377371004, 1507.8
3.145809018567639, 1508.0
3.145472748972284, 1508.2
3.145136568549456, 1508.4
3.144800477263688, 1508.6
3.144464475079533, 1508.8
3.144128561961564, 1509.0
3.143792737874370, 1509.2
3.143457002782562, 1509.4
3.143121356650768, 1509.6
3.142785799443635, 1509.8
3.142450331125828, 1510.0
3.142114951662031, 1510.2
3.141779661016949, 1510.4
3.141444459155303, 1510.6
3.141109346041832, 1510.8
3.140774321641297, 1511.0
3.140439385918475, 1511.2
3.140104538838163, 1511.4
3.139769780365176, 1511.6
3.139435110464347, 1511.8
3.139100529100529, 1512.0
3.138766036238593, 1512.2
3.138431631843428, 1512.4
3.138097315879942, 1512.6
3.137763088313062, 1512.8
3.137428949107733, 1513.0
3.137094898228919, 1513.2
3.136760935641601, 1513.4
3.136427061310782, 1513.6
3.136093275201480, 1513.8
3.135759577278732, 1514.0
3.135425967507595, 1514.2
3.135092445853143, 1514.4
3.134759012280470, 1514.6
3.134425666754687, 1514.8
3.134092409240924, 1515.0
3.133759239704329, 1515.2
3.133426158110070, 1515.4
3.133093164423331, 1515.6
3.132760258609315, 1515.8
3.132427440633245, 1516.0
3.132094710460361, 1516.2
3.131762068055921, 1516.4
3.131429513385204, 1516.6
3.131097046413502, 1516.8
3.130764667106130, 1517.0
3.130432375428421, 1517.2
3.130100171345723, 1517.4
3.129768054823405, 1517.6
3.129436025826855, 1517.8
3.129104084321475, 1518.0
3.128772230272691, 1518.2
3.128440463645943, 1518.4
3.128108784406690, 1518.6
3.127777192520411, 1518.8
3.127445687952600, 1519.0
3.127114270668773, 1519.2
3.126782940634460, 1519.4
3.126451697815214, 1519.6
3.126120542176602, 1519.8
3.125789473684210, 1520.0
3.125458492303644, 1520.2
3.125127598000526, 1520.4
3.124796790740497, 1520.6
3.124466070489216, 1520.8
3.124135437212360, 1521.0
3.123804890875624, 1521.2
3.123474431444722, 1521.4
3.123144058885384, 1521.6
3.122813773163359, 1521.8
3.122483574244415, 1522.0
3.122153462094337, 1522.2
3.121823436678928, 1522.4
3.121493497964009, 1522.6
3.121163645915419, 1522.8
3.120833880499015, 1523.0
3.120504201680672, 1523.2
3.120174609426283, 1523.4
3.119845103701759, 1523.6
3.119515684473028, 1523.8
3.119186351706037, 1524.0
3.118857105366750, 1524.2
3.118527945421149, 1524.4
3.118198871835236, 1524.6
3.117869884575026, 1524.8
3.117540983606557, 1525.0
3.117212168895882, 1525.2
3.116883440409073, 1525.4
3.116554798112218, 1525.6
3.116226241971425, 1525.8
3.115897771952818, 1526.0
3.115569388022539, 1526.2
3.115241090146750, 1526.4
3.114912878291629, 1526.6
3.114584752423369, 1526.8
3.114256712508186, 1527.0
3.113928758512310, 1527.2
3.113600890401990, 1527.4
3.113273108143493, 1527.6
3.112945411703103, 1527.8
3.112617801047120, 1528.0
3.112290276141866, 1528.2
3.111962836953677, 1528.4
3.111635483448908, 1528.6
3.111308215593930, 1528.8
3.110981033355134, 1529.0
3.110653936698927, 1529.2
3.110326925591735, 1529.4
3.110000000000000, 1529.6
3.109673159890182, 1529.8
3.109346405228758, 1530.0
3.109019735982224, 1530.2
3.108693152117093, 1530.4
3.108366653599895, 1530.6
3.108040240397178, 1530.8
3.107713912475506, 1531.0
3.107387669801463, 1531.2
3.107061512341648, 1531.4
3.106735440062680, 1531.6
3.106409452931192, 1531.8
3.106083550913838, 1532.0
3.105757733977287, 1532.2
3.105432002088227, 1532.4
3.105106355213363, 1532.6
3.104780793319415, 1532.8
3.104455316373124, 1533.0
3.104129924341247, 1533.2
3.103804617190557, 1533.4
3.103479394887846, 1533.6
3.103154257399922, 1533.8
3.102829204693611, 1534.0
3.102504236735758, 1534.2
3.102179353493222, 1534.4
3.101854554932882, 1534.6
3.101529841021632, 1534.8
3.101205211726384, 1535.0
3.100880667014070, 1535.2
3.100556206851635, 1535.4
3.100231831206043, 1535.6
3.099907540044276, 1535.8
3.099583333333333, 1536.0
3.099259211040229, 1536.2
3.098935173131997, 1536.4
3.098611219575687, 1536.6
3.098287350338365, 1536.8
3.097963565387118, 1537.0
3.097639864689045, 1537.2
3.097316248211265, 1537.4
3.096992715920916, 1537.6
3.096669267785148, 1537.8
3.096345903771131, 1538.0
3.096022623846054, 1538.2
3.095699427977119, 1538.4
3.095376316131548, 1538.6
3.095053288276579, 1538.8
3.094730344379467, 1539.0
3.094407484407484, 1539.2
3.094084708327919, 1539.4
3.093762016108080, 1539.6
3.093439407715288, 1539.8
3.093116883116883, 1540.0
3.092794442280223, 1540.2
3.092472085172682, 1540.4
3.092149811761651, 1540.6
3.091827622014538, 1540.8
3.091505515898767, 1541.0
3.091183493381780, 1541.2
3.090861554431036, 1541.4
3.090539699014011, 1541.6
3.090217927098197, 1541.8
3.089896238651102, 1542.0
3.089574633640254, 1542.2
3.089253112033195, 1542.4
3.088931673797485, 1542.6
3.088610318900700, 1542.8
3.088289047310434, 1543.0
3.087967858994297, 1543.2
3.087646753919917, 1543.4
3.087325732054937, 1543.6
3.087004793367016, 1543.8
3.086683937823834, 1544.0
3.086363165393084, 1544.2
3.086042476042476, 1544.4
3.085721869739738, 1544.6
3.085401346452615, 1544.8
3.085080906148867, 1545.0
3.084760548796272, 1545.2
3.084440274362624, 1545.4
3.084120082815735, 1545.6
3.083799974123431, 1545.8
3.083479948253558, 1546.0
3.083160005173975, 1546.2
3.082840144852561, 1546.4
3.082520367257209, 1546.6
3.082200672355831, 1546.8
3.081881060116354, 1547.0
3.081561530506721, 1547.2
3.081242083494895, 1547.4
3.080922719048850, 1547.6
3.080603437136581, 1547.8
3.080284237726098, 1548.0
3.079965120785428, 1548.2
3.079646086282614, 1548.4
3.079327134185716, 1548.6
3.079008264462810, 1548.8
3.078689477081988, 1549.0
3.078370772011361, 1549.2
3.078052149219052, 1549.4
3.077733608673206, 1549.6
3.077415150341980, 1549.8
3.077096774193548, 1550.0
3.076778480196103, 1550.2
3.076460268317853, 1550.4
3.076142138527022, 1550.6
3.075824090791849, 1550.8
3.075506125080593, 1551.0
3.075188241361527, 1551.2
3.074870439602939, 1551.4
3.074552719773137, 1551.6
3.074235081840443, 1551.8
3.073917525773196, 1552.0
3.073600051539750, 1552.2
3.073282659108477, 1552.4
3.072965348447765, 1552.6
3.072648119526018, 1552.8
3.072330972311655, 1553.0
3.072013906773114, 1553.2
3.071696922878846, 1553.4
3.071380020597323, 1553.6
3.071063199897027, 1553.8
3.070746460746461, 1554.0
3.070429803114142, 1554.2
3.070113226968605, 1554.4
3.069796732278399, 1554.6
3.069480319012091, 1554.8
3.069163987138264, 1555.0
3.068847736625514, 1555.2
3.068531567442458, 1555.4
3.068215479557727, 1555.6
3.067899472939966, 1555.8
3.067583547557840, 1556.0
3.067267703380028, 1556.2
3.066951940375225, 1556.4
3.066636258512142, 1556.6
3.066320657759507, 1556.8
3.066005138086063, 1557.0
3.065689699460570, 1557.2
3.065374341851804, 1557.4
3.065059065228557, 1557.6
3.064743869559635, 1557.8
3.064428754813864, 1558.0
3.064113720960082, 1558.2
3.063798767967146, 1558.4
3.063483895803927, 1558.6
3.063169104439312, 1558.8
3.062854393842207, 1559.0
3.062539763981529, 1559.2
3.062225214826215, 1559.4
3.061910746345217, 1559.6
3.061596358507501, 1559.8
3.061282051282051, 1560.0
3.060967824637867, 1560.2
3.060653678543963, 1560.4
3.060339612969371, 1560.6
3.060025627883137, 1560.8
3.059711723254324, 1561.0
3.059397899052011, 1561.2
3.059084155245293, 1561.4
3.058770491803279, 1561.6
3.058456908695095, 1561.8
3.058143405889885, 1562.0
3.057829983356804, 1562.2
3.057516641065028, 1562.4
3.057203378983745, 1562.6
3.056890197082160, 1562.8
3.056577095329494, 1563.0
3.056264073694984, 1563.2
3.055951132147883, 1563.4
3.055638270657457, 1563.6
3.055325489192991, 1563.8
3.055012787723785, 1564.0
3.054700166219154, 1564.2
3.054387624648427, 1564.4
3.054075162980954, 1564.6
3.053762781186094, 1564.8
3.053450479233227, 1565.0
3.053138257091745, 1565.2
3.052826114731059, 1565.4
3.052514052120593, 1565.6
3.052202069229787, 1565.8
3.051890166028097, 1566.0
3.051578342484995, 1566.2
3.051266598569969, 1566.4
3.050954934252522, 1566.6
3.050643349502170, 1566.8
3.050331844288449, 1567.0
3.050020418580909, 1567.2
3.049709072349113, 1567.4
3.049397805562644, 1567.6
3.049086618191096, 1567.8
3.048775510204082, 1568.0
3.048464481571228, 1568.2
3.048153532262178, 1568.4
3.047842662246589, 1568.6
3.047531871494136, 1568.8
3.047221159974506, 1569.0
3.046910527657405, 1569.2
3.046599974512552, 1569.4
3.046289500509684, 1569.6
3.045979105618550, 1569.8
3.045668789808917, 1570.0
3.045358553050566, 1570.2
3.045048395313296, 1570.4
3.044738316566917, 1570.6
3.044428316781258, 1570.8
3.044118395926162, 1571.0
3.043808553971487, 1571.2
3.043498790887107, 1571.4
3.043189106642912, 1571.6
3.042879501208805, 1571.8
3.042569974554707, 1572.0
3.042260526650553, 1572.2
3.041951157466293, 1572.4
3.041641866971894, 1572.6
3.041332655137335, 1572.8
3.041023521932613, 1573.0
3.040714467327740, 1573.2
3.040405491292741, 1573.4
3.040096593797661, 1573.6
3.039787774812555, 1573.8
3.039479034307497, 1574.0
3.039170372252573, 1574.2
3.038861788617886, 1574.4
3.038553283373555, 1574.6
3.038244856489713, 1574.8
3.037936507936508, 1575.0
3.037628237684103, 1575.2
3.037320045702678, 1575.4
3.037011931962427, 1575.6
3.036703896433557, 1575.8
3.036395939086294, 1576.0
3.036088059890877, 1576.2
3.035780258817559, 1576.4
3.035472535836611, 1576.6
3.035164890918316, 1576.8
3.034857324032974, 1577.0
3.034549835150900, 1577.2
3.034242424242424, 1577.4
3.033935091277891, 1577.6
3.033627836227659, 1577.8
3.033320659062104, 1578.0
3.033013559751616, 1578.2
3.032706538266599, 1578.4
3.032399594577474, 1578.6
3.032092728654674, 1578.8
3.031785940468651, 1579.0
3.031479229989868, 1579.2
3.031172597188806, 1579.4
3.030866042035958, 1579.6
3.030559564501836, 1579.8
3.030253164556962, 1580.0
3.029946842171877, 1580.2
3.029640597317135, 1580.4
3.029334429963305, 1580.6
3.029028340080972, 1580.8
3.028722327640734, 1581.0
3.028416392613205, 1581.2
3.028110534969015, 1581.4
3.027804754678806, 1581.6
3.027499051713238, 1581.8
3.027193426042984, 1582.0
3.026887877638731, 1582.2
3.026582406471183, 1582.4
3.026277012511058, 1582.6
3.025971695729087, 1582.8
3.025666456096020, 1583.0
3.025361293582617, 1583.2
3.025056208159656, 1583.4
3.024751199797929, 1583.6
3.024446268468241, 1583.8
3.024141414141414, 1584.0
3.023836636788284, 1584.2
3.023531936379702, 1584.4
3.023227312886533, 1584.6
3.022922766279657, 1584.8
3.022618296529968, 1585.0
3.022313903608377, 1585.2
3.022009587485808, 1585.4
3.021705348133199, 1585.6
3.021401185521503, 1585.8
3.021097099621690, 1586.0
3.020793090404741, 1586.2
3.020489157841654, 1586.4
3.020185301903441, 1586.6
3.019881522561129, 1586.8
3.019577819785759, 1587.0
3.019274193548387, 1587.2
3.018970643820083, 1587.4
3.018667170571932, 1587.6
3.018363773775035, 1587.8
3.018060453400504, 1588.0
3.017757209419468, 1588.2
3.017454041803072, 1588.4
3.017150950522473, 1588.6
3.016847935548842, 1588.8
3.016544996853367, 1589.0
3.016242134407249, 1589.2
3.015939348181703, 1589.4
3.015636638147962, 1589.6
3.015334004277268, 1589.8
3.015031446540880, 1590.0
3.014728964910074, 1590.2
3.014426559356136, 1590.4
3.014124229850371, 1590.6
3.013821976364094, 1590.8
3.013519798868636, 1591.0
3.013217697335344, 1591.2
3.012915671735578, 1591.4
3.012613722040714, 1591.6
3.012311848222138, 1591.8
3.012010050251256, 1592.0
3.011708328099485, 1592.2
3.011406681738257, 1592.4
3.011105111139018, 1592.6
3.010803616273229, 1592.8
3.010502197112367, 1593.0
3.010200853627918, 1593.2
3.009899585791389, 1593.4
3.009598393574297, 1593.6
3.009297276948174, 1593.8
3.008996235884567, 1594.0
3.008695270355037, 1594.2
3.008394380331159, 1594.4
3.008093565784523, 1594.6
3.007792826686732, 1594.8
3.007492163009404, 1595.0
3.007191574724172, 1595.2
3.006891061802683, 1595.4
3.006590624216596, 1595.6
3.006290261937586, 1595.8
3.005989974937343, 1596.0
3.005689763187570, 1596.2
3.005389626659985, 1596.4
3.005089565326319, 1596.6
3.004789579158317, 1596.8
3.004489668127739, 1597.0
3.004189832206361, 1597.2
3.003890071365969, 1597.4
3.003590385578367, 1597.6
3.003290774815371, 1597.8
3.002991239048811, 1598.0
3.002691778250532, 1598.2
3.002392392392392, 1598.4
3.002093081446266, 1598.6
3.001793845384038, 1598.8
3.001494684177611, 1599.0
3.001195597798899, 1599.2
3.000896586219832, 1599.4
3.000597649412353, 1599.6
3.000298787348418, 1599.8
3.000000000000000, 1600.0
2.999701287339082, 1600.2
2.999402649337665, 1600.4
2.999104085967762, 1600.6
2.998805597201399, 1600.8
2.998507183010618, 1601.0
2.998208843367474, 1601.2
2.997910578244036, 1601.4
2.997612387612388, 1601.6
2.997314271444625, 1601.8
2.997016229712859, 1602.0
2.996718262389215, 1602.2
2.996420369445831, 1602.4
2.996122550854861, 1602.6
2.995824806588470, 1602.8
2.995527136618839, 1603.0
2.995229540918163, 1603.2
2.994932019458650, 1603.4
2.994634572212522, 1603.6
2.994337199152014, 1603.8
2.994039900249376, 1604.0
2.993742675476873, 1604.2
2.993445524806781, 1604.4
2.993148448211392, 1604.6
2.992851445663011, 1604.8
2.992554517133956, 1605.0
2.992257662596561, 1605.2
2.991960882023172, 1605.4
2.991664175386148, 1605.6
2.991367542657865, 1605.8
2.991070983810710, 1606.0
2.990774498817084, 1606.2
2.990478087649402, 1606.4
2.990181750280095, 1606.6
2.989885486681603, 1606.8
2.989589296826384, 1607.0
2.989293180686909, 1607.2
2.988997138235660, 1607.4
2.988701169445136, 1607.6
2.988405274287847, 1607.8
2.988109452736318, 1608.0
2.987813704763089, 1608.2
2.987518030340711, 1608.4
2.987222429441751, 1608.6
2.986926902038787, 1608.8
2.986631448104413, 1609.0
2.986336067611235, 1609.2
2.986040760531875, 1609.4
2.985745526838966, 1609.6
2.985450366505156, 1609.8
2.985155279503105, 1610.0
2.984860265805490, 1610.2
2.984565325384997, 1610.4
2.984270458214330, 1610.6
2.983975664266203, 1610.8
2.983680943513346, 1611.0
2.983386295928500, 1611.2
2.983091721484423, 1611.4
2.982797220153884, 1611.6
2.982502791909666, 1611.8
2.982208436724566, 1612.0
2.981914154571393, 1612.2
2.981619945422972, 1612.4
2.981325809252140, 1612.6
2.981031746031746, 1612.8
2.980737755734656, 1613.0
2.980443838333747, 1613.2
2.980149993801909, 1613.4
2.979856222112048, 1613.6
2.979562523237080, 1613.8
2.979268897149938, 1614.0
2.978975343823566, 1614.2
2.978681863230921, 1614.4
2.978388455344977, 1614.6
2.978095120138717, 1614.8
2.977801857585139, 1615.0
2.977508667657256, 1615.2
2.977215550328092, 1615.4
2.976922505570686, 1615.6
2.976629533358089, 1615.8
2.976336633663366, 1616.0
2.976043806459596, 1616.2
2.975751051719871, 1616.4
2.975458369417296, 1616.6
2.975165759524987, 1616.8
2.974873222016079, 1617.0
2.974580756863715, 1617.2
2.974288364041053, 1617.4
2.973996043521266, 1617.6
2.973703795277537, 1617.8
2.973411619283065, 1618.0
2.973119515511061, 1618.2
2.972827483934750, 1618.4
2.972535524527369, 1618.6
2.972243637262169, 1618.8
2.971951822112415, 1619.0
2.971660079051383, 1619.2
2.971368408052365, 1619.4
2.971076809088664, 1619.6
2.970785282133597, 1619.8
2.970493827160494, 1620.0
2.970202444142698, 1620.2
2.969911133053567, 1620.4
2.969619893866469, 1620.6
2.969328726554788, 1620.8
2.969037631091918, 1621.0
2.968746607451271, 1621.2
2.968455655606266, 1621.4
2.968164775530340, 1621.6
2.967873967196942, 1621.8
2.967583230579531, 1622.0
2.967292565651584, 1622.2
2.967001972386587, 1622.4
2.966711450758043, 1622.6
2.966421000739463, 1622.8
2.966130622304374, 1623.0
2.965840315426318, 1623.2
2.965550080078847, 1623.4
2.965259916235526, 1623.6
2.964969823869934, 1623.8
2.964679802955665, 1624.0
2.964389853466322, 1624.2
2.964099975375523, 1624.4
2.963810168656900, 1624.6
2.963520433284097, 1624.8
2.963230769230769, 1625.0
2.962941176470588, 1625.2
2.962651654977236, 1625.4
2.962362204724410, 1625.6
2.962072825685816, 1625.8
2.961783517835178, 1626.0
2.961494281146230, 1626.2
2.961205115592720, 1626.4
2.960916021148408, 1626.6
2.960626997787067, 1626.8
2.960338045482483, 1627.0
2.960049164208456, 1627.2
2.959760353938798, 1627.4
2.959471614647334, 1627.6
2.959182946307900, 1627.8
2.958894348894349, 1628.0
2.958605822380543, 1628.2
2.958317366740358, 1628.4
2.958028981947685, 1628.6
2.957740667976424, 1628.8
2.957452424800491, 1629.0
2.957164252393813, 1629.2
2.956876150730330, 1629.4
2.956588119783996, 1629.6
2.956300159528777, 1629.8
2.956012269938650, 1630.0
2.955724450987609, 1630.2
2.955436702649656, 1630.4
2.955149024898810, 1630.6
2.954861417709100, 1630.8
2.954573881054567, 1631.0
2.954286414909269, 1631.2
2.953999019247272, 1631.4
2.953711694042657, 1631.6
2.953424439269518, 1631.8
2.953137254901961, 1632.0
2.952850140914104, 1632.2
2.952563097280078, 1632.4
2.952276123974029, 1632.6
2.951989220970113, 1632.8
2.951702388242498, 1633.0
2.951415625765368, 1633.2
2.951128933512917, 1633.4
2.950842311459354, 1633.6
2.950555759578896, 1633.8
2.950269277845777, 1634.0
2.949982866234243, 1634.2
2.949696524718551, 1634.4
2.949410253272972, 1634.6
2.949124051871788, 1634.8
2.948837920489296, 1635.0
2.948551859099804, 1635.2
2.948265867677632, 1635.4
2.947979946197114, 1635.6
2.947694094632596, 1635.8
2.947408312958435, 1636.0
2.947122601149004, 1636.2
2.946836959178685, 1636.4
2.946551387021874, 1636.6
2.946265884652981, 1636.8
2.945980452046426, 1637.0
2.945695089176643, 1637.2
2.945409796018077, 1637.4
2.945124572545188, 1637.6
2.944839418732446, 1637.8
2.944554334554335, 1638.0
2.944269319985350, 1638.2
2.943984375000000, 1638.4
2.943699499572806, 1638.6
2.943414693678301, 1638.8
2.943129957291031, 1639.0
2.942845290385554, 1639.2
2.942560692936440, 1639.4
2.942276164918273, 1639.6
2.941991706305647, 1639.8
2.941707317073170, 1640.0
2.941422997195464, 1640.2
2.941138746647159, 1640.4
2.940854565402901, 1640.6
2.940570453437347, 1640.8
2.940286410725168, 1641.0
2.940002437241043, 1641.2
2.939718532959668, 1641.4
2.939434697855750, 1641.6
2.939150931904008, 1641.8
2.938867235079172, 1642.0
2.938583607355986, 1642.2
2.938300048709206, 1642.4
2.938016559113600, 1642.6
2.937733138543949, 1642.8
2.937449786975046, 1643.0
2.937166504381694, 1643.2
2.936883290738712, 1643.4
2.936600146020930, 1643.6
2.936317070203188, 1643.8
2.936034063260340, 1644.0
2.935751125167255, 1644.2
2.935468255898808, 1644.4
2.935185455429892, 1644.6
2.934902723735409, 1644.8
2.934620060790273, 1645.0
2.934337466569414, 1645.2
2.934054941047769, 1645.4
2.933772484200292, 1645.6
2.933490096001944, 1645.8
2.933207776427703, 1646.0
2.932925525452557, 1646.2
2.932643343051506, 1646.4
2.932361229199563, 1646.6
2.932079183871751, 1646.8
2.931797207043108, 1647.0
2.931515298688684, 1647.2
2.931233458783538, 1647.4
2.930951687302743, 1647.6
2.930669984221386, 1647.8
2.930388349514563, 1648.0
2.930106783157384, 1648.2
2.929825285124970, 1648.4
2.929543855392454, 1648.6
2.929262493934983, 1648.8
2.928981200727714, 1649.0
2.928699975745816, 1649.2
2.928418818964472, 1649.4
2.928137730358875, 1649.6
2.927856709904231, 1649.8
2.927575757575757, 1650.0
2.927294873348685, 1650.2
2.927014057198255, 1650.4
2.926733309099721, 1650.6
2.926452629028350, 1650.8
2.926172016959419, 1651.0
2.925891472868217, 1651.2
2.925610996730047, 1651.4
2.925330588520223, 1651.6
2.925050248214069, 1651.8
2.924769975786925, 1652.0
2.924489771214139, 1652.2
2.924209634471072, 1652.4
2.923929565533099, 1652.6
2.923649564375605, 1652.8
2.923369630973986, 1653.0
2.923089765303653, 1653.2
2.922809967340026, 1653.4
2.922530237058539, 1653.6
2.922250574434635, 1653.8
2.921970979443773, 1654.0
2.921691452061419, 1654.2
2.921411992263056, 1654.4
2.921132600024175, 1654.6
2.920853275320280, 1654.8
2.920574018126888, 1655.0
2.920294828419526, 1655.2
2.920015706173734, 1655.4
2.919736651365064, 1655.6
2.919457663969078, 1655.8
2.919178743961353, 1656.0
2.918899891317474, 1656.2
2.918621106013040, 1656.4
2.918342388023663, 1656.6
2.918063737324964, 1656.8
2.917785153892577, 1657.0
2.917506637702148, 1657.2
2.917228188729335, 1657.4
2.916949806949807, 1657.6
2.916671492339245, 1657.8
2.916393244873341, 1658.0
2.916115064527801, 1658.2
2.915836951278340, 1658.4
2.915558905100687, 1658.6
2.915280925970581, 1658.8
2.915003013863773, 1659.0
2.914725168756027, 1659.2
2.914447390623117, 1659.4
2.914169679440829, 1659.6
2.913892035184962, 1659.8
2.913614457831325, 1660.0
2.913336947355740, 1660.2
2.913059503734040, 1660.4
2.912782126942069, 1660.6
2.912504816955684, 1660.8
2.912227573750752, 1661.0
2.911950397303154, 1661.2
2.911673287588780, 1661.4
2.911396244583534, 1661.6
2.911119268263329, 1661.8
2.910842358604091, 1662.0
2.910565515581759, 1662.2
2.910288739172281, 1662.4
2.910012029351618, 1662.6
2.909735386095742, 1662.8
2.909458809380637, 1663.0
2.909182299182299, 1663.2
2.908905855476734, 1663.4
2.908629478239961, 1663.6
2.908353167448011, 1663.8
2.908076923076923, 1664.0
2.907800745102752, 1664.2
2.907524633501562, 1664.4
2.907248588249429, 1664.6
2.906972609322441, 1664.8
2.906696696696697, 1665.0
2.906420850348306, 1665.2
2.906145070253392, 1665.4
2.905869356388088, 1665.6
2.905593708728539, 1665.8
2.905318127250900, 1666.0
2.905042611931341, 1666.2
2.904767162746039, 1666.4
2.904491779671187, 1666.6
2.904216462682985, 1666.8
2.903941211757648, 1667.0
2.903666026871401, 1667.2
2.903390908000480, 1667.4
2.903115855121132, 1667.6
2.902840868209617, 1667.8
2.902565947242206, 1668.0
2.902291092195180, 1668.2
2.902016303044833, 1668.4
2.901741579767470, 1668.6
2.901466922339405, 1668.8
2.901192330736968, 1669.0
2.900917804936496, 1669.2
2.900643344914340, 1669.4
2.900368950646862, 1669.6
2.900094622110432, 1669.8
2.899820359281437, 1670.0
2.899546162136271, 1670.2
2.899272030651341, 1670.4
2.898997964803065, 1670.6
2.898723964567872, 1670.8
2.898450029922202, 1671.0
2.898176160842508, 1671.2
2.897902357305253, 1671.4
2.897628619286911, 1671.6
2.897354946763967, 1671.8
2.897081339712919, 1672.0
2.896807798110274, 1672.2
2.896534321932552, 1672.4
2.896260911156284, 1672.6
2.895987565758011, 1672.8
2.895714285714285, 1673.0
2.895441071001673, 1673.2
2.895167921596749, 1673.4
2.894894837476099, 1673.6
2.894621818616322, 1673.8
2.894348864994026, 1674.0
2.894075976585832, 1674.2
2.893803153368371, 1674.4
2.893530395318285, 1674.6
2.893257702412228, 1674.8
2.892985074626865, 1675.0
2.892712511938873, 1675.2
2.892440014324937, 1675.4
2.892167581761757, 1675.6
2.891895214226041, 1675.8
2.891622911694510, 1676.0
2.891350674143897, 1676.2
2.891078501550942, 1676.4
2.890806393892401, 1676.6
2.890534351145038, 1676.8
2.890262373285629, 1677.0
2.889990460290961, 1677.2
2.889718612137832, 1677.4
2.889446828803052, 1677.6
2.889175110263440, 1677.8
2.888903456495828, 1678.0
2.888631867477058, 1678.2
2.888360343183984, 1678.4
2.888088883593471, 1678.6
2.887817488682392, 1678.8
2.887546158427635, 1679.0
2.887274892806098, 1679.2
2.887003691794688, 1679.4
2.886732555370326, 1679.6
2.886461483509942, 1679.8
2.886190476190476, 1680.0
2.885919533388882, 1680.2
2.885648655082123, 1680.4
2.885377841247174, 1680.6
2.885107091861018, 1680.8
2.884836406900654, 1681.0
2.884565786343088, 1681.2
2.884295230165338, 1681.4
2.884024738344434, 1681.6
2.883754310857415, 1681.8
2.883483947681332, 1682.0
2.883213648793247, 1682.2
2.882943414170233, 1682.4
2.882673243789374, 1682.6
2.882403137627763, 1682.8
2.882133095662507, 1683.0
2.881863117870722, 1683.2
2.881593204229535, 1683.4
2.881323354716085, 1683.6
2.881053569307519, 1683.8
2.880783847980998, 1684.0
2.880514190713692, 1684.2
2.880244597482783, 1684.4
2.879975068265463, 1684.6
2.879705603038937, 1684.8
2.879436201780415, 1685.0
2.879166864467126, 1685.2
2.878897591076302, 1685.4
2.878628381585192, 1685.6
2.878359235971052, 1685.8
2.878090154211150, 1686.0
2.877821136282766, 1686.2
2.877552182163188, 1686.4
2.877283291829717, 1686.6
2.877014465259663, 1686.8
2.876745702430350, 1687.0
2.876477003319108, 1687.2
2.876208367903283, 1687.4
2.875939796160227, 1687.6
2.875671288067307, 1687.8
2.875402843601896, 1688.0
2.875134462741381, 1688.2
2.874866145463160, 1688.4
2.874597891744640, 1688.6
2.874329701563240, 1688.8
2.874061574896388, 1689.0
2.873793511721525, 1689.2
2.873525512016100, 1689.4
2.873257575757576, 1689.6
2.872989702923423, 1689.8
2.872721893491124, 1690.0
2.872454147438173, 1690.2
2.872186464742073, 1690.4
2.871918845380338, 1690.6
2.871651289330494, 1690.8
2.871383796570077, 1691.0
2.871116367076632, 1691.2
2.870849000827716, 1691.4
2.870581697800898, 1691.6
2.870314457973756, 1691.8
2.870047281323877, 1692.0
2.869780167828861, 1692.2
2.869513117466320, 1692.4
2.869246130213872, 1692.6
2.868979206049149, 1692.8
2.868712344949793, 1693.0
2.868445546893456, 1693.2
2.868178811857800, 1693.4
2.867912139820501, 1693.6
2.867645530759240, 1693.8
2.867378984651712, 1694.0
2.867112501475622, 1694.2
2.866846081208687, 1694.4
2.866579723828632, 1694.6
2.866313429313193, 1694.8
2.866047197640118, 1695.0
2.865781028787163, 1695.2
2.865514922732098, 1695.4
2.865248879452701, 1695.6
2.864982898926760, 1695.8
2.864716981132075, 1696.0
2.864451126046457, 1696.2
2.864185333647725, 1696.4
2.863919603913710, 1696.6
2.863653936822254, 1696.8
2.863388332351208, 1697.0
2.863122790478435, 1697.2
2.862857311181807, 1697.4
2.862591894439208, 1697.6
2.862326540228531, 1697.8
2.862061248527680, 1698.0
2.861796019314568, 1698.2
2.861530852567122, 1698.4
2.861265748263276, 1698.6
2.861000706380975, 1698.8
2.860735726898175, 1699.0
2.860470809792843, 1699.2
2.860205955042956, 1699.4
2.859941162626500, 1699.6
2.859676432521473, 1699.8
2.859411764705882, 1700.0
2.859147159157746, 1700.2
2.858882615855093, 1700.4
2.858618134775961, 1700.6
2.858353715898401, 1700.8
2.858089359200470, 1701.0
2.857825064660239, 1701.2
2.857560832255789, 1701.4
2.857296661965209, 1701.6
2.857032553766600, 1701.8
2.856768507638073, 1702.0
2.856504523557748, 1702.2
2.856240601503759, 1702.4
2.855976741454247, 1702.6
2.855712943387362, 1702.8
2.855449207281268, 1703.0
2.855185533114138, 1703.2
2.854921920864154, 1703.4
2.854658370509509, 1703.6
2.854394882028407, 1703.8
2.854131455399061, 1704.0
2.853868090599695, 1704.2
2.853604787608542, 1704.4
2.853341546403848, 1704.6
2.853078366963867, 1704.8
2.852815249266862, 1705.0
2.852552193291110, 1705.2
2.852289199014894, 1705.4
2.852026266416510, 1705.6
2.851763395474264, 1705.8
2.851500586166471, 1706.0
2.851237838471457, 1706.2
2.850975152367557, 1706.4
2.850712527833119, 1706.6
2.850449964846496, 1706.8
2.850187463386057, 1707.0
2.849925023430178, 1707.2
2.849662644957245, 1707.4
2.849400327945655, 1707.6
2.849138072373814, 1707.8
2.848875878220140, 1708.0
2.848613745463060, 1708.2
2.848351674081011, 1708.4
2.848089664052440, 1708.6
2.847827715355805, 1708.8
2.847565827969573, 1709.0
2.847304001872221, 1709.2
2.847042237042237, 1709.4
2.846780533458119, 1709.6
2.846518891098374, 1709.8
2.846257309941520, 1710.0
2.845995789966086, 1710.2
2.845734331150608, 1710.4
2.845472933473635, 1710.6
2.845211596913725, 1710.8
2.844950321449445, 1711.0
2.844689107059373, 1711.2
2.844427953722099, 1711.4
2.844166861416219, 1711.6
2.843905830120341, 1711.8
2.843644859813084, 1712.0
2.843383950473076, 1712.2
2.843123102078953, 1712.4
2.842862314609366, 1712.6
2.842601588042970, 1712.8
2.842340922358435, 1713.0
2.842080317534438, 1713.2
2.841819773549667, 1713.4
2.841559290382820, 1713.6
2.841298868012604, 1713.8
2.841038506417736, 1714.0
2.840778205576945, 1714.2
2.840517965468969, 1714.4
2.840257786072554, 1714.6
2.839997667366457, 1714.8
2.839737609329446, 1715.0
2.839477611940298, 1715.2
2.839217675177801, 1715.4
2.838957799020751, 1715.6
2.838697983447954, 1715.8
2.838438228438228, 1716.0
2.838178533970400, 1716.2
2.837918900023304, 1716.4
2.837659326575789, 1716.6
2.837399813606710, 1716.8
2.837140361094933, 1717.0
2.836880969019334, 1717.2
2.836621637358798, 1717.4
2.836362366092222, 1717.6
2.836103155198510, 1717.8
2.835844004656577, 1718.0
2.835584914445350, 1718.2
2.835325884543761, 1718.4
2.835066914930758, 1718.6
2.834808005585292, 1718.8
2.834549156486329, 1719.0
2.834290367612843, 1719.2
2.834031638943817, 1719.4
2.833772970458246, 1719.6
2.833514362135132, 1719.8
2.833255813953488, 1720.0
2.832997325892338, 1720.2
2.832738897930714, 1720.4
2.832480530047658, 1720.6
2.832222222222222, 1720.8
2.831963974433469, 1721.0
2.831705786660469, 1721.2
2.831447658882305, 1721.4
2.831189591078067, 1721.6
2.830931583226855, 1721.8
2.830673635307781, 1722.0
2.830415747299965, 1722.2
2.830157919182536, 1722.4
2.829900150934634, 1722.6
2.829642442535407, 1722.8
2.829384793964016, 1723.0
2.829127205199629, 1723.2
2.828869676221422, 1723.4
2.828612207008587, 1723.6
2.828354797540318, 1723.8
2.828097447795824, 1724.0
2.827840157754321, 1724.2
2.827582927395036, 1724.4
2.827325756697205, 1724.6
2.827068645640074, 1724.8
2.826811594202899, 1725.0
2.826554602364943, 1725.2
2.826297670105482, 1725.4
2.826040797403802, 1725.6
2.825783984239193, 1725.8
2.825527230590962, 1726.0
2.825270536438420, 1726.2
2.825013901760889, 1726.4
2.824757326537704, 1726.6
2.824500810748205, 1726.8
2.824244354371743, 1727.0
2.823987957387679, 1727.2
2.823731619775385, 1727.4
2.823475341514239, 1727.6
2.823219122583633, 1727.8
2.822962962962963, 1728.0
2.822706862631640, 1728.2
2.822450821569081, 1728.4
2.822194839754715, 1728.6
2.821938917167978, 1728.8
2.821683053788317, 1729.0
2.821427249595188, 1729.2
2.821171504568058, 1729.4
2.820915818686402, 1729.6
2.820660191929703, 1729.8
2.820404624277456, 1730.0
2.820149115709166, 1730.2
2.819893666204345, 1730.4
2.819638275742517, 1730.6
2.819382944303212, 1730.8
2.819127671865973, 1731.0
2.818872458410351, 1731.2
2.818617303915906, 1731.4
2.818362208362208, 1731.6
2.818107171728837, 1731.8
2.817852193995381, 1732.0
2.817597275141439, 1732.2
2.817342415146617, 1732.4
2.817087613990534, 1732.6
2.816832871652816, 1732.8
2.816578188113099, 1733.0
2.816323563351027, 1733.2
2.816068997346256, 1733.4
2.815814490078449, 1733.6
2.815560041527281, 1733.8
2.815305651672434, 1734.0
2.815051320493599, 1734.2
2.814797047970480, 1734.4
2.814542834082786, 1734.6
2.814288678810237, 1734.8
2.814034582132565, 1735.0
2.813780544029507, 1735.2
2.813526564480811, 1735.4
2.813272643466236, 1735.6
2.813018780965549, 1735.8
2.812764976958525, 1736.0
2.812511231424951, 1736.2
2.812257544344621, 1736.4
2.812003915697340, 1736.6
2.811750345462920, 1736.8
2.811496833621186, 1737.0
2.811243380151968, 1737.2
2.810989985035110, 1737.4
2.810736648250460, 1737.6
2.810483369777880, 1737.8
2.810230149597238, 1738.0
2.809976987688413, 1738.2
2.809723884031293, 1738.4
2.809470838605775, 1738.6
2.809217851391764, 1738.8
2.808964922369177, 1739.0
2.808712051517939, 1739.2
2.808459238817983, 1739.4
2.808206484249253, 1739.6
2.807953787791700, 1739.8
2.807701149425287, 1740.0
2.807448569129985, 1740.2
2.807196046885773, 1740.4
2.806943582672642, 1740.6
2.806691176470588, 1740.8
2.806438828259621, 1741.0
2.806186538019756, 1741.2
2.805934305731021, 1741.4
2.805682131373450, 1741.6
2.805430014927087, 1741.8
2.805177956371986, 1742.0
2.804925955688210, 1742.2
2.804674012855831, 1742.4
2.804422127854930, 1742.6
2.804170300665596, 1742.8
2.803918531267929, 1743.0
2.803666819642038, 1743.2
2.803415165768039, 1743.4
2.803163569626061, 1743.6
2.802912031196238, 1743.8
2.802660550458715, 1744.0
2.802409127393647, 1744.2
2.802157761981197, 1744.4
2.801906454201536, 1744.6
2.801655204034846, 1744.8
2.801404011461318, 1745.0
2.801152876461150, 1745.2
2.800901799014552, 1745.4
2.800650779101741, 1745.6
2.800399816702944, 1745.8
2.800148911798396, 1746.0
2.799898064368342, 1746.2
2.799647274393037, 1746.4
2.799396541852742, 1746.6
2.799145866727731, 1746.8
2.798895248998283, 1747.0
2.798644688644688, 1747.2
2.798394185647247, 1747.4
2.798143739986267, 1747.6
2.797893351642064, 1747.8
2.797643020594966, 1748.0
2.797392746825306, 1748.2
2.797142530313429, 1748.4
2.796892371039689, 1748.6
2.796642268984447, 1748.8
2.796392224128073, 1749.0
2.796142236450949, 1749.2
2.795892305933463, 1749.4
2.795642432556013, 1749.6
2.795392616299006, 1749.8
2.795142857142857, 1750.0
2.794893155067992, 1750.2
2.794643510054844, 1750.4
2.794393922083857, 1750.6
2.794144391135481, 1750.8
2.793894917190177, 1751.0
2.793645500228414, 1751.2
2.793396140230672, 1751.4
2.793146837177438, 1751.6
2.792897591049206, 1751.8
2.792648401826484, 1752.0
2.792399269489784, 1752.2
2.792150194019630, 1752.4
2.791901175396553, 1752.6
2.791652213601096, 1752.8
2.791403308613805, 1753.0
2.791154460415241, 1753.2
2.790905668985970, 1753.4
2.790656934306569, 1753.6
2.790408256357623, 1753.8
2.790159635119726, 1754.0
2.789911070573480, 1754.2
2.789662562699498, 1754.4
2.789414111478400, 1754.6
2.789165716890813, 1754.8
2.788917378917379, 1755.0
2.788669097538742, 1755.2
2.788420872735559, 1755.4
2.788172704488494, 1755.6
2.787924592778221, 1755.8
2.787676537585421, 1756.0
2.787428538890787, 1756.2
2.787180596675017, 1756.4
2.786932710918820, 1756.6
2.786684881602914, 1756.8
2.786437108708025, 1757.0
2.786189392214887, 1757.2
2.785941732104245, 1757.4
2.785694128356850, 1757.6
2.785446580953464, 1757.8
2.785199089874858, 1758.0
2.784951655101808, 1758.2
2.784704276615104, 1758.4
2.784456954395542, 1758.6
2.784209688423925, 1758.8
2.783962478681069, 1759.0
2.783715325147794, 1759.2
2.783468227804933, 1759.4
2.783221186633326, 1759.6
2.782974201613820, 1759.8
2.782727272727273, 1760.0
2.782480399954550, 1760.2
2.782233583276528, 1760.4
2.781986822674088, 1760.6
2.781740118128123, 1760.8
2.781493469619534, 1761.0
2.781246877129230, 1761.2
2.781000340638129, 1761.4
2.780753860127157, 1761.6
2.780507435577250, 1761.8
2.780261066969353, 1762.0
2.780014754284417, 1762.2
2.779768497503404, 1762.4
2.779522296607285, 1762.6
2.779276151577037, 1762.8
2.779030062393647, 1763.0
2.778784029038112, 1763.2
2.778538051491437, 1763.4
2.778292129734634, 1763.6
2.778046263748724, 1763.8
2.777800453514739, 1764.0
2.777554699013717, 1764.2
2.777309000226706, 1764.4
2.777063357134761, 1764.6
2.776817769718948, 1764.8
2.776572237960340, 1765.0
2.776326761840018, 1765.2
2.776081341339073, 1765.4
2.775835976438604, 1765.6
2.775590667119719, 1765.8
2.775345413363533, 1766.0
2.775100215151172, 1766.2
2.774855072463768, 1766.4
2.774609985282463, 1766.6
2.774364953588409, 1766.8
2.774119977362762, 1767.0
2.773875056586691, 1767.2
2.773630191241371, 1767.4
2.773385381307988, 1767.6
2.773140626767734, 1767.8
2.772895927601810, 1768.0
2.772651283791426, 1768.2
2.772406695317801, 1768.4
2.772162162162162, 1768.6
2.771917684305744, 1768.8
2.771673261729791, 1769.0
2.771428894415555, 1769.2
2.771184582344297, 1769.4
2.770940325497287, 1769.6
2.770696123855803, 1769.8
2.770451977401130, 1770.0
2.770207886114563, 1770.2
2.769963849977406, 1770.4
2.769719868970970, 1770.6
2.769475943076575, 1770.8
2.769232072275551, 1771.0
2.768988256549232, 1771.2
2.768744495878966, 1771.4
2.768500790246105, 1771.6
2.768257139632012, 1771.8
2.768013544018058, 1772.0
2.767770003385622, 1772.2
2.767526517716091, 1772.4
2.767283086990861, 1772.6
2.767039711191336, 1772.8
2.766796390298928, 1773.0
2.766553124295060, 1773.2
2.766309913161159, 1773.4
2.766066756878665, 1773.6
2.765823655429022, 1773.8
2.765580608793687, 1774.0
2.765337616954120, 1774.2
2.765094679891794, 1774.4
2.764851797588189, 1774.6
2.764608970024792, 1774.8
2.764366197183099, 1775.0
2.764123479044614, 1775.2
2.763880815590853, 1775.4
2.763638206803334, 1775.6
2.763395652663588, 1775.8
2.763153153153153, 1776.0
2.762910708253575, 1776.2
2.762668317946408, 1776.4
2.762425982213216, 1776.6
2.762183701035569, 1776.8
2.761941474395048, 1777.0
2.761699302273239, 1777.2
2.761457184651738, 1777.4
2.761215121512151, 1777.6
2.760973112836089, 1777.8
2.760731158605174, 1778.0
2.760489258801035, 1778.2
2.760247413405308, 1778.4
2.760005622399640, 1778.6
2.759763885765685, 1778.8
2.759522203485104, 1779.0
2.759280575539568, 1779.2
2.759039001910756, 1779.4
2.758797482580355, 1779.6
2.758556017530060, 1779.8
2.758314606741573, 1780.0
2.758073250196607, 1780.2
2.757831947876881, 1780.4
2.757590699764124, 1780.6
2.757349505840072, 1780.8
2.757108366086468, 1781.0
2.756867280485066, 1781.2
2.756626249017626, 1781.4
2.756385271665918, 1781.6
2.756144348411719, 1781.8
2.755903479236812, 1782.0
2.755662664122994, 1782.2
2.755421903052064, 1782.4
2.755181196005834, 1782.6
2.754940542966120, 1782.8
2.754699943914750, 1783.0
2.754459398833558, 1783.2
2.754218907704385, 1783.4
2.753978470509083, 1783.6
2.753738087229510, 1783.8
2.753497757847533, 1784.0
2.753257482345028, 1784.2
2.753017260703878, 1784.4
2.752777092905973, 1784.6
2.752536978933214, 1784.8
2.752296918767507, 1785.0
2.752056912390768, 1785.2
2.751816959784922, 1785.4
2.751577060931900, 1785.6
2.751337215813641, 1785.8
2.751097424412094, 1786.0
2.750857686709215, 1786.2
2.750618002686968, 1786.4
2.750378372327326, 1786.6
2.750138795612268, 1786.8
2.749899272523783, 1787.0
2.749659803043867, 1787.2
2.749420387154526, 1787.4
2.749181024837771, 1787.6
2.748941716075624, 1787.8
2.748702460850112, 1788.0
2.748463259143272, 1788.2
2.748224110937150, 1788.4
2.747985016213799, 1788.6
2.747745974955277, 1788.8
2.747506987143656, 1789.0
2.747268052761010, 1789.2
2.747029171789426, 1789.4
2.746790344210997, 1789.6
2.746551570007822, 1789.8
2.746312849162011, 1790.0
2.746074181655681, 1790.2
2.745835567470956, 1790.4
2.745597006589970, 1790.6
2.745358498994863, 1790.8
2.745120044667783, 1791.0
2.744881643590888, 1791.2
2.744643295746343, 1791.4
2.744405001116321, 1791.6
2.744166759683000, 1791.8
2.743928571428571, 1792.0
2.743690436335230, 1792.2
2.743452354385182, 1792.4
2.743214325560638, 1792.6
2.742976349843820, 1792.8
2.742738427216955, 1793.0
2.742500557662280, 1793.2
2.742262741162038, 1793.4
2.742024977698483, 1793.6
2.741787267253875, 1793.8
2.741549609810479, 1794.0
2.741312005350574, 1794.2
2.741074453856442, 1794.4
2.740836955310376, 1794.6
2.740599509694674, 1794.8
2.740362116991643, 1795.0
2.740124777183600, 1795.2
2.739887490252868, 1795.4
2.739650256181778, 1795.6
2.739413074952667, 1795.8
2.739175946547884, 1796.0
2.738938870949783, 1796.2
2.738701848140725, 1796.4
2.738464878103084, 1796.6
2.738227960819234, 1796.8
2.737991096271564, 1797.0
2.737754284442466, 1797.2
2.737517525314343, 1797.4
2.737280818869604, 1797.6
2.737044165090667, 1797.8
2.736807563959955, 1798.0
2.736571015459904, 1798.2
2.736334519572953, 1798.4
2.736098076281552, 1798.6
2.735861685568156, 1798.8
2.735625347415231, 1799.0
2.735389061805247, 1799.2
2.735152828720684, 1799.4
2.734916648144032, 1799.6
2.734680520057784, 1799.8
2.734444444444444, 1800.0
2.734208421286524, 1800.2
2.733972450566541, 1800.4
2.733736532267022, 1800.6
2.733500666370502, 1800.8
2.733264852859522, 1801.0
2.733029091716633, 1801.2
2.732793382924392, 1801.4
2.732557726465364, 1801.6
2.732322122322122, 1801.8
2.732086570477247, 1802.0
2.731851070913328, 1802.2
2.731615623612960, 1802.4
2.731380228558749, 1802.6
2.731144885733304, 1802.8
2.730909595119245, 1803.0
2.730674356699201, 1803.2
2.730439170455806, 1803.4
2.730204036371701, 1803.6
2.729968954429538, 1803.8
2.729733924611973, 1804.0
2.729498946901673, 1804.2
2.729264021281312, 1804.4
2.729029147733570, 1804.6
2.728794326241135, 1804.8
2.728559556786704, 1805.0
2.728324839352980, 1805.2
2.728090173922676, 1805.4
2.727855560478511, 1805.6
2.727620999003212, 1805.8
2.727386489479513, 1806.0
2.727152031890156, 1806.2
2.726917626217892, 1806.4
2.726683272445478, 1806.6
2.726448970555678, 1806.8
2.726214720531267, 1807.0
2.725980522355024, 1807.2
2.725746376009738, 1807.4
2.725512281478203, 1807.6
2.725278238743224, 1807.8
2.725044247787610, 1808.0
2.724810308594182, 1808.2
2.724576421145764, 1808.4
2.724342585425191, 1808.6
2.724108801415303, 1808.8
2.723875069098950, 1809.0
2.723641388458987, 1809.2
2.723407759478280, 1809.4
2.723174182139700, 1809.6
2.722940656426124, 1809.8
2.722707182320442, 1810.0
2.722473759805546, 1810.2
2.722240388864339, 1810.4
2.722007069479730, 1810.6
2.721773801634637, 1810.8
2.721540585311982, 1811.0
2.721307420494699, 1811.2
2.721074307165728, 1811.4
2.720841245308015, 1811.6
2.720608234904515, 1811.8
2.720375275938190, 1812.0
2.720142368392009, 1812.2
2.719909512248952, 1812.4
2.719676707492000, 1812.6
2.719443954104148, 1812.8
2.719211252068395, 1813.0
2.718978601367747, 1813.2
2.718746001985221, 1813.4
2.718513453903838, 1813.6
2.718280957106627, 1813.8
2.718048511576626, 1814.0
2.717816117296880, 1814.2
2.717583774250441, 1814.4
2.717351482420368, 1814.6
2.717119241789729, 1814.8
2.716887052341598, 1815.0
2.716654914059057, 1815.2
2.716422826925195, 1815.4
2.716190790923111, 1815.6
2.715958806035907, 1815.8
2.715726872246696, 1816.0
2.715494989538597, 1816.2
2.715263157894737, 1816.4
2.715031377298249, 1816.6
2.714799647732276, 1816.8
2.714567969179967, 1817.0
2.714336341624477, 1817.2
2.714104765048971, 1817.4
2.713873239436620, 1817.6
2.713641764770602, 1817.8
2.713410341034103, 1818.0
2.713178968210318, 1818.2
2.712947646282446, 1818.4
2.712716375233696, 1818.6
2.712485155047284, 1818.8
2.712253985706432, 1819.0
2.712022867194371, 1819.2
2.711791799494339, 1819.4
2.711560782589580, 1819.6
2.711329816463348, 1819.8
2.711098901098901, 1820.0
2.710868036479507, 1820.2
2.710637222588442, 1820.4
2.710406459408986, 1820.6
2.710175746924429, 1820.8
2.709945085118067, 1821.0
2.709714473973204, 1821.2
2.709483913473152, 1821.4
2.709253403601230, 1821.6
2.709022944340762, 1821.8
2.708792535675082, 1822.0
2.708562177587531, 1822.2
2.708331870061457, 1822.4
2.708101613080215, 1822.6
2.707871406627167, 1822.8
2.707641250685683, 1823.0
2.707411145239140, 1823.2
2.707181090270922, 1823.4
2.706951085764422, 1823.6
2.706721131703038, 1823.8
2.706491228070175, 1824.0
2.706261374849249, 1824.2
2.706031572023679, 1824.4
2.705801819576894, 1824.6
2.705572117492328, 1824.8
2.705342465753425, 1825.0
2.705112864343633, 1825.2
2.704883313246412, 1825.4
2.704653812445224, 1825.6
2.704424361923540, 1825.8
2.704194961664841, 1826.0
2.703965611652612, 1826.2
2.703736311870346, 1826.4
2.703507062301544, 1826.6
2.703277862929713, 1826.8
2.703048713738369, 1827.0
2.702819614711033, 1827.2
2.702590565831235, 1827.4
2.702361567082513, 1827.6
2.702132618448408, 1827.8
2.701903719912472, 1828.0
2.701674871458265, 1828.2
2.701446073069350, 1828.4
2.701217324729301, 1828.6
2.700988626421697, 1828.8
2.700759978130125, 1829.0
2.700531379838180, 1829.2
2.700302831529463, 1829.4
2.700074333187582, 1829.6
2.699845884796153, 1829.8
2.699617486338798, 1830.0
2.699389137799147, 1830.2
2.699160839160839, 1830.4
2.698932590407517, 1830.6
2.698704391522831, 1830.8
2.698476242490442, 1831.0
2.698248143294015, 1831.2
2.698020093917222, 1831.4
2.697792094343743, 1831.6
2.697564144557266, 1831.8
2.697336244541485, 1832.0
2.697108394280100, 1832.2
2.696880593756821, 1832.4
2.696652842955364, 1832.6
2.696425141859450, 1832.8
2.696197490452810, 1833.0
2.695969888719179, 1833.2
2.695742336642304, 1833.4
2.695514834205934, 1833.6
2.695287381393827, 1833.8
2.695059978189749, 1834.0
2.694832624577472, 1834.2
2.694605320540776, 1834.4
2.694378066063447, 1834.6
2.694150861129278, 1834.8
2.693923705722071, 1835.0
2.693696599825632, 1835.2
2.693469543423777, 1835.4
2.693242536500327, 1835.6
2.693015579039111, 1835.8
2.692788671023965, 1836.0
2.692561812438732, 1836.2
2.692335003267262, 1836.4
2.692108243493412, 1836.6
2.691881533101045, 1836.8
2.691654872074034, 1837.0
2.691428260396255, 1837.2
2.691201698051594, 1837.4
2.690975185023944, 1837.6
2.690748721297203, 1837.8
2.690522306855277, 1838.0
2.690295941682080, 1838.2
2.690069625761532, 1838.4
2.689843359077559, 1838.6
2.689617141614096, 1838.8
2.689390973355084, 1839.0
2.689164854284471, 1839.2
2.688938784386213, 1839.4
2.688712763644270, 1839.6
2.688486792042613, 1839.8
2.688260869565217, 1840.0
2.688034996196066, 1840.2
2.687809171919148, 1840.4
2.687583396718461, 1840.6
2.687357670578010, 1840.8
2.687131993481803, 1841.0
2.686906365413861, 1841.2
2.686680786358206, 1841.4
2.686455256298871, 1841.6
2.686229775219894, 1841.8
2.686004343105320, 1842.0
2.685778959939203, 1842.2
2.685553625705601, 1842.4
2.685328340388581, 1842.6
2.685103103972216, 1842.8
2.684877916440586, 1843.0
2.684652777777778, 1843.2
2.684427687967885, 1843.4
2.684202646995010, 1843.6
2.683977654843258, 1843.8
2.683752711496746, 1844.0
2.683527816939594, 1844.2
2.683302971155931, 1844.4
2.683078174129893, 1844.6
2.682853425845620, 1844.8
2.682628726287263, 1845.0
2.682404075438976, 1845.2
2.682179473284924, 1845.4
2.681954919809276, 1845.6
2.681730414996208, 1845.8
2.681505958829902, 1846.0
2.681281551294551, 1846.2
2.681057192374350, 1846.4
2.680832882053504, 1846.6
2.680608620316223, 1846.8
2.680384407146724, 1847.0
2.680160242529233, 1847.2
2.679936126447981, 1847.4
2.679712058887205, 1847.6
2.679488039831150, 1847.8
2.679264069264069, 1848.0
2.679040147170220, 1848.2
2.678816273533867, 1848.4
2.678592448339284, 1848.6
2.678368671570749, 1848.8
2.678144943212547, 1849.0
2.677921263248972, 1849.2
2.677697631664323, 1849.4
2.677474048442907, 1849.6
2.677250513569034, 1849.8
2.677027027027027, 1850.0
2.676803588801210, 1850.2
2.676580198875918, 1850.4
2.676356857235491, 1850.6
2.676133563864275, 1850.8
2.675910318746623, 1851.0
2.675687121866897, 1851.2
2.675463973209463, 1851.4
2.675240872758695, 1851.6
2.675017820498974, 1851.8
2.674794816414687, 1852.0
2.674571860490228, 1852.2
2.674348952709998, 1852.4
2.674126093058404, 1852.6
2.673903281519862, 1852.8
2.673680518078791, 1853.0
2.673457802719620, 1853.2
2.673235135426783, 1853.4
2.673012516184722, 1853.6
2.672789944977883, 1853.8
2.672567421790723, 1854.0
2.672344946607701, 1854.2
2.672122519413287, 1854.4
2.671900140191955, 1854.6
2.671677808928186, 1854.8
2.671455525606469, 1855.0
2.671233290211298, 1855.2
2.671011102727174, 1855.4
2.670788963138607, 1855.6
2.670566871430111, 1855.8
2.670344827586207, 1856.0
2.670122831591423, 1856.2
2.669900883430295, 1856.4
2.669678983087364, 1856.6
2.669457130547178, 1856.8
2.669235325794292, 1857.0
2.669013568813267, 1857.2
2.668791859588672, 1857.4
2.668570198105082, 1857.6
2.668348584347077, 1857.8
2.668127018299246, 1858.0
2.667905499946184, 1858.2
2.667684029272492, 1858.4
2.667462606262778, 1858.6
2.667241230901657, 1858.8
2.667019903173749, 1859.0
2.666798623063683, 1859.2
2.666577390556093, 1859.4
2.666356205635620, 1859.6
2.666135068286913, 1859.8
2.665913978494624, 1860.0
2.665692936243414, 1860.2
2.665471941517953, 1860.4
2.665250994302913, 1860.6
2.665030094582975, 1860.8
2.664809242342826, 1861.0
2.664588437567161, 1861.2
2.664367680240679, 1861.4
2.664146970348088, 1861.6
2.663926307874100, 1861.8
2.663705692803437, 1862.0
2.663485125120824, 1862.2
2.663264604810996, 1862.4
2.663044131858692, 1862.6
2.662823706248658, 1862.8
2.662603327965646, 1863.0
2.662382996994418, 1863.2
2.662162713319738, 1863.4
2.661942476926379, 1863.6
2.661722287799120, 1863.8
2.661502145922747, 1864.0
2.661282051282051, 1864.2
2.661062003861832, 1864.4
2.660842003646895, 1864.6
2.660622050622051, 1864.8
2.660402144772118, 1865.0
2.660182286081922, 1865.2
2.659962474536292, 1865.4
2.659742710120069, 1865.6
2.659522992818094, 1865.8
2.659303322615219, 1866.0
2.659083699496303, 1866.2
2.658864123446206, 1866.4
2.658644594449802, 1866.6
2.658425112491965, 1866.8
2.658205677557579, 1867.0
2.657986289631534, 1867.2
2.657766948698725, 1867.4
2.657547654744056, 1867.6
2.657328407752436, 1867.8
2.657109207708779, 1868.0
2.656890054598009, 1868.2
2.656670948405052, 1868.4
2.656451889114845, 1868.6
2.656232876712329, 1868.8
2.656013911182451, 1869.0
2.655794992510164, 1869.2
2.655576120680432, 1869.4
2.655357295678220, 1869.6
2.655138517488501, 1869.8
2.654919786096257, 1870.0
2.654701101486472, 1870.2
2.654482463644140, 1870.4
2.654263872554261, 1870.6
2.654045328201839, 1870.8
2.653826830571886, 1871.0
2.653608379649423, 1871.2
2.653389975419472, 1871.4
2.653171617867065, 1871.6
2.652953306977241, 1871.8
2.652735042735042, 1872.0
2.652516825125521, 1872.2
2.652298654133732, 1872.4
2.652080529744740, 1872.6
2.651862451943614, 1872.8
2.651644420715430, 1873.0
2.651426436045270, 1873.2
2.651208497918223, 1873.4
2.650990606319385, 1873.6
2.650772761233856, 1873.8
2.650554962646745, 1874.0
2.650337210543165, 1874.2
2.650119504908237, 1874.4
2.649901845727088, 1874.6
2.649684232984852, 1874.8
2.649466666666667, 1875.0
2.649249146757679, 1875.2
2.649031673243041, 1875.4
2.648814246107912, 1875.6
2.648596865337456, 1875.8
2.648379530916844, 1876.0
2.648162242831254, 1876.2
2.647945001065870, 1876.4
2.647727805605883, 1876.6
2.647510656436487, 1876.8
2.647293553542887, 1877.0
2.647076496910292, 1877.2
2.646859486523916, 1877.4
2.646642522368982, 1877.6
2.646425604430717, 1877.8
2.646208732694356, 1878.0
2.645991907145139, 1878.2
2.645775127768313, 1878.4
2.645558394549132, 1878.6
2.645341707472855, 1878.8
2.645125066524747, 1879.0
2.644908471690081, 1879.2
2.644691922954134, 1879.4
2.644475420302192, 1879.6
2.644258963719544, 1879.8
2.644042553191489, 1880.0
2.643826188703329, 1880.2
2.643609870240374, 1880.4
2.643393597787940, 1880.6
2.643177371331348, 1880.8
2.642961190855928, 1881.0
2.642745056347013, 1881.2
2.642528967789943, 1881.4
2.642312925170068, 1881.6
2.642096928472739, 1881.8
2.641880977683316, 1882.0
2.641665072787164, 1882.2
2.641449213769655, 1882.4
2.641233400616169, 1882.6
2.641017633312088, 1882.8
2.640801911842804, 1883.0
2.640586236193712, 1883.2
2.640370606350217, 1883.4
2.640155022297728, 1883.6
2.639939484021658, 1883.8
2.639723991507431, 1884.0
2.639508544740473, 1884.2
2.639293143706219, 1884.4
2.639077788390109, 1884.6
2.638862478777589, 1884.8
2.638647214854111, 1885.0
2.638431996605135, 1885.2
2.638216824016124, 1885.4
2.638001697072550, 1885.6
2.637786615759889, 1885.8
2.637571580063627, 1886.0
2.637356589969250, 1886.2
2.637141645462256, 1886.4
2.636926746528146, 1886.6
2.636711893152427, 1886.8
2.636497085320614, 1887.0
2.636282323018228, 1887.2
2.636067606230793, 1887.4
2.635852934943844, 1887.6
2.635638309142918, 1887.8
2.635423728813559, 1888.0
2.635209193941320, 1888.2
2.634994704511756, 1888.4
2.634780260510431, 1888.6
2.634565861922914, 1888.8
2.634351508734780, 1889.0
2.634137200931611, 1889.2
2.633922938498994, 1889.4
2.633708721422523, 1889.6
2.633494549687798, 1889.8
2.633280423280423, 1890.0
2.633066342186012, 1890.2
2.632852306390182, 1890.4
2.632638315878557, 1890.6
2.632424370636767, 1890.8
2.632210470650449, 1891.0
2.631996615905245, 1891.2
2.631782806386803, 1891.4
2.631569042080778, 1891.6
2.631355322972830, 1891.8
2.631141649048625, 1892.0
2.630928020293838, 1892.2
2.630714436694145, 1892.4
2.630500898235232, 1892.6
2.630287404902790, 1892.8
2.630073956682514, 1893.0
2.629860553560110, 1893.2
2.629647195521284, 1893.4
2.629433882551753, 1893.6
2.629220614637237, 1893.8
2.629007391763464, 1894.0
2.628794213916165, 1894.2
2.628581081081081, 1894.4
2.628367993243956, 1894.6
2.628154950390543, 1894.8
2.627941952506596, 1895.0
2.627728999577881, 1895.2
2.627516091590166, 1895.4
2.627303228529226, 1895.6
2.627090410380842, 1895.8
2.626877637130801, 1896.0
2.626664908764898, 1896.2
2.626452225268930, 1896.4
2.626239586628704, 1896.6
2.626026992830029, 1896.8
2.625814443858724, 1897.0
2.625601939700611, 1897.2
2.625389480341520, 1897.4
2.625177065767285, 1897.6
2.624964695963747, 1897.8
2.624752370916754, 1898.0
2.624540090612159, 1898.2
2.624327855035820, 1898.4
2.624115664173602, 1898.6
2.623903518011375, 1898.8
2.623691416535018, 1899.0
2.623479359730413, 1899.2
2.623267347583447, 1899.4
2.623055380080017, 1899.6
2.622843457206022, 1899.8
2.622631578947368, 1900.0
2.622419745289969, 1900.2
2.622207956219743, 1900.4
2.621996211722614, 1900.6
2.621784511784512, 1900.8
2.621572856391373, 1901.0
2.621361245529140, 1901.2
2.621149679183759, 1901.4
2.620938157341187, 1901.6
2.620726679987381, 1901.8
2.620515247108307, 1902.0
2.620303858689938, 1902.2
2.620092514718250, 1902.4
2.619881215179229, 1902.6
2.619669960058860, 1902.8
2.619458749343142, 1903.0
2.619247583018075, 1903.2
2.619036461069665, 1903.4
2.618825383483925, 1903.6
2.618614350246875, 1903.8
2.618403361344538, 1904.0
2.618192416762945, 1904.2
2.617981516488133, 1904.4
2.617770660506143, 1904.6
2.617559848803024, 1904.8
2.617349081364829, 1905.0
2.617138358177619, 1905.2
2.616927679227459, 1905.4
2.616717044500420, 1905.6
2.616506453982579, 1905.8
2.616295907660021, 1906.0
2.616085405518833, 1906.2
2.615874947545111, 1906.4
2.615664533724956, 1906.6
2.615454164044472, 1906.8
2.615243838489774, 1907.0
2.615033557046980, 1907.2
2.614823319702212, 1907.4
2.614613126441602, 1907.6
2.614402977251284, 1907.8
2.614192872117400, 1908.0
2.613982811026098, 1908.2
2.613772793963530, 1908.4
2.613562820915854, 1908.6
2.613352891869237, 1908.8
2.613143006809848, 1909.0
2.612933165723863, 1909.2
2.612723368597465, 1909.4
2.612513615416841, 1909.6
2.612303906168185, 1909.8
2.612094240837696, 1910.0
2.611884619411580, 1910.2
2.611675041876047, 1910.4
2.611465508217314, 1910.6
2.611256018421603, 1910.8
2.611046572475144, 1911.0
2.610837170364169, 1911.2
2.610627812074919, 1911.4
2.610418497593639, 1911.6
2.610209226906580, 1911.8
2.610000000000000, 1912.0
2.609790816860161, 1912.2
2.609581677473332, 1912.4
2.609372581825787, 1912.6
2.609163529903806, 1912.8
2.608954521693675, 1913.0
2.608745557181685, 1913.2
2.608536636354134, 1913.4
2.608327759197325, 1913.6
2.608118925697565, 1913.8
2.607910135841170, 1914.0
2.607701389614460, 1914.2
2.607492687003761, 1914.4
2.607284027995404, 1914.6
2.607075412575726, 1914.8
2.606866840731071, 1915.0
2.606658312447786, 1915.2
2.606449827712227, 1915.4
2.606241386510754, 1915.6
2.606032988829732, 1915.8
2.605824634655532, 1916.0
2.605616323974533, 1916.2
2.605408056773116, 1916.4
2.605199833037671, 1916.6
2.604991652754591, 1916.8
2.604783515910277, 1917.0
2.604575422491133, 1917.2
2.604367372483571, 1917.4
2.604159365874009, 1917.6
2.603951402648868, 1917.8
2.603743482794578, 1918.0
2.603535606297571, 1918.2
2.603327773144287, 1918.4
2.603119983321172, 1918.6
2.602912236814676, 1918.8
2.602704533611256, 1919.0
2.602496873697374, 1919.2
2.602289257059498, 1919.4
2.602081683684101, 1919.6
2.601874153557662, 1919.8
2.601666666666667, 1920.0
2.601459222997605, 1920.2
2.601251822536971, 1920.4
2.601044465271269, 1920.6
2.600837151187005, 1920.8
2.600629880270692, 1921.0
2.600422652508849, 1921.2
2.600215467887998, 1921.4
2.600008326394671, 1921.6
2.599801228015402, 1921.8
2.599594172736733, 1922.0
2.599387160545208, 1922.2
2.599180191427382, 1922.4
2.598973265369812, 1922.6
2.598766382359060, 1922.8
2.598559542381695, 1923.0
2.598352745424293, 1923.2
2.598145991473432, 1923.4
2.597939280515700, 1923.6
2.597732612537686, 1923.8
2.597525987525988, 1924.0
2.597319405467207, 1924.2
2.597112866347953, 1924.4
2.596906370154838, 1924.6
2.596699916874480, 1924.8
2.596493506493506, 1925.0
2.596287138998545, 1925.2
2.596080814376233, 1925.4
2.595874532613212, 1925.6
2.595668293696126, 1925.8
2.595462097611630, 1926.0
2.595255944346381, 1926.2
2.595049833887043, 1926.4
2.594843766220285, 1926.6
2.594637741332780, 1926.8
2.594431759211209, 1927.0
2.594225819842258, 1927.2
2.594019923212618, 1927.4
2.593814069308985, 1927.6
2.593608258118062, 1927.8
2.593402489626556, 1928.0
2.593196763821180, 1928.2
2.592991080688654, 1928.4
2.592785440215700, 1928.6
2.592579842389050, 1928.8
2.592374287195438, 1929.0
2.592168774621605, 1929.2
2.591963304654297, 1929.4
2.591757877280266, 1929.6
2.591552492486268, 1929.8
2.591347150259067, 1930.0
2.591141850585431, 1930.2
2.590936593452134, 1930.4
2.590731378845955, 1930.6
2.590526206753677, 1930.8
2.590321077162092, 1931.0
2.590115990057995, 1931.2
2.589910945428187, 1931.4
2.589705943259474, 1931.6
2.589500983538668, 1931.8
2.589296066252588, 1932.0
2.589091191388055, 1932.2
2.588886358931898, 1932.4
2.588681568870951, 1932.6
2.588476821192053, 1932.8
2.588272115882049, 1933.0
2.588067452927788, 1933.2
2.587862832316127, 1933.4
2.587658254033927, 1933.6
2.587453718068053, 1933.8
2.587249224405377, 1934.0
2.587044773032778, 1934.2
2.586840363937138, 1934.4
2.586635997105345, 1934.6
2.586431672524292, 1934.8
2.586227390180878, 1935.0
2.586023150062009, 1935.2
2.585818952154593, 1935.4
2.585614796445546, 1935.6
2.585410682921789, 1935.8
2.585206611570248, 1936.0
2.585002582377853, 1936.2
2.584798595331543, 1936.4
2.584594650418259, 1936.6
2.584390747624949, 1936.8
2.584186886938565, 1937.0
2.583983068346067, 1937.2
2.583779291834417, 1937.4
2.583575557390586, 1937.6
2.583371865001548, 1937.8
2.583168214654283, 1938.0
2.582964606335775, 1938.2
2.582761040033017, 1938.4
2.582557515733003, 1938.6
2.582354033422736, 1938.8
2.582150593089221, 1939.0
2.581947194719472, 1939.2
2.581743838300505, 1939.4
2.581540523819344, 1939.6
2.581337251263017, 1939.8
2.581134020618557, 1940.0
2.580930831873003, 1940.2
2.580727685013399, 1940.4
2.580524580026796, 1940.6
2.580321516900247, 1940.8
2.580118495620814, 1941.0
2.579915516175562, 1941.2
2.579712578551561, 1941.4
2.579509682735888, 1941.6
2.579306828715625, 1941.8
2.579104016477858, 1942.0
2.578901246009680, 1942.2
2.578698517298188, 1942.4
2.578495830330485, 1942.6
2.578293185093679, 1942.8
2.578090581574884, 1943.0
2.577888019761219, 1943.2
2.577685499639806, 1943.4
2.577483021197777, 1943.6
2.577280584422266, 1943.8
2.577078189300412, 1944.0
2.576875835819360, 1944.2
2.576673523966262, 1944.4
2.576471253728273, 1944.6
2.576269025092555, 1944.8
2.576066838046272, 1945.0
2.575864692576599, 1945.2
2.575662588670710, 1945.4
2.575460526315790, 1945.6
2.575258505499023, 1945.8
2.575056526207606, 1946.0
2.574854588428733, 1946.2
2.574652692149610, 1946.4
2.574450837357444, 1946.6
2.574249024039450, 1946.8
2.574047252182845, 1947.0
2.573845521774856, 1947.2
2.573643832802711, 1947.4
2.573442185253646, 1947.6
2.573240579114899, 1947.8
2.573039014373717, 1948.0
2.572837491017349, 1948.2
2.572636009033053, 1948.4
2.572434568408088, 1948.6
2.572233169129721, 1948.8
2.572031811185223, 1949.0
2.571830494561871, 1949.2
2.571629219246948, 1949.4
2.571427985227739, 1949.6
2.571226792491538, 1949.8
2.571025641025641, 1950.0
2.570824530817352, 1950.2
2.570623461853978, 1950.4
2.570422434122834, 1950.6
2.570221447611237, 1950.8
2.570020502306510, 1951.0
2.569819598195982, 1951.2
2.569618735266988, 1951.4
2.569417913506866, 1951.6
2.569217132902962, 1951.8
2.569016393442623, 1952.0
2.568815695113206, 1952.2
2.568615037902069, 1952.4
2.568414421796579, 1952.6
2.568213846784105, 1952.8
2.568013312852023, 1953.0
2.567812819987712, 1953.2
2.567612368178561, 1953.4
2.567411957411958, 1953.6
2.567211587675299, 1953.8
2.567011258955988, 1954.0
2.566810971241429, 1954.2
2.566610724519034, 1954.4
2.566410518776220, 1954.6
2.566210354000409, 1954.8
2.566010230179028, 1955.0
2.565810147299509, 1955.2
2.565610105349289, 1955.4
2.565410104315811, 1955.6
2.565210144186522, 1955.8
2.565010224948875, 1956.0
2.564810346590328, 1956.2
2.564610509098344, 1956.4
2.564410712460391, 1956.6
2.564210956663941, 1956.8
2.564011241696474, 1957.0
2.563811567545473, 1957.2
2.563611934198426, 1957.4
2.563412341642828, 1957.6
2.563212789866177, 1957.8
2.563013278855975, 1958.0
2.562813808599735, 1958.2
2.562614379084967, 1958.4
2.562414990299193, 1958.6
2.562215642229937, 1958.8
2.562016334864727, 1959.0
2.561817068191099, 1959.2
2.561617842196591, 1959.4
2.561418656868749, 1959.6
2.561219512195122, 1959.8
2.561020408163265, 1960.0
2.560821344760739, 1960.2
2.560622321975107, 1960.4
2.560423339793941, 1960.6
2.560224398204814, 1960.8
2.560025497195308, 1961.0
2.559826636753008, 1961.2
2.559627816865504, 1961.4
2.559429037520391, 1961.6
2.559230298705271, 1961.8
2.559031600407747, 1962.0
2.558832942615432, 1962.2
2.558634325315940, 1962.4
2.558435748496892, 1962.6
2.558237212145914, 1962.8
2.558038716250637, 1963.0
2.557840260798696, 1963.2
2.557641845777733, 1963.4
2.557443471175392, 1963.6
2.557245136979326, 1963.8
2.557046843177190, 1964.0
2.556848589756644, 1964.2
2.556650376705355, 1964.4
2.556452204010994, 1964.6
2.556254071661238, 1964.8
2.556055979643766, 1965.0
2.555857927946265, 1965.2
2.555659916556426, 1965.4
2.555461945461945, 1965.6
2.555264014650524, 1965.8
2.555066124109868, 1966.0
2.554868273827688, 1966.2
2.554670463791700, 1966.4
2.554472693989627, 1966.6
2.554274964409192, 1966.8
2.554077275038129, 1967.0
2.553879625864172, 1967.2
2.553682016875063, 1967.4
2.553484448058549, 1967.6
2.553286919402378, 1967.8
2.553089430894309, 1968.0
2.552891982522101, 1968.2
2.552694574273521, 1968.4
2.552497206136341, 1968.6
2.552299878098334, 1968.8
2.552102590147283, 1969.0
2.551905342270973, 1969.2
2.551708134457195, 1969.4
2.551510966693745, 1969.6
2.551313838968423, 1969.8
2.551116751269035, 1970.0
2.550919703583392, 1970.2
2.550722695899310, 1970.4
2.550525728204608, 1970.6
2.550328800487112, 1970.8
2.550131912734652, 1971.0
2.549935064935065, 1971.2
2.549738257076189, 1971.4
2.549541489145871, 1971.6
2.549344761131961, 1971.8
2.549148073022312, 1972.0
2.548951424804787, 1972.2
2.548754816467248, 1972.4
2.548558247997567, 1972.6
2.548361719383617, 1972.8
2.548165230613279, 1973.0
2.547968781674437, 1973.2
2.547772372554981, 1973.4
2.547576003242805, 1973.6
2.547379673725808, 1973.8
2.547183383991895, 1974.0
2.546987134028974, 1974.2
2.546790923824959, 1974.4
2.546594753367771, 1974.6
2.546398622645331, 1974.8
2.546202531645569, 1975.0
2.546006480356420, 1975.2
2.545810468765819, 1975.4
2.545614496861713, 1975.6
2.545418564632048, 1975.8
2.545222672064777, 1976.0
2.545026819147859, 1976.2
2.544831005869257, 1976.4
2.544635232216938, 1976.6
2.544439498178875, 1976.8
2.544243803743045, 1977.0
2.544048148897430, 1977.2
2.543852533630019, 1977.4
2.543656957928803, 1977.6
2.543461421781778, 1977.8
2.543265925176946, 1978.0
2.543070468102315, 1978.2
2.542875050545895, 1978.4
2.542679672495704, 1978.6
2.542484333939762, 1978.8
2.542289034866094, 1979.0
2.542093775262732, 1979.2
2.541898555117712, 1979.4
2.541703374419074, 1979.6
2.541508233154864, 1979.8
2.541313131313131, 1980.0
2.541118068881931, 1980.2
2.540923045849323, 1980.4
2.540728062203373, 1980.6
2.540533117932149, 1980.8
2.540338213023726, 1981.0
2.540143347466182, 1981.2
2.539948521247603, 1981.4
2.539753734356076, 1981.6
2.539558986779695, 1981.8
2.539364278506559, 1982.0
2.539169609524770, 1982.2
2.538974979822437, 1982.4
2.538780389387673, 1982.6
2.538585838208594, 1982.8
2.538391326273323, 1983.0
2.538196853569988, 1983.2
2.538002420086720, 1983.4
2.537808025811656, 1983.6
2.537613670732937, 1983.8
2.537419354838710, 1984.0
2.537225078117125, 1984.2
2.537030840556339, 1984.4
2.536836642144513, 1984.6
2.536642482869810, 1984.8
2.536448362720403, 1985.0
2.536254281684465, 1985.2
2.536060239750176, 1985.4
2.535866236905721, 1985.6
2.535672273139289, 1985.8
2.535478348439073, 1986.0
2.535284462793273, 1986.2
2.535090616190093, 1986.4
2.534896808617739, 1986.6
2.534703040064425, 1986.8
2.534509310518370, 1987.0
2.534315619967794, 1987.2
2.534121968400926, 1987.4
2.533928355805997, 1987.6
2.533734782171245, 1987.8
2.533541247484909, 1988.0
2.533347751735238, 1988.2
2.533154294910481, 1988.4
2.532960876998894, 1988.6
2.532767497988737, 1988.8
2.532574157868276, 1989.0
2.532380856625779, 1989.2
2.532187594249522, 1989.4
2.531994370727785, 1989.6
2.531801186048849, 1989.8
2.531608040201005, 1990.0
2.531414933172545, 1990.2
2.531221864951768, 1990.4
2.531028835526977, 1990.6
2.530835844886478, 1990.8
2.530642893018584, 1991.0
2.530449979911611, 1991.2
2.530257105553881, 1991.4
2.530064269933722, 1991.6
2.529871473039462, 1991.8
2.529678714859438, 1992.0
2.529485995381989, 1992.2
2.529293314595463, 1992.4
2.529100672488207, 1992.6
2.528908069048575, 1992.8
2.528715504264927, 1993.0
2.528522978125627, 1993.2
2.528330490619043, 1993.4
2.528138041733548, 1993.6
2.527945631457518, 1993.8
2.527753259779338, 1994.0
2.527560926687393, 1994.2
2.527368632170076, 1994.4
2.527176376215783, 1994.6
2.526984158812914, 1994.8
2.526791979949875, 1995.0
2.526599839615076, 1995.2
2.526407737796933, 1995.4
2.526215674483864, 1995.6
2.526023649664295, 1995.8
2.525831663326653, 1996.0
2.525639715459373, 1996.2
2.525447806050892, 1996.4
2.525255935089652, 1996.6
2.525064102564103, 1996.8
2.524872308462694, 1997.0
2.524680552773884, 1997.2
2.524488835486132, 1997.4
2.524297156587906, 1997.6
2.524105516067674, 1997.8
2.523913913913914, 1998.0
2.523722350115103, 1998.2
2.523530824659728, 1998.4
2.523339337536275, 1998.6
2.523147888733240, 1998.8
2.522956478239120, 1999.0
2.522765106042417, 1999.2
2.522573772131639, 1999.4
2.522382476495299, 1999.6
2.522191219121912, 1999.8
2.522000000000000, 2000.0
2.521808819118088, 2000.2
2.521617676464707, 2000.4
2.521426572028392, 2000.6
2.521235505797681, 2000.8
2.521044477761119, 2001.0
2.520853487907256, 2001.2
2.520662536224643, 2001.4
2.520471622701839, 2001.6
2.520280747327405, 2001.8
2.520089910089910, 2002.0
2.519899110977924, 2002.2
2.519708349980024, 2002.4
2.519517627084790, 2002.6
2.519326942280807, 2002.8
2.519136295556665, 2003.0
2.518945686900958, 2003.2
2.518755116302286, 2003.4
2.518564583749252, 2003.6
2.518374089230462, 2003.8
2.518183632734531, 2004.0
2.517993214250075, 2004.2
2.517802833765715, 2004.4
2.517612491270079, 2004.6
2.517422186751796, 2004.8
2.517231920199501, 2005.0
2.517041691601835, 2005.2
2.516851500947442, 2005.4
2.516661348224970, 2005.6
2.516471233423073, 2005.8
2.516281156530409, 2006.0
2.516091117535639, 2006.2
2.515901116427432, 2006.4
2.515711153194458, 2006.6
2.515521227825394, 2006.8
2.515331340308919, 2007.0
2.515141490633718, 2007.2
2.514951678788483, 2007.4
2.514761904761905, 2007.6
2.514572168542684, 2007.8
2.514382470119522, 2008.0
2.514192809481127, 2008.2
2.514003186616212, 2008.4
2.513813601513492, 2008.6
2.513624054161689, 2008.8
2.513434544549527, 2009.0
2.513245072665737, 2009.2
2.513055638499055, 2009.4
2.512866242038217, 2009.6
2.512676883271967, 2009.8
2.512487562189055, 2010.0
2.512298278778231, 2010.2
2.512109033028253, 2010.4
2.511919824927882, 2010.6
2.511730654465884, 2010.8
2.511541521631029, 2011.0
2.511352426412092, 2011.2
2.511163368797852, 2011.4
2.510974348777093, 2011.6
2.510785366338602, 2011.8
2.510596421471173, 2012.0
2.510407514163602, 2012.2
2.510218644404691, 2012.4
2.510029812183246, 2012.6
2.509841017488077, 2012.8
2.509652260307998, 2013.0
2.509463540631830, 2013.2
2.509274858448395, 2013.4
2.509086213746524, 2013.6
2.508897606515046, 2013.8
2.508709036742800, 2014.0
2.508520504418628, 2014.2
2.508332009531374, 2014.4
2.508143552069890, 2014.6
2.507955132023030, 2014.8
2.507766749379653, 2015.0
2.507578404128622, 2015.2
2.507390096258807, 2015.4
2.507201825759079, 2015.6
2.507013592618315, 2015.8
2.506825396825397, 2016.0
2.506637238369209, 2016.2
2.506449117238643, 2016.4
2.506261033422593, 2016.6
2.506072986909957, 2016.8
2.505884977689638, 2017.0
2.505697005750545, 2017.2
2.505509071081590, 2017.4
2.505321173671689, 2017.6
2.505133313509763, 2017.8
2.504945490584737, 2018.0
2.504757704885542, 2018.2
2.504569956401110, 2018.4
2.504382245120381, 2018.6
2.504194571032297, 2018.8
2.504006934125805, 2019.0
2.503819334389857, 2019.2
2.503631771813410, 2019.4
2.503444246385423, 2019.6
2.503256758094861, 2019.8
2.503069306930693, 2020.0
2.502881892881893, 2020.2
2.502694515937438, 2020.4
2.502507176086311, 2020.6
2.502319873317498, 2020.8
2.502132607619990, 2021.0
2.501945378982783, 2021.2
2.501758187394875, 2021.4
2.501571032845271, 2021.6
2.501383915322980, 2021.8
2.501196834817013, 2022.0
2.501009791316388, 2022.2
2.500822784810127, 2022.4
2.500635815287254, 2022.6
2.500448882736801, 2022.8
2.500261987147800, 2023.0
2.500075128509292, 2023.2
2.499888306810319, 2023.4
2.499701522039929, 2023.6
2.499514774187173, 2023.8
2.499328063241107, 2024.0
2.499141389190791, 2024.2
2.498954752025291, 2024.4
2.498768151733676, 2024.6
2.498581588305018, 2024.8
2.498395061728395, 2025.0
2.498208571992889, 2025.2
2.498022119087588, 2025.4
2.497835703001580, 2025.6
2.497649323723961, 2025.8
2.497462981243830, 2026.0
2.497276675550291, 2026.2
2.497090406632452, 2026.4
2.496904174479424, 2026.6
2.496717979080324, 2026.8
2.496531820424272, 2027.0
2.496345698500395, 2027.2
2.496159613297820, 2027.4
2.495973564805682, 2027.6
2.495787553013117, 2027.8
2.495601577909270, 2028.0
2.495415639483286, 2028.2
2.495229737724315, 2028.4
2.495043872621512, 2028.6
2.494858044164038, 2028.8
2.494672252341055, 2029.0
2.494486497141731, 2029.2
2.494300778555238, 2029.4
2.494115096570753, 2029.6
2.493929451177456, 2029.8
2.493743842364532, 2030.0
2.493558270121170, 2030.2
2.493372734436564, 2030.4
2.493187235299911, 2030.6
2.493001772700413, 2030.8
2.492816346627277, 2031.0
2.492630957069712, 2031.2
2.492445604016934, 2031.4
2.492260287458161, 2031.6
2.492075007382617, 2031.8
2.491889763779528, 2032.0
2.491704556638126, 2032.2
2.491519385947648, 2032.4
2.491334251697333, 2032.6
2.491149153876427, 2032.8
2.490964092474176, 2033.0
2.490779067479835, 2033.2
2.490594078882659, 2033.4
2.490409126671912, 2033.6
2.490224210836857, 2033.8
2.490039331366765, 2034.0
2.489854488250909, 2034.2
2.489669681478568, 2034.4
2.489484911039025, 2034.6
2.489300176921565, 2034.8
2.489115479115479, 2035.0
2.488930817610063, 2035.2
2.488746192394615, 2035.4
2.488561603458440, 2035.6
2.488377050790844, 2035.8
2.488192534381140, 2036.0
2.488008054218643, 2036.2
2.487823610292673, 2036.4
2.487639202592556, 2036.6
2.487454831107620, 2036.8
2.487270495827197, 2037.0
2.487086196740624, 2037.2
2.486901933837244, 2037.4
2.486717707106400, 2037.6
2.486533516537442, 2037.8
2.486349362119725, 2038.0
2.486165243842606, 2038.2
2.485981161695447, 2038.4
2.485797115667615, 2038.6
2.485613105748480, 2038.8
2.485429131927416, 2039.0
2.485245194193801, 2039.2
2.485061292537021, 2039.4
2.484877426946460, 2039.6
2.484693597411511, 2039.8
2.484509803921569, 2040.0
2.484326046466033, 2040.2
2.484142325034307, 2040.4
2.483958639615799, 2040.6
2.483774990199922, 2040.8
2.483591376776090, 2041.0
2.483407799333725, 2041.2
2.483224257862251, 2041.4
2.483040752351097, 2041.6
2.482857282789695, 2041.8
2.482673849167483, 2042.0
2.482490451473901, 2042.2
2.482307089698394, 2042.4
2.482123763830412, 2042.6
2.481940473859409, 2042.8
2.481757219774841, 2043.0
2.481574001566170, 2043.2
2.481390819222864, 2043.4
2.481207672734390, 2043.6
2.481024562090224, 2043.8
2.480841487279843, 2044.0
2.480658448292731, 2044.2
2.480475445118372, 2044.4
2.480292477746258, 2044.6
2.480109546165884, 2044.8
2.479926650366748, 2045.0
2.479743790338353, 2045.2
2.479560966070206, 2045.4
2.479378177551819, 2045.6
2.479195424772705, 2045.8
2.479012707722385, 2046.0
2.478830026390382, 2046.2
2.478647380766223, 2046.4
2.478464770839441, 2046.6
2.478282196599570, 2046.8
2.478099658036150, 2047.0
2.477917155138726, 2047.2
2.477734687896845, 2047.4
2.477552256300059, 2047.6
2.477369860337924, 2047.8
2.477187500000000, 2048.0
2.477005175275852, 2048.2
2.476822886155048, 2048.4
2.476640632627160, 2048.6
2.476458414681765, 2048.8
2.476276232308443, 2049.0
2.476094085496779, 2049.2
2.475911974236362, 2049.4
2.475729898516784, 2049.6
2.475547858327642, 2049.8
2.475365853658537, 2050.0
2.475183884499073, 2050.2
2.475001950838861, 2050.4
2.474820052667512, 2050.6
2.474638189974644, 2050.8
2.474456362749878, 2051.0
2.474274570982840, 2051.2
2.474092814663157, 2051.4
2.473911093780464, 2051.6
2.473729408324398, 2051.8
2.473547758284600, 2052.0
2.473366143650717, 2052.2
2.473184564412395, 2052.4
2.473003020559291, 2052.6
2.472821512081060, 2052.8
2.472640038967365, 2053.0
2.472458601207871, 2053.2
2.472277198792247, 2053.4
2.472095831710168, 2053.6
2.471914499951310, 2053.8
2.471733203505355, 2054.0
2.471551942361990, 2054.2
2.471370716510903, 2054.4
2.471189525941789, 2054.6
2.471008370644345, 2054.8
2.470827250608273, 2055.0
2.470646165823278, 2055.2
2.470465116279070, 2055.4
2.470284101965363, 2055.6
2.470103122871874, 2055.8
2.469922178988327, 2056.0
2.469741270304445, 2056.2
2.469560396809959, 2056.4
2.469379558494603, 2056.6
2.469198755348113, 2056.8
2.469017987360233, 2057.0
2.468837254520708, 2057.2
2.468656556819286, 2057.4
2.468475894245723, 2057.6
2.468295266789776, 2057.8
2.468114674441205, 2058.0
2.467934117189778, 2058.2
2.467753595025262, 2058.4
2.467573107937433, 2058.6
2.467392655916067, 2058.8
2.467212238950947, 2059.0
2.467031857031857, 2059.2
2.466851510148587, 2059.4
2.466671198290930, 2059.6
2.466490921448684, 2059.8
2.466310679611651, 2060.0
2.466130472769634, 2060.2
2.465950300912444, 2060.4
2.465770164029894, 2060.6
2.465590062111801, 2060.8
2.465409995147986, 2061.0
2.465229963128275, 2061.2
2.465049966042495, 2061.4
2.464870003880481, 2061.6
2.464690076632069, 2061.8
2.464510184287100, 2062.0
2.464330326835419, 2062.2
2.464150504266874, 2062.4
2.463970716571318, 2062.6
2.463790963738608, 2062.8
2.463611245758604, 2063.0
2.463431562621171, 2063.2
2.463251914316177, 2063.4
2.463072300833495, 2063.6
2.462892722163000, 2063.8
2.462713178294574, 2064.0
2.462533669218099, 2064.2
2.462354194923464, 2064.4
2.462174755400562, 2064.6
2.461995350639287, 2064.8
2.461815980629540, 2065.0
2.461636645361224, 2065.2
2.461457344824247, 2065.4
2.461278079008521, 2065.6
2.461098847903960, 2065.8
2.460919651500484, 2066.0
2.460740489788017, 2066.2
2.460561362756485, 2066.4
2.460382270395819, 2066.6
2.460203212695955, 2066.8
2.460024189646831, 2067.0
2.459845201238390, 2067.2
2.459666247460579, 2067.4
2.459487328303347, 2067.6
2.459308443756649, 2067.8
2.459129593810445, 2068.0
2.458950778454695, 2068.2
2.458771997679365, 2068.4
2.458593251474427, 2068.6
2.458414539829853, 2068.8
2.458235862735621, 2069.0
2.458057220181713, 2069.2
2.457878612158114, 2069.4
2.457700038654813, 2069.6
2.457521499661803, 2069.8
2.457342995169082, 2070.0
2.457164525166651, 2070.2
2.456986089644513, 2070.4
2.456807688592678, 2070.6
2.456629322001159, 2070.8
2.456450989859971, 2071.0
2.456272692159135, 2071.2
2.456094428888674, 2071.4
2.455916200038617, 2071.6
2.455738005598996, 2071.8
2.455559845559846, 2072.0
2.455381719911206, 2072.2
2.455203628643119, 2072.4
2.455025571745634, 2072.6
2.454847549208799, 2072.8
2.454669561022672, 2073.0
2.454491607177311, 2073.2
2.454313687662776, 2073.4
2.454135802469136, 2073.6
2.453957951586459, 2073.8
2.453780135004822, 2074.0
2.453602352714300, 2074.2
2.453424604704975, 2074.4
2.453246890966934, 2074.6
2.453069211490264, 2074.8
2.452891566265060, 2075.0
2.452713955281419, 2075.2
2.452536378529440, 2075.4
2.452358835999229, 2075.6
2.452181327680894, 2075.8
2.452003853564547, 2076.0
2.451826413640305, 2076.2
2.451649007898285, 2076.4
2.451471636328614, 2076.6
2.451294298921417, 2076.8
2.451116995666827, 2077.0
2.450939726554978, 2077.2
2.450762491576008, 2077.4
2.450585290720062, 2077.6
2.450408123977283, 2077.8
2.450230991337825, 2078.0
2.450053892791839, 2078.2
2.449876828329484, 2078.4
2.449699797940922, 2078.6
2.449522801616317, 2078.8
2.449345839345839, 2079.0
2.449168911119662, 2079.2
2.448992016927960, 2079.4
2.448815156760916, 2079.6
2.448638330608712, 2079.8
2.448461538461538, 2080.0
2.448284780309586, 2080.2
2.448108056143049, 2080.4
2.447931365952129, 2080.6
2.447754709727028, 2080.8
2.447578087457953, 2081.0
2.447401499135114, 2081.2
2.447224944748727, 2081.4
2.447048424289008, 2081.6
2.446871937746181, 2081.8
2.446695485110471, 2082.0
2.446519066372106, 2082.2
2.446342681521322, 2082.4
2.446166330548353, 2082.6
2.445990013443441, 2082.8
2.445813730196832, 2083.0
2.445637480798771, 2083.2
2.445461265239512, 2083.4
2.445285083509311, 2083.6
2.445108935598426, 2083.8
2.444932821497121, 2084.0
2.444756741195663, 2084.2
2.444580694684321, 2084.4
2.444404681953372, 2084.6
2.444228702993092, 2084.8
2.444052757793765, 2085.0
2.443876846345674, 2085.2
2.443700968639110, 2085.4
2.443525124664365, 2085.6
2.443349314411736, 2085.8
2.443173537871524, 2086.0
2.442997795034033, 2086.2
2.442822085889571, 2086.4
2.442646410428448, 2086.6
2.442470768640981, 2086.8
2.442295160517489, 2087.0
2.442119586048295, 2087.2
2.441944045223723, 2087.4
2.441768538034106, 2087.6
2.441593064469777, 2087.8
2.441417624521073, 2088.0
2.441242218178336, 2088.2
2.441066845431910, 2088.4
2.440891506272144, 2088.6
2.440716200689391, 2088.8
2.440540928674007, 2089.0
2.440365690216351, 2089.2
2.440190485306787, 2089.4
2.440015313935682, 2089.6
2.439840176093406, 2089.8
2.439665071770335, 2090.0
2.439490000956846, 2090.2
2.439314963643322, 2090.4
2.439139959820147, 2090.6
2.438964989477712, 2090.8
2.438790052606409, 2091.0
2.438615149196634, 2091.2
2.438440279238787, 2091.4
2.438265442723274, 2091.6
2.438090639640501, 2091.8
2.437915869980880, 2092.0
2.437741133734825, 2092.2
2.437566430892755, 2092.4
2.437391761445092, 2092.6
2.437217125382263, 2092.8
2.437042522694697, 2093.0
2.436867953372826, 2093.2
2.436693417407089, 2093.4
2.436518914787925, 2093.6
2.436344445505779, 2093.8
2.436170009551098, 2094.0
2.435995606914335, 2094.2
2.435821237585943, 2094.4
2.435646901556383, 2094.6
2.435472598816116, 2094.8
2.435298329355609, 2095.0
2.435124093165331, 2095.2
2.434949890235754, 2095.4
2.434775720557358, 2095.6
2.434601584120622, 2095.8
2.434427480916030, 2096.0
2.434253410934071, 2096.2
2.434079374165235, 2096.4
2.433905370600019, 2096.6
2.433731400228920, 2096.8
2.433557463042442, 2097.0
2.433383559031089, 2097.2
2.433209688185372, 2097.4
2.433035850495805, 2097.6
2.432862045952903, 2097.8
2.432688274547188, 2098.0
2.432514536269183, 2098.2
2.432340831109417, 2098.4
2.432167159058420, 2098.6
2.431993520106727, 2098.8
2.431819914244878, 2099.0
2.431646341463415, 2099.2
2.431472801752882, 2099.4
2.431299295103829, 2099.6
2.431125821506810, 2099.8
2.430952380952381, 2100.0
2.430778973431102, 2100.2
2.430605598933536, 2100.4
2.430432257450252, 2100.6
2.430258948971820, 2100.8
2.430085673488815, 2101.0
2.429912430991815, 2101.2
2.429739221471400, 2101.4
2.429566044918158, 2101.6
2.429392901322676, 2101.8
2.429219790675547, 2102.0
2.429046712967368, 2102.2
2.428873668188737, 2102.4
2.428700656330258, 2102.6
2.428527677382537, 2102.8
2.428354731336186, 2103.0
2.428181818181818, 2103.2
2.428008937910050, 2103.4
2.427836090511504, 2103.6
2.427663275976804, 2103.8
2.427490494296578, 2104.0
2.427317745461458, 2104.2
2.427145029462079, 2104.4
2.426972346289081, 2104.6
2.426799695933105, 2104.8
2.426627078384798, 2105.0
2.426454493634809, 2105.2
2.426281941673791, 2105.4
2.426109422492401, 2105.6
2.425936936081299, 2105.8
2.425764482431149, 2106.0
2.425592061532618, 2106.2
2.425419673376377, 2106.4
2.425247317953100, 2106.6
2.425074995253465, 2106.8
2.424902705268154, 2107.0
2.424730447987852, 2107.2
2.424558223403245, 2107.4
2.424386031505029, 2107.6
2.424213872283898, 2107.8
2.424041745730550, 2108.0
2.423869651835689, 2108.2
2.423697590590021, 2108.4
2.423525561984255, 2108.6
2.423353566009105, 2108.8
2.423181602655287, 2109.0
2.423009671913522, 2109.2
2.422837773774533, 2109.4
2.422665908229048, 2109.6
2.422494075267798, 2109.8
2.422322274881517, 2110.0
2.422150507060942, 2110.2
2.421978771796816, 2110.4
2.421807069079883, 2110.6
2.421635398900890, 2110.8
2.421463761250592, 2111.0
2.421292156119743, 2111.2
2.421120583499100, 2111.4
2.420949043379428, 2111.6
2.420777535751491, 2111.8
2.420606060606060, 2112.0
2.420434617933908, 2112.2
2.420263207725809, 2112.4
2.420091829972546, 2112.6
2.419920484664900, 2112.8
2.419749171793658, 2113.0
2.419577891349612, 2113.2
2.419406643323554, 2113.4
2.419235427706283, 2113.6
2.419064244488598, 2113.8
2.418893093661306, 2114.0
2.418721975215211, 2114.2
2.418550889141128, 2114.4
2.418379835429869, 2114.6
2.418208814072253, 2114.8
2.418037825059101, 2115.0
2.417866868381241, 2115.2
2.417695944029498, 2115.4
2.417525051994706, 2115.6
2.417354192267700, 2115.8
2.417183364839319, 2116.0
2.417012569700407, 2116.2
2.416841806841807, 2116.4
2.416671076254370, 2116.6
2.416500377928949, 2116.8
2.416329711856401, 2117.0
2.416159078027584, 2117.2
2.415988476433362, 2117.4
2.415817907064601, 2117.6
2.415647369912173, 2117.8
2.415476864966950, 2118.0
2.415306392219809, 2118.2
2.415135951661632, 2118.4
2.414965543283300, 2118.6
2.414795167075703, 2118.8
2.414624823029731, 2119.0
2.414454511136278, 2119.2
2.414284231386241, 2119.4
2.414113983770523, 2119.6
2.413943768280026, 2119.8
2.413773584905660, 2120.0
2.413603433638336, 2120.2
2.413433314468968, 2120.4
2.413263227388475, 2120.6
2.413093172387778, 2120.8
2.412923149457803, 2121.0
2.412753158589478, 2121.2
2.412583199773734, 2121.4
2.412413273001508, 2121.6
2.412243378263738, 2121.8
2.412073515551367, 2122.0
2.411903684855339, 2122.2
2.411733886166604, 2122.4
2.411564119476114, 2122.6
2.411394384774825, 2122.8
2.411224682053698, 2123.0
2.411055011303693, 2123.2
2.410885372515776, 2123.4
2.410715765680919, 2123.6
2.410546190790093, 2123.8
2.410376647834275, 2124.0
2.410207136804444, 2124.2
2.410037657691583, 2124.4
2.409868210486680, 2124.6
2.409698795180723, 2124.8
2.409529411764706, 2125.0
2.409360060229626, 2125.2
2.409190740566482, 2125.4
2.409021452766278, 2125.6
2.408852196820021, 2125.8
2.408682972718720, 2126.0
2.408513780453391, 2126.2
2.408344620015049, 2126.4
2.408175491394715, 2126.6
2.408006394583412, 2126.8
2.407837329572168, 2127.0
2.407668296352012, 2127.2
2.407499294913980, 2127.4
2.407330325249107, 2127.6
2.407161387348435, 2127.8
2.406992481203007, 2128.0
2.406823606803872, 2128.2
2.406654764142079, 2128.4
2.406485953208682, 2128.6
2.406317173994739, 2128.8
2.406148426491311, 2129.0
2.405979710689461, 2129.2
2.405811026580257, 2129.4
2.405642374154771, 2129.6
2.405473753404075, 2129.8
2.405305164319249, 2130.0
2.405136606891372, 2130.2
2.404968081111528, 2130.4
2.404799586970806, 2130.6
2.404631124460296, 2130.8
2.404462693571094, 2131.0
2.404294294294294, 2131.2
2.404125926621000, 2131.4
2.403957590542316, 2131.6
2.403789286049348, 2131.8
2.403621013133208, 2132.0
2.403452771785011, 2132.2
2.403284561995873, 2132.4
2.403116383756917, 2132.6
2.402948237059265, 2132.8
2.402780121894046, 2133.0
2.402612038252391, 2133.2
2.402443986125434, 2133.4
2.402275965504312, 2133.6
2.402107976380166, 2133.8
2.401940018744142, 2134.0
2.401772092587386, 2134.2
2.401604197901049, 2134.4
2.401436334676286, 2134.6
2.401268502904253, 2134.8
2.401100702576112, 2135.0
2.400932933683027, 2135.2
2.400765196216165, 2135.4
2.400597490166698, 2135.6
2.400429815525798, 2135.8
2.400262172284644, 2136.0
2.400094560434416, 2136.2
2.399926979966299, 2136.4
2.399759430871478, 2136.6
2.399591913141145, 2136.8
2.399424426766495, 2137.0
2.399256971738724, 2137.2
2.399089548049032, 2137.4
2.398922155688623, 2137.6
2.398754794648704, 2137.8
2.398587464920487, 2138.0
2.398420166495183, 2138.2
2.398252899364010, 2138.4
2.398085663518190, 2138.6
2.397918458948943, 2138.8
2.397751285647499, 2139.0
2.397584143605086, 2139.2
2.397417032812938, 2139.4
2.397249953262292, 2139.6
2.397082904944387, 2139.8
2.396915887850467, 2140.0
2.396748901971778, 2140.2
2.396581947299570, 2140.4
2.396415023825096, 2140.6
2.396248131539611, 2140.8
2.396081270434376, 2141.0
2.395914440500654, 2141.2
2.395747641729709, 2141.4
2.395580874112813, 2141.6
2.395414137641236, 2141.8
2.395247432306256, 2142.0
2.395080758099151, 2142.2
2.394914115011202, 2142.4
2.394747503033698, 2142.6
2.394580922157924, 2142.8
2.394414372375175, 2143.0
2.394247853676745, 2143.2
2.394081366053933, 2143.4
2.393914909498041, 2143.6
2.393748484000373, 2143.8
2.393582089552239, 2144.0
2.393415726144949, 2144.2
2.393249393769819, 2144.4
2.393083092418167, 2144.6
2.392916822081313, 2144.8
2.392750582750583, 2145.0
2.392584374417304, 2145.2
2.392418197072807, 2145.4
2.392252050708426, 2145.6
2.392085935315500, 2145.8
2.391919850885368, 2146.0
2.391753797409375, 2146.2
2.391587774878867, 2146.4
2.391421783285195, 2146.6
2.391255822619713, 2146.8
2.391089892873777, 2147.0
2.390923994038748, 2147.2
2.390758126105989, 2147.4
2.390592289066865, 2147.6
2.390426482912748, 2147.8
2.390260707635009, 2148.0
2.390094963225026, 2148.2
2.389929249674176, 2148.4
2.389763566973843, 2148.6
2.389597915115413, 2148.8
2.389432294090275, 2149.0
2.389266703889819, 2149.2
2.389101144505443, 2149.4
2.388935615928545, 2149.6
2.388770118150525, 2149.8
2.388604651162791, 2150.0
2.388439214956748, 2150.2
2.388273809523810, 2150.4
2.388108434855389, 2150.6
2.387943090942905, 2150.8
2.387777777777778, 2151.0
2.387612495351432, 2151.2
2.387447243655294, 2151.4
2.387282022680796, 2151.6
2.387116832419370, 2151.8
2.386951672862454, 2152.0
2.386786544001487, 2152.2
2.386621445827913, 2152.4
2.386456378333178, 2152.6
2.386291341508733, 2152.8
2.386126335346029, 2153.0
2.385961359836522, 2153.2
2.385796414971673, 2153.4
2.385631500742942, 2153.6
2.385466617141796, 2153.8
2.385301764159703, 2154.0
2.385136941788135, 2154.2
2.384972150018567, 2154.4
2.384807388842477, 2154.6
2.384642658251346, 2154.8
2.384477958236659, 2155.0
2.384313288789904, 2155.2
2.384148649902570, 2155.4
2.383984041566154, 2155.6
2.383819463772149, 2155.8
2.383654916512060, 2156.0
2.383490399777386, 2156.2
2.383325913559637, 2156.4
2.383161457850320, 2156.6
2.382997032640950, 2156.8
2.382832637923041, 2157.0
2.382668273688114, 2157.2
2.382503939927691, 2157.4
2.382339636633296, 2157.6
2.382175363796459, 2157.8
2.382011121408712, 2158.0
2.381846909461589, 2158.2
2.381682727946627, 2158.4
2.381518576855369, 2158.6
2.381354456179359, 2158.8
2.381190365910144, 2159.0
2.381026306039274, 2159.2
2.380862276558303, 2159.4
2.380698277458789, 2159.6
2.380534308732290, 2159.8
2.380370370370370, 2160.0
2.380206462364596, 2160.2
2.380042584706536, 2160.4
2.379878737387763, 2160.6
2.379714920399852, 2160.8
2.379551133734382, 2161.0
2.379387377382935, 2161.2
2.379223651337096, 2161.4
2.379059955588453, 2161.6
2.378896290128596, 2161.8
2.378732654949121, 2162.0
2.378569050041624, 2162.2
2.378405475397706, 2162.4
2.378241931008971, 2162.6
2.378078416867024, 2162.8
2.377914932963477, 2163.0
2.377751479289941, 2163.2
2.377588055838033, 2163.4
2.377424662599371, 2163.6
2.377261299565579, 2163.8
2.377097966728281, 2164.0
2.376934664079105, 2164.2
2.376771391609684, 2164.4
2.376608149311651, 2164.6
2.376444937176645, 2164.8
2.376281755196305, 2165.0
2.376118603362276, 2165.2
2.375955481666205, 2165.4
2.375792390099742, 2165.6
2.375629328654539, 2165.8
2.375466297322253, 2166.0
2.375303296094544, 2166.2
2.375140324963072, 2166.4
2.374977383919505, 2166.6
2.374814472955510, 2166.8
2.374651592062760, 2167.0
2.374488741232927, 2167.2
2.374325920457691, 2167.4
2.374163129728732, 2167.6
2.374000369037734, 2167.8
2.373837638376384, 2168.0
2.373674937736372, 2168.2
2.373512267109389, 2168.4
2.373349626487135, 2168.6
2.373187015861306, 2168.8
2.373024435223605, 2169.0
2.372861884565739, 2169.2
2.372699363879414, 2169.4
2.372536873156342, 2169.6
2.372374412388238, 2169.8
2.372211981566820, 2170.0
2.372049580683808, 2170.2
2.371887209730925, 2170.4
2.371724868699899, 2170.6
2.371562557582458, 2170.8
2.371400276370336, 2171.0
2.371238025055269, 2171.2
2.371075803628995, 2171.4
2.370913612083257, 2171.6
2.370751450409798, 2171.8
2.370589318600368, 2172.0
2.370427216646718, 2172.2
2.370265144540600, 2172.4
2.370103102273773, 2172.6
2.369941089837997, 2172.8
2.369779107225034, 2173.0
2.369617154426652, 2173.2
2.369455231434618, 2173.4
2.369293338240707, 2173.6
2.369131474836691, 2173.8
2.368969641214351, 2174.0
2.368807837365468, 2174.2
2.368646063281825, 2174.4
2.368484318955210, 2174.6
2.368322604377414, 2174.8
2.368160919540230, 2175.0
2.367999264435454, 2175.2
2.367837639054887, 2175.4
2.367676043390329, 2175.6
2.367514477433588, 2175.8
2.367352941176470, 2176.0
2.367191434610790, 2176.2
2.367029957728359, 2176.4
2.366868510520996, 2176.6
2.366707092980522, 2176.8
2.366545705098760, 2177.0
2.366384346867537, 2177.2
2.366223018278681, 2177.4
2.366061719324026, 2177.6
2.365900449995408, 2177.8
2.365739210284665, 2178.0
2.365578000183638, 2178.2
2.365416819684172, 2178.4
2.365255668778115, 2178.6
2.365094547457316, 2178.8
2.364933455713630, 2179.0
2.364772393538913, 2179.2
2.364611360925025, 2179.4
2.364450357863828, 2179.6
2.364289384347188, 2179.8
2.364128440366973, 2180.0
2.363967525915054, 2180.2
2.363806640983306, 2180.4
2.363645785563607, 2180.6
2.363484959647836, 2180.8
2.363324163227877, 2181.0
2.363163396295617, 2181.2
2.363002658842945, 2181.4
2.362841950861753, 2181.6
2.362681272343936, 2181.8
2.362520623281393, 2182.0
2.362360003666025, 2182.2
2.362199413489736, 2182.4
2.362038852744433, 2182.6
2.361878321422027, 2182.8
2.361717819514430, 2183.0
2.361557347013558, 2183.2
2.361396903911331, 2183.4
2.361236490199671, 2183.6
2.361076105870501, 2183.8
2.360915750915751, 2184.0
2.360755425327351, 2184.2
2.360595129097235, 2184.4
2.360434862217339, 2184.6
2.360274624679604, 2184.8
2.360114416475973, 2185.0
2.359954237598390, 2185.2
2.359794088038803, 2185.4
2.359633967789165, 2185.6
2.359473876841431, 2185.8
2.359313815187557, 2186.0
2.359153782819504, 2186.2
2.358993779729235, 2186.4
2.358833805908717, 2186.6
2.358673861349918, 2186.8
2.358513946044810, 2187.0
2.358354059985369, 2187.2
2.358194203163573, 2187.4
2.358034375571402, 2187.6
2.357874577200841, 2187.8
2.357714808043875, 2188.0
2.357555068092496, 2188.2
2.357395357338695, 2188.4
2.357235675774468, 2188.6
2.357076023391813, 2188.8
2.356916400182732, 2189.0
2.356756806139229, 2189.2
2.356597241253311, 2189.4
2.356437705516989, 2189.6
2.356278198922276, 2189.8
2.356118721461187, 2190.0
2.355959273125742, 2190.2
2.355799853907962, 2190.4
2.355640463799872, 2190.6
2.355481102793500, 2190.8
2.355321770880876, 2191.0
2.355162468054035, 2191.2
2.355003194305010, 2191.4
2.354843949625844, 2191.6
2.354684734008577, 2191.8
2.354525547445256, 2192.0
2.354366389927927, 2192.2
2.354207261448641, 2192.4
2.354048161999453, 2192.6
2.353889091572419, 2192.8
2.353730050159599, 2193.0
2.353571037753055, 2193.2
2.353412054344853, 2193.4
2.353253099927060, 2193.6
2.353094174491750, 2193.8
2.352935278030994, 2194.0
2.352776410536870, 2194.2
2.352617572001458, 2194.4
2.352458762416842, 2194.6
2.352299981775105, 2194.8
2.352141230068337, 2195.0
2.351982507288630, 2195.2
2.351823813428077, 2195.4
2.351665148478776, 2195.6
2.351506512432826, 2195.8
2.351347905282331, 2196.0
2.351189327019397, 2196.2
2.351030777636132, 2196.4
2.350872257124647, 2196.6
2.350713765477058, 2196.8
2.350555302685480, 2197.0
2.350396868742036, 2197.2
2.350238463638846, 2197.4
2.350080087368038, 2197.6
2.349921739921740, 2197.8
2.349763421292084, 2198.0
2.349605131471204, 2198.2
2.349446870451237, 2198.4
2.349288638224325, 2198.6
2.349130434782609, 2198.8
2.348972260118236, 2199.0
2.348814114223354, 2199.2
2.348655997090115, 2199.4
2.348497908710675, 2199.6
2.348339849077189, 2199.8
2.348181818181818, 2200.0
2.348023816016726, 2200.2
2.347865842574077, 2200.4
2.347707897846042, 2200.6
2.347549981824791, 2200.8
2.347392094502499, 2201.0
2.347234235871343, 2201.2
2.347076405923503, 2201.4
2.346918604651163, 2201.6
2.346760832046507, 2201.8
2.346603088101726, 2202.0
2.346445372809009, 2202.2
2.346287686160552, 2202.4
2.346130028148552, 2202.6
2.345972398765208, 2202.8
2.345814798002724, 2203.0
2.345657225853305, 2203.2
2.345499682309158, 2203.4
2.345342167362498, 2203.6
2.345184681005536, 2203.8
2.345027223230490, 2204.0
2.344869794029580, 2204.2
2.344712393395028, 2204.4
2.344555021319060, 2204.6
2.344397677793904, 2204.8
2.344240362811791, 2205.0
2.344083076364956, 2205.2
2.343925818445634, 2205.4
2.343768589046065, 2205.6
2.343611388158491, 2205.8
2.343454215775159, 2206.0
2.343297071888315, 2206.2
2.343139956490210, 2206.4
2.342982869573099, 2206.6
2.342825811129237, 2206.8
2.342668781150884, 2207.0
2.342511779630301, 2207.2
2.342354806559753, 2207.4
2.342197861931509, 2207.6
2.342040945737839, 2207.8
2.341884057971015, 2208.0
2.341727198623313, 2208.2
2.341570367687013, 2208.4
2.341413565154396, 2208.6
2.341256791017747, 2208.8
2.341100045269353, 2209.0
2.340943327901503, 2209.2
2.340786638906490, 2209.4
2.340629978276611, 2209.6
2.340473346004163, 2209.8
2.340316742081448, 2210.0
2.340160166500769, 2210.2
2.340003619254433, 2210.4
2.339847100334751, 2210.6
2.339690609734033, 2210.8
2.339534147444595, 2211.0
2.339377713458755, 2211.2
2.339221307768834, 2211.4
2.339064930367155, 2211.6
2.338908581246044, 2211.8
2.338752260397830, 2212.0
2.338595967814845, 2212.2
2.338439703489423, 2212.4
2.338283467413902, 2212.6
2.338127259580622, 2212.8
2.337971079981925, 2213.0
2.337814928610157, 2213.2
2.337658805457667, 2213.4
2.337502710516805, 2213.6
2.337346643779926, 2213.8
2.337190605239386, 2214.0
2.337034594887544, 2214.2
2.336878612716763, 2214.4
2.336722658719407, 2214.6
2.336566732887845, 2214.8
2.336410835214447, 2215.0
2.336254965691586, 2215.2
2.336099124311636, 2215.4
2.335943311066980, 2215.6
2.335787525949995, 2215.8
2.335631768953069, 2216.0
2.335476040068586, 2216.2
2.335320339288937, 2216.4
2.335164666606515, 2216.6
2.335009022013713, 2216.8
2.334853405502932, 2217.0
2.334697817066571, 2217.2
2.334542256697032, 2217.4
2.334386724386724, 2217.6
2.334231220128055, 2217.8
2.334075743913436, 2218.0
2.333920295735281, 2218.2
2.333764875586008, 2218.4
2.333609483458037, 2218.6
2.333454119343789, 2218.8
2.333298783235692, 2219.0
2.333143475126172, 2219.2
2.332988195007660, 2219.4
2.332832942872590, 2219.6
2.332677718713398, 2219.8
2.332522522522523, 2220.0
2.332367354292406, 2220.2
2.332212214015493, 2220.4
2.332057101684230, 2220.6
2.331902017291066, 2220.8
2.331746960828456, 2221.0
2.331591932288853, 2221.2
2.331436931664716, 2221.4
2.331281958948506, 2221.6
2.331127014132685, 2221.8
2.330972097209721, 2222.0
2.330817208172082, 2222.2
2.330662347012239, 2222.4
2.330507513722667, 2222.6
2.330352708295843, 2222.8
2.330197930724247, 2223.0
2.330043181000360, 2223.2
2.329888459116668, 2223.4
2.329733765065659, 2223.6
2.329579098839824, 2223.8
2.329424460431655, 2224.0
2.329269849833648, 2224.2
2.329115267038302, 2224.4
2.328960712038119, 2224.6
2.328806184825602, 2224.8
2.328651685393258, 2225.0
2.328497213733597, 2225.2
2.328342769839130, 2225.4
2.328188353702373, 2225.6
2.328033965315842, 2225.8
2.327879604672058, 2226.0
2.327725271763543, 2226.2
2.327570966582824, 2226.4
2.327416689122429, 2226.6
2.327262439374888, 2226.8
2.327108217332734, 2227.0
2.326954022988506, 2227.2
2.326799856334740, 2227.4
2.326645717363979, 2227.6
2.326491606068767, 2227.8
2.326337522441652, 2228.0
2.326183466475182, 2228.2
2.326029438161910, 2228.4
2.325875437494391, 2228.6
2.325721464465183, 2228.8
2.325567519066846, 2229.0
2.325413601291944, 2229.2
2.325259711133040, 2229.4
2.325105848582706, 2229.6
2.324952013633510, 2229.8
2.324798206278027, 2230.0
2.324644426508833, 2230.2
2.324490674318508, 2230.4
2.324336949699632, 2230.6
2.324183252644791, 2230.8
2.324029583146571, 2231.0
2.323875941197562, 2231.2
2.323722326790356, 2231.4
2.323568739917548, 2231.6
2.323415180571736, 2231.8
2.323261648745520, 2232.0
2.323108144431503, 2232.2
2.322954667622290, 2232.4
2.322801218310490, 2232.6
2.322647796488714, 2232.8
2.322494402149574, 2233.0
2.322341035285689, 2233.2
2.322187695889675, 2233.4
2.322034383954155, 2233.6
2.321881099471752, 2233.8
2.321727842435094, 2234.0
2.321574612836810, 2234.2
2.321421410669531, 2234.4
2.321268235925893, 2234.6
2.321115088598532, 2234.8
2.320961968680090, 2235.0
2.320808876163207, 2235.2
2.320655811040530, 2235.4
2.320502773304706, 2235.6
2.320349762948385, 2235.8
2.320196779964222, 2236.0
2.320043824344871, 2236.2
2.319890896082990, 2236.4
2.319737995171242, 2236.6
2.319585121602289, 2236.8
2.319432275368797, 2237.0
2.319279456463437, 2237.2
2.319126664878877, 2237.4
2.318973900607794, 2237.6
2.318821163642864, 2237.8
2.318668453976765, 2238.0
2.318515771602180, 2238.2
2.318363116511794, 2238.4
2.318210488698293, 2238.6
2.318057888154368, 2238.8
2.317905314872711, 2239.0
2.317752768846017, 2239.2
2.317600250066982, 2239.4
2.317447758528309, 2239.6
2.317295294222698, 2239.8
2.317142857142857, 2240.0
2.316990447281493, 2240.2
2.316838064631316, 2240.4
2.316685709185040, 2240.6
2.316533380935380, 2240.8
2.316381079875056, 2241.0
2.316228805996788, 2241.2
2.316076559293299, 2241.4
2.315924339757316, 2241.6
2.315772147381568, 2241.8
2.315619982158787, 2242.0
2.315467844081706, 2242.2
2.315315733143061, 2242.4
2.315163649335592, 2242.6
2.315011592652042, 2242.8
2.314859563085154, 2243.0
2.314707560627675, 2243.2
2.314555585272354, 2243.4
2.314403637011945, 2243.6
2.314251715839201, 2243.8
2.314099821746880, 2244.0
2.313947954727743, 2244.2
2.313796114774550, 2244.4
2.313644301880068, 2244.6
2.313492516037063, 2244.8
2.313340757238307, 2245.0
2.313189025476572, 2245.2
2.313037320744634, 2245.4
2.312885643035269, 2245.6
2.312733992341259, 2245.8
2.312582368655387, 2246.0
2.312430771970439, 2246.2
2.312279202279202, 2246.4
2.312127659574468, 2246.6
2.311976143849030, 2246.8
2.311824655095683, 2247.0
2.311673193307227, 2247.2
2.311521758476462, 2247.4
2.311370350596191, 2247.6
2.311218969659222, 2247.8
2.311067615658363, 2248.0
2.310916288586425, 2248.2
2.310764988436221, 2248.4
2.310613715200569, 2248.6
2.310462468872287, 2248.8
2.310311249444197, 2249.0
2.310160056909123, 2249.2
2.310008891259892, 2249.4
2.309857752489331, 2249.6
2.309706640590274, 2249.8
2.309555555555555, 2250.0
2.309404497378011, 2250.2
2.309253466050480, 2250.4
2.309102461565805, 2250.6
2.308951483916829, 2250.8
2.308800533096401, 2251.0
2.308649609097370, 2251.2
2.308498711912588, 2251.4
2.308347841534908, 2251.6
2.308196997957189, 2251.8
2.308046181172291, 2252.0
2.307895391173076, 2252.2
2.307744627952406, 2252.4
2.307593891503152, 2252.6
2.307443181818182, 2252.8
2.307292498890368, 2253.0
2.307141842712586, 2253.2
2.306991213277714, 2253.4
2.306840610578630, 2253.6
2.306690034608217, 2253.8
2.306539485359361, 2254.0
2.306388962824949, 2254.2
2.306238466997871, 2254.4
2.306087997871019, 2254.6
2.305937555437289, 2254.8
2.305787139689579, 2255.0
2.305636750620788, 2255.2
2.305486388223818, 2255.4
2.305336052491576, 2255.6
2.305185743416970, 2255.8
2.305035460992908, 2256.0
2.304885205212304, 2256.2
2.304734976068073, 2256.4
2.304584773553133, 2256.6
2.304434597660404, 2256.8
2.304284448382809, 2257.0
2.304134325713273, 2257.2
2.303984229644724, 2257.4
2.303834160170092, 2257.6
2.303684117282310, 2257.8
2.303534100974313, 2258.0
2.303384111239040, 2258.2
2.303234148069429, 2258.4
2.303084211458426, 2258.6
2.302934301398973, 2258.8
2.302784417884019, 2259.0
2.302634560906516, 2259.2
2.302484730459414, 2259.4
2.302334926535670, 2259.6
2.302185149128241, 2259.8
2.302035398230089, 2260.0
2.301885673834174, 2260.2
2.301735975933463, 2260.4
2.301586304520923, 2260.6
2.301436659589525, 2260.8
2.301287041132242, 2261.0
2.301137449142049, 2261.2
2.300987883611922, 2261.4
2.300838344534843, 2261.6
2.300688831903793, 2261.8
2.300539345711759, 2262.0
2.300389885951728, 2262.2
2.300240452616690, 2262.4
2.300091045699638, 2262.6
2.299941665193565, 2262.8
2.299792311091471, 2263.0
2.299642983386356, 2263.2
2.299493682071220, 2263.4
2.299344407139071, 2263.6
2.299195158582914, 2263.8
2.299045936395760, 2264.0
2.298896740570621, 2264.2
2.298747571100512, 2264.4
2.298598427978451, 2264.6
2.298449311197456, 2264.8
2.298300220750552, 2265.0
2.298151156630761, 2265.2
2.298002118831111, 2265.4
2.297853107344633, 2265.6
2.297704122164357, 2265.8
2.297555163283318, 2266.0
2.297406230694555, 2266.2
2.297257324391105, 2266.4
2.297108444366011, 2266.6
2.296959590612317, 2266.8
2.296810763123070, 2267.0
2.296661961891320, 2267.2
2.296513186910117, 2267.4
2.296364438172517, 2267.6
2.296215715671576, 2267.8
2.296067019400353, 2268.0
2.295918349351909, 2268.2
2.295769705519309, 2268.4
2.295621087895618, 2268.6
2.295472496473907, 2268.8
2.295323931247245, 2269.0
2.295175392208708, 2269.2
2.295026879351370, 2269.4
2.294878392668312, 2269.6
2.294729932152612, 2269.8
2.294581497797357, 2270.0
2.294433089595631, 2270.2
2.294284707540521, 2270.4
2.294136351625121, 2270.6
2.293988021842522, 2270.8
2.293839718185821, 2271.0
2.293691440648116, 2271.2
2.293543189222506, 2271.4
2.293394963902096, 2271.6
2.293246764679989, 2271.8
2.293098591549296, 2272.0
2.292950444503125, 2272.2
2.292802323534589, 2272.4
2.292654228636804, 2272.6
2.292506159802886, 2272.8
2.292358117025957, 2273.0
2.292210100299138, 2273.2
2.292062109615554, 2273.4
2.291914144968332, 2273.6
2.291766206350602, 2273.8
2.291618293755497, 2274.0
2.291470407176150, 2274.2
2.291322546605698, 2274.4
2.291174712037281, 2274.6
2.291026903464040, 2274.8
2.290879120879121, 2275.0
2.290731364275668, 2275.2
2.290583633646831, 2275.4
2.290435928985762, 2275.6
2.290288250285614, 2275.8
2.290140597539543, 2276.0
2.289992970740709, 2276.2
2.289845369882270, 2276.4
2.289697794957393, 2276.6
2.289550245959241, 2276.8
2.289402722880984, 2277.0
2.289255225715792, 2277.2
2.289107754456837, 2277.4
2.288960309097296, 2277.6
2.288812889630345, 2277.8
2.288665496049166, 2278.0
2.288518128346941, 2278.2
2.288370786516854, 2278.4
2.288223470552094, 2278.6
2.288076180445849, 2278.8
2.287928916191312, 2279.0
2.287781677781678, 2279.2
2.287634465210143, 2279.4
2.287487278469907, 2279.6
2.287340117554171, 2279.8
2.287192982456141, 2280.0
2.287045873169020, 2280.2
2.286898789686020, 2280.4
2.286751732000351, 2280.6
2.286604700105226, 2280.8
2.286457693993862, 2281.0
2.286310713659478, 2281.2
2.286163759095292, 2281.4
2.286016830294530, 2281.6
2.285869927250416, 2281.8
2.285723049956179, 2282.0
2.285576198405048, 2282.2
2.285429372590256, 2282.4
2.285282572505038, 2282.6
2.285135798142632, 2282.8
2.284989049496277, 2283.0
2.284842326559215, 2283.2
2.284695629324691, 2283.4
2.284548957785952, 2283.6
2.284402311936247, 2283.8
2.284255691768827, 2284.0
2.284109097276946, 2284.2
2.283962528453861, 2284.4
2.283815985292830, 2284.6
2.283669467787115, 2284.8
2.283522975929978, 2285.0
2.283376509714686, 2285.2
2.283230069134506, 2285.4
2.283083654182709, 2285.6
2.282937264852568, 2285.8
2.282790901137358, 2286.0
2.282644563030356, 2286.2
2.282498250524843, 2286.4
2.282351963614099, 2286.6
2.282205702291412, 2286.8
2.282059466550066, 2287.0
2.281913256383351, 2287.2
2.281767071784559, 2287.4
2.281620912746984, 2287.6
2.281474779263922, 2287.8
2.281328671328671, 2288.0
2.281182588934534, 2288.2
2.281036532074812, 2288.4
2.280890500742812, 2288.6
2.280744494931842, 2288.8
2.280598514635212, 2289.0
2.280452559846235, 2289.2
2.280306630558225, 2289.4
2.280160726764501, 2289.6
2.280014848458380, 2289.8
2.279868995633188, 2290.0
2.279723168282246, 2290.2
2.279577366398882, 2290.4
2.279431589976425, 2290.6
2.279285839008207, 2290.8
2.279140113487560, 2291.0
2.278994413407821, 2291.2
2.278848738762329, 2291.4
2.278703089544423, 2291.6
2.278557465747447, 2291.8
2.278411867364747, 2292.0
2.278266294389669, 2292.2
2.278120746815564, 2292.4
2.277975224635785, 2292.6
2.277829727843685, 2292.8
2.277684256432621, 2293.0
2.277538810395953, 2293.2
2.277393389727043, 2293.4
2.277247994419254, 2293.6
2.277102624465952, 2293.8
2.276957279860506, 2294.0
2.276811960596286, 2294.2
2.276666666666666, 2294.4
2.276521398065022, 2294.6
2.276376154784731, 2294.8
2.276230936819172, 2295.0
2.276085744161729, 2295.2
2.275940576805785, 2295.4
2.275795434744729, 2295.6
2.275650317971948, 2295.8
2.275505226480836, 2296.0
2.275360160264785, 2296.2
2.275215119317192, 2296.4
2.275070103631455, 2296.6
2.274925113200975, 2296.8
2.274780148019155, 2297.0
2.274635208079401, 2297.2
2.274490293375119, 2297.4
2.274345403899722, 2297.6
2.274200539646619, 2297.8
2.274055700609225, 2298.0
2.273910886780959, 2298.2
2.273766098155238, 2298.4
2.273621334725485, 2298.6
2.273476596485123, 2298.8
2.273331883427577, 2299.0
2.273187195546277, 2299.2
2.273042532834653, 2299.4
2.272897895286137, 2299.6
2.272753282894165, 2299.8
2.272608695652174, 2300.0
2.272464133553604, 2300.2
2.272319596591897, 2300.4
2.272175084760497, 2300.6
2.272030598052851, 2300.8
2.271886136462407, 2301.0
2.271741699982618, 2301.2
2.271597288606935, 2301.4
2.271452902328815, 2301.6
2.271308541141715, 2301.8
2.271164205039097, 2302.0
2.271019894014421, 2302.2
2.270875608061154, 2302.4
2.270731347172761, 2302.6
2.270587111342713, 2302.8
2.270442900564481, 2303.0
2.270298714831539, 2303.2
2.270154554137362, 2303.4
2.270010418475430, 2303.6
2.269866307839222, 2303.8
2.269722222222222, 2304.0
2.269578161617915, 2304.2
2.269434126019788, 2304.4
2.269290115421331, 2304.6
2.269146129816036, 2304.8
2.269002169197397, 2305.0
2.268858233558910, 2305.2
2.268714322894075, 2305.4
2.268570437196392, 2305.6
2.268426576459363, 2305.8
2.268282740676496, 2306.0
2.268138929841297, 2306.2
2.267995143947277, 2306.4
2.267851382987948, 2306.6
2.267707646956823, 2306.8
2.267563935847421, 2307.0
2.267420249653259, 2307.2
2.267276588367860, 2307.4
2.267132951984746, 2307.6
2.266989340497443, 2307.8
2.266845753899480, 2308.0
2.266702192184386, 2308.2
2.266558655345694, 2308.4
2.266415143376939, 2308.6
2.266271656271656, 2308.8
2.266128194023387, 2309.0
2.265984756625671, 2309.2
2.265841344072053, 2309.4
2.265697956356079, 2309.6
2.265554593471296, 2309.8
2.265411255411256, 2310.0
2.265267942169509, 2310.2
2.265124653739612, 2310.4
2.264981390115122, 2310.6
2.264838151289597, 2310.8
2.264694937256599, 2311.0
2.264551748009692, 2311.2
2.264408583542442, 2311.4
2.264265443848417, 2311.6
2.264122328921187, 2311.8
2.263979238754325, 2312.0
2.263836173341407, 2312.2
2.263693132676007, 2312.4
2.263550116751708, 2312.6
2.263407125562089, 2312.8
2.263264159100735, 2313.0
2.263121217361231, 2313.2
2.262978300337166, 2313.4
2.262835408022130, 2313.6
2.262692540409716, 2313.8
2.262549697493518, 2314.0
2.262406879267134, 2314.2
2.262264085724162, 2314.4
2.262121316858205, 2314.6
2.261978572662865, 2314.8
2.261835853131749, 2315.0
2.261693158258466, 2315.2
2.261550488036624, 2315.4
2.261407842459838, 2315.6
2.261265221521720, 2315.8
2.261122625215890, 2316.0
2.260980053535964, 2316.2
2.260837506475565, 2316.4
2.260694984028317, 2316.6
2.260552486187845, 2316.8
2.260410012947777, 2317.0
2.260267564301744, 2317.2
2.260125140243376, 2317.4
2.259982740766310, 2317.6
2.259840365864181, 2317.8
2.259698015530630, 2318.0
2.259555689759296, 2318.2
2.259413388543823, 2318.4
2.259271111877857, 2318.6
2.259128859755045, 2318.8
2.258986632169038, 2319.0
2.258844429113488, 2319.2
2.258702250582047, 2319.4
2.258560096568374, 2319.6
2.258417967066126, 2319.8
2.258275862068965, 2320.0
2.258133781570554, 2320.2
2.257991725564558, 2320.4
2.257849694044644, 2320.6
2.257707687004481, 2320.8
2.257565704437742, 2321.0
2.257423746338101, 2321.2
2.257281812699233, 2321.4
2.257139903514818, 2321.6
2.256998018778534, 2321.8
2.256856158484065, 2322.0
2.256714322625097, 2322.2
2.256572511195315, 2322.4
2.256430724188410, 2322.6
2.256288961598071, 2322.8
2.256147223417994, 2323.0
2.256005509641873, 2323.2
2.255863820263407, 2323.4
2.255722155276295, 2323.6
2.255580514674240, 2323.8
2.255438898450947, 2324.0
2.255297306600121, 2324.2
2.255155739115470, 2324.4
2.255014195990708, 2324.6
2.254872677219546, 2324.8
2.254731182795699, 2325.0
2.254589712712885, 2325.2
2.254448266964823, 2325.4
2.254306845545236, 2325.6
2.254165448447846, 2325.8
2.254024075666380, 2326.0
2.253882727194566, 2326.2
2.253741403026135, 2326.4
2.253600103154818, 2326.6
2.253458827574351, 2326.8
2.253317576278470, 2327.0
2.253176349260915, 2327.2
2.253035146515425, 2327.4
2.252893968035745, 2327.6
2.252752813815620, 2327.8
2.252611683848797, 2328.0
2.252470578129027, 2328.2
2.252329496650060, 2328.4
2.252188439405652, 2328.6
2.252047406389557, 2328.8
2.251906397595535, 2329.0
2.251765413017345, 2329.2
2.251624452648751, 2329.4
2.251483516483517, 2329.6
2.251342604515409, 2329.8
2.251201716738197, 2330.0
2.251060853145653, 2330.2
2.250920013731548, 2330.4
2.250779198489659, 2330.6
2.250638407413764, 2330.8
2.250497640497640, 2331.0
2.250356897735072, 2331.2
2.250216179119842, 2331.4
2.250075484645737, 2331.6
2.249934814306544, 2331.8
2.249794168096055, 2332.0
2.249653546008061, 2332.2
2.249512948036357, 2332.4
2.249372374174741, 2332.6
2.249231824417009, 2332.8
2.249091298756965, 2333.0
2.248950797188411, 2333.2
2.248810319705151, 2333.4
2.248669866300994, 2333.6
2.248529436969749, 2333.8
2.248389031705227, 2334.0
2.248248650501242, 2334.2
2.248108293351611, 2334.4
2.247967960250150, 2334.6
2.247827651190680, 2334.8
2.247687366167023, 2335.0
2.247547105173004, 2335.2
2.247406868202449, 2335.4
2.247266655249187, 2335.6
2.247126466307046, 2335.8
2.246986301369863, 2336.0
2.246846160431470, 2336.2
2.246706043485704, 2336.4
2.246565950526406, 2336.6
2.246425881547415, 2336.8
2.246285836542576, 2337.0
2.246145815505733, 2337.2
2.246005818430735, 2337.4
2.245865845311430, 2337.6
2.245725896141672, 2337.8
2.245585970915312, 2338.0
2.245446069626208, 2338.2
2.245306192268218, 2338.4
2.245166338835201, 2338.6
2.245026509321019, 2338.8
2.244886703719538, 2339.0
2.244746922024624, 2339.2
2.244607164230144, 2339.4
2.244467430329971, 2339.6
2.244327720317976, 2339.8
2.244188034188034, 2340.0
2.244048371934023, 2340.2
2.243908733549821, 2340.4
2.243769119029309, 2340.6
2.243629528366371, 2340.8
2.243489961554891, 2341.0
2.243350418588758, 2341.2
2.243210899461860, 2341.4
2.243071404168090, 2341.6
2.242931932701341, 2341.8
2.242792485055508, 2342.0
2.242653061224490, 2342.2
2.242513661202186, 2342.4
2.242374284982498, 2342.6
2.242234932559330, 2342.8
2.242095603926590, 2343.0
2.241956299078184, 2343.2
2.241817018008022, 2343.4
2.241677760710019, 2343.6
2.241538527178087, 2343.8
2.241399317406144, 2344.0
2.241260131388107, 2344.2
2.241120969117898, 2344.4
2.240981830589440, 2344.6
2.240842715796656, 2344.8
2.240703624733476, 2345.0
2.240564557393826, 2345.2
2.240425513771638, 2345.4
2.240286493860846, 2345.6
2.240147497655384, 2345.8
2.240008525149190, 2346.0
2.239869576336203, 2346.2
2.239730651210365, 2346.4
2.239591749765618, 2346.6
2.239452871995909, 2346.8
2.239314017895185, 2347.0
2.239175187457396, 2347.2
2.239036380676493, 2347.4
2.238897597546430, 2347.6
2.238758838061163, 2347.8
2.238620102214651, 2348.0
2.238481390000852, 2348.2
2.238342701413728, 2348.4
2.238204036447245, 2348.6
2.238065395095368, 2348.8
2.237926777352065, 2349.0
2.237788183211306, 2349.2
2.237649612667064, 2349.4
2.237511065713313, 2349.6
2.237372542344029, 2349.8
2.237234042553192, 2350.0
2.237095566334780, 2350.2
2.236957113682777, 2350.4
2.236818684591168, 2350.6
2.236680279053939, 2350.8
2.236541897065079, 2351.0
2.236403538618578, 2351.2
2.236265203708429, 2351.4
2.236126892328627, 2351.6
2.235988604473169, 2351.8
2.235850340136055, 2352.0
2.235712099311283, 2352.2
2.235573881992858, 2352.4
2.235435688174785, 2352.6
2.235297517851071, 2352.8
2.235159371015725, 2353.0
2.235021247662757, 2353.2
2.234883147786181, 2353.4
2.234745071380014, 2353.6
2.234607018438270, 2353.8
2.234468988954970, 2354.0
2.234330982924136, 2354.2
2.234193000339789, 2354.4
2.234055041195957, 2354.6
2.233917105486666, 2354.8
2.233779193205945, 2355.0
2.233641304347826, 2355.2
2.233503438906343, 2355.4
2.233365596875531, 2355.6
2.233227778249427, 2355.8
2.233089983022071, 2356.0
2.232952211187505, 2356.2
2.232814462739773, 2356.4
2.232676737672919, 2356.6
2.232539035980991, 2356.8
2.232401357658040, 2357.0
2.232263702698117, 2357.2
2.232126071095274, 2357.4
2.231988462843570, 2357.6
2.231850877937060, 2357.8
2.231713316369805, 2358.0
2.231575778135866, 2358.2
2.231438263229308, 2358.4
2.231300771644196, 2358.6
2.231163303374597, 2358.8
2.231025858414582, 2359.0
2.230888436758223, 2359.2
2.230751038399593, 2359.4
2.230613663332768, 2359.6
2.230476311551826, 2359.8
2.230338983050848, 2360.0
2.230201677823914, 2360.2
2.230064395865107, 2360.4
2.229927137168517, 2360.6
2.229789901728227, 2360.8
2.229652689538331, 2361.0
2.229515500592919, 2361.2
2.229378334886084, 2361.4
2.229241192411924, 2361.6
2.229104073164535, 2361.8
2.228966977138019, 2362.0
2.228829904326476, 2362.2
2.228692854724009, 2362.4
2.228555828324727, 2362.6
2.228418825122735, 2362.8
2.228281845112146, 2363.0
2.228144888287069, 2363.2
2.228007954641618, 2363.4
2.227871044169910, 2363.6
2.227734156866063, 2363.8
2.227597292724196, 2364.0
2.227460451738432, 2364.2
2.227323633902893, 2364.4
2.227186839211706, 2364.6
2.227050067658999, 2364.8
2.226913319238901, 2365.0
2.226776593945544, 2365.2
2.226639891773062, 2365.4
2.226503212715590, 2365.6
2.226366556767267, 2365.8
2.226229923922232, 2366.0
2.226093314174626, 2366.2
2.225956727518593, 2366.4
2.225820163948280, 2366.6
2.225683623457833, 2366.8
2.225547106041402, 2367.0
2.225410611693140, 2367.2
2.225274140407198, 2367.4
2.225137692177733, 2367.6
2.225001266998902, 2367.8
2.224864864864865, 2368.0
2.224728485769783, 2368.2
2.224592129707819, 2368.4
2.224455796673140, 2368.6
2.224319486659912, 2368.8
2.224183199662305, 2369.0
2.224046935674489, 2369.2
2.223910694690639, 2369.4
2.223774476704929, 2369.6
2.223638281711537, 2369.8
2.223502109704641, 2370.0
2.223365960678424, 2370.2
2.223229834627067, 2370.4
2.223093731544757, 2370.6
2.222957651425679, 2370.8
2.222821594264023, 2371.0
2.222685560053981, 2371.2
2.222549548789744, 2371.4
2.222413560465509, 2371.6
2.222277595075470, 2371.8
2.222141652613828, 2372.0
2.222005733074783, 2372.2
2.221869836452537, 2372.4
2.221733962741296, 2372.6
2.221598111935266, 2372.8
2.221462284028656, 2373.0
2.221326479015675, 2373.2
2.221190696890537, 2373.4
2.221054937647455, 2373.6
2.220919201280647, 2373.8
2.220783487784330, 2374.0
2.220647797152725, 2374.2
2.220512129380054, 2374.4
2.220376484460541, 2374.6
2.220240862388411, 2374.8
2.220105263157895, 2375.0
2.219969686763220, 2375.2
2.219834133198619, 2375.4
2.219698602458327, 2375.6
2.219563094536577, 2375.8
2.219427609427609, 2376.0
2.219292147125663, 2376.2
2.219156707624979, 2376.4
2.219021290919801, 2376.6
2.218885897004375, 2376.8
2.218750525872949, 2377.0
2.218615177519771, 2377.2
2.218479851939093, 2377.4
2.218344549125168, 2377.6
2.218209269072251, 2377.8
2.218074011774601, 2378.0
2.217938777226474, 2378.2
2.217803565422133, 2378.4
2.217668376355840, 2378.6
2.217533210021859, 2378.8
2.217398066414460, 2379.0
2.217262945527909, 2379.2
2.217127847356476, 2379.4
2.216992771894436, 2379.6
2.216857719136062, 2379.8
2.216722689075630, 2380.0
2.216587681707419, 2380.2
2.216452697025710, 2380.4
2.216317735024784, 2380.6
2.216182795698924, 2380.8
2.216047879042419, 2381.0
2.215912985049555, 2381.2
2.215778113714622, 2381.4
2.215643265031912, 2381.6
2.215508438995717, 2381.8
2.215373635600336, 2382.0
2.215238854840064, 2382.2
2.215104096709201, 2382.4
2.214969361202048, 2382.6
2.214834648312909, 2382.8
2.214699958036089, 2383.0
2.214565290365895, 2383.2
2.214430645296635, 2383.4
2.214296022822621, 2383.6
2.214161422938166, 2383.8
2.214026845637584, 2384.0
2.213892290915192, 2384.2
2.213757758765308, 2384.4
2.213623249182253, 2384.6
2.213488762160349, 2384.8
2.213354297693920, 2385.0
2.213219855777294, 2385.2
2.213085436404796, 2385.4
2.212951039570758, 2385.6
2.212816665269511, 2385.8
2.212682313495390, 2386.0
2.212547984242729, 2386.2
2.212413677505867, 2386.4
2.212279393279142, 2386.6
2.212145131556896, 2386.8
2.212010892333473, 2387.0
2.211876675603217, 2387.2
2.211742481360476, 2387.4
2.211608309599598, 2387.6
2.211474160314934, 2387.8
2.211340033500838, 2388.0
2.211205929151662, 2388.2
2.211071847261765, 2388.4
2.210937787825504, 2388.6
2.210803750837240, 2388.8
2.210669736291335, 2389.0
2.210535744182153, 2389.2
2.210401774504060, 2389.4
2.210267827251423, 2389.6
2.210133902418612, 2389.8
2.210000000000000, 2390.0
2.209866119989959, 2390.2
2.209732262382865, 2390.4
2.209598427173095, 2390.6
2.209464614355027, 2390.8
2.209330823923045, 2391.0
2.209197055871529, 2391.2
2.209063310194865, 2391.4
2.208929586887439, 2391.6
2.208795885943641, 2391.8
2.208662207357860, 2392.0
2.208528551124488, 2392.2
2.208394917237920, 2392.4
2.208261305692552, 2392.6
2.208127716482782, 2392.8
2.207994149603009, 2393.0
2.207860605047635, 2393.2
2.207727082811064, 2393.4
2.207593582887700, 2393.6
2.207460105271952, 2393.8
2.207326649958229, 2394.0
2.207193216940941, 2394.2
2.207059806214501, 2394.4
2.206926417773323, 2394.6
2.206793051611826, 2394.8
2.206659707724426, 2395.0
2.206526386105545, 2395.2
2.206393086749603, 2395.4
2.206259809651027, 2395.6
2.206126554804241, 2395.8
2.205993322203673, 2396.0
2.205860111843753, 2396.2
2.205726923718911, 2396.4
2.205593757823583, 2396.6
2.205460614152203, 2396.8
2.205327492699207, 2397.0
2.205194393459036, 2397.2
2.205061316426128, 2397.4
2.204928261594928, 2397.6
2.204795228959880, 2397.8
2.204662218515430, 2398.0
2.204529230256025, 2398.2
2.204396264176117, 2398.4
2.204263320270158, 2398.6
2.204130398532600, 2398.8
2.203997498957899, 2399.0
2.203864621540514, 2399.2
2.203731766274902, 2399.4
2.203598933155526, 2399.6
2.203466122176848, 2399.8
2.203333333333333, 2400.0
2.203200566619449, 2400.2
2.203067822029662, 2400.4
2.202935099558444, 2400.6
2.202802399200266, 2400.8
2.202669720949604, 2401.0
2.202537064800933, 2401.2
2.202404430748730, 2401.4
2.202271818787475, 2401.6
2.202139228911649, 2401.8
2.202006661115737, 2402.0
2.201874115394222, 2402.2
2.201741591741591, 2402.4
2.201609090152335, 2402.6
2.201476610620942, 2402.8
2.201344153141906, 2403.0
2.201211717709720, 2403.2
2.201079304318882, 2403.4
2.200946912963888, 2403.6
2.200814543639238, 2403.8
2.200682196339434, 2404.0
2.200549871058980, 2404.2
2.200417567792381, 2404.4
2.200285286534143, 2404.6
2.200153027278775, 2404.8
2.200020790020790, 2405.0
2.199888574754698, 2405.2
2.199756381475015, 2405.4
2.199624210176256, 2405.6
2.199492060852938, 2405.8
2.199359933499584, 2406.0
2.199227828110714, 2406.2
2.199095744680851, 2406.4
2.198963683204521, 2406.6
2.198831643676250, 2406.8
2.198699626090569, 2407.0
2.198567630442007, 2407.2
2.198435656725097, 2407.4
2.198303704934375, 2407.6
2.198171775064374, 2407.8
2.198039867109634, 2408.0
2.197907981064696, 2408.2
2.197776116924099, 2408.4
2.197644274682388, 2408.6
2.197512454334108, 2408.8
2.197380655873807, 2409.0
2.197248879296032, 2409.2
2.197117124595335, 2409.4
2.196985391766269, 2409.6
2.196853680803386, 2409.8
2.196721991701245, 2410.0
2.196590324454402, 2410.2
2.196458679057418, 2410.4
2.196327055504854, 2410.6
2.196195453791272, 2410.8
2.196063873911240, 2411.0
2.195932315859323, 2411.2
2.195800779630090, 2411.4
2.195669265218112, 2411.6
2.195537772617961, 2411.8
2.195406301824212, 2412.0
2.195274852831440, 2412.2
2.195143425634223, 2412.4
2.195012020227141, 2412.6
2.194880636604775, 2412.8
2.194749274761707, 2413.0
2.194617934692525, 2413.2
2.194486616391812, 2413.4
2.194355319854160, 2413.6
2.194224045074157, 2413.8
2.194092792046396, 2414.0
2.193961560765471, 2414.2
2.193830351225977, 2414.4
2.193699163422513, 2414.6
2.193567997349677, 2414.8
2.193436853002070, 2415.0
2.193305730374296, 2415.2
2.193174629460959, 2415.4
2.193043550256665, 2415.6
2.192912492756023, 2415.8
2.192781456953643, 2416.0
2.192650442844136, 2416.2
2.192519450422115, 2416.4
2.192388479682198, 2416.6
2.192257530619000, 2416.8
2.192126603227141, 2417.0
2.191995697501241, 2417.2
2.191864813435923, 2417.4
2.191733951025811, 2417.6
2.191603110265531, 2417.8
2.191472291149711, 2418.0
2.191341493672980, 2418.2
2.191210717829970, 2418.4
2.191079963615315, 2418.6
2.190949231023648, 2418.8
2.190818520049607, 2419.0
2.190687830687831, 2419.2
2.190557162932958, 2419.4
2.190426516779633, 2419.6
2.190295892222498, 2419.8
2.190165289256198, 2420.0
2.190034707875382, 2420.2
2.189904148074698, 2420.4
2.189773609848798, 2420.6
2.189643093192333, 2420.8
2.189512598099959, 2421.0
2.189382124566331, 2421.2
2.189251672586107, 2421.4
2.189121242153948, 2421.6
2.188990833264514, 2421.8
2.188860445912469, 2422.0
2.188730080092478, 2422.2
2.188599735799207, 2422.4
2.188469413027326, 2422.6
2.188339111771504, 2422.8
2.188208832026413, 2423.0
2.188078573786728, 2423.2
2.187948337047124, 2423.4
2.187818121802278, 2423.6
2.187687928046869, 2423.8
2.187557755775578, 2424.0
2.187427604983087, 2424.2
2.187297475664082, 2424.4
2.187167367813247, 2424.6
2.187037281425272, 2424.8
2.186907216494845, 2425.0
2.186777173016659, 2425.2
2.186647150985404, 2425.4
2.186517150395778, 2425.6
2.186387171242477, 2425.8
2.186257213520198, 2426.0
2.186127277223642, 2426.2
2.185997362347511, 2426.4
2.185867468886508, 2426.6
2.185737596835339, 2426.8
2.185607746188710, 2427.0
2.185477916941332, 2427.2
2.185348109087913, 2427.4
2.185218322623167, 2427.6
2.185088557541807, 2427.8
2.184958813838550, 2428.0
2.184829091508113, 2428.2
2.184699390545215, 2428.4
2.184569710944577, 2428.6
2.184440052700922, 2428.8
2.184310415808975, 2429.0
2.184180800263461, 2429.2
2.184051206059109, 2429.4
2.183921633190649, 2429.6
2.183792081652811, 2429.8
2.183662551440329, 2430.0
2.183533042547939, 2430.2
2.183403554970375, 2430.4
2.183274088702378, 2430.6
2.183144643738687, 2430.8
2.183015220074044, 2431.0
2.182885817703192, 2431.2
2.182756436620877, 2431.4
2.182627076821846, 2431.6
2.182497738300847, 2431.8
2.182368421052632, 2432.0
2.182239125071952, 2432.2
2.182109850353560, 2432.4
2.181980596892214, 2432.6
2.181851364682670, 2432.8
2.181722153719688, 2433.0
2.181592963998027, 2433.2
2.181463795512452, 2433.4
2.181334648257725, 2433.6
2.181205522228614, 2433.8
2.181076417419885, 2434.0
2.180947333826309, 2434.2
2.180818271442655, 2434.4
2.180689230263698, 2434.6
2.180560210284212, 2434.8
2.180431211498973, 2435.0
2.180302233902760, 2435.2
2.180173277490351, 2435.4
2.180044342256528, 2435.6
2.179915428196075, 2435.8
2.179786535303777, 2436.0
2.179657663574419, 2436.2
2.179528813002791, 2436.4
2.179399983583682, 2436.6
2.179271175311885, 2436.8
2.179142388182191, 2437.0
2.179013622189398, 2437.2
2.178884877328301, 2437.4
2.178756153593699, 2437.6
2.178627450980392, 2437.8
2.178498769483183, 2438.0
2.178370109096875, 2438.2
2.178241469816273, 2438.4
2.178112851636185, 2438.6
2.177984254551419, 2438.8
2.177855678556786, 2439.0
2.177727123647097, 2439.2
2.177598589817168, 2439.4
2.177470077061813, 2439.6
2.177341585375850, 2439.8
2.177213114754098, 2440.0
2.177084665191378, 2440.2
2.176956236682511, 2440.4
2.176827829222322, 2440.6
2.176699442805637, 2440.8
2.176571077427284, 2441.0
2.176442733082091, 2441.2
2.176314409764889, 2441.4
2.176186107470511, 2441.6
2.176057826193791, 2441.8
2.175929565929566, 2442.0
2.175801326672672, 2442.2
2.175673108417949, 2442.4
2.175544911160239, 2442.6
2.175416734894383, 2442.8
2.175288579615227, 2443.0
2.175160445317617, 2443.2
2.175032331996398, 2443.4
2.174904239646423, 2443.6
2.174776168262542, 2443.8
2.174648117839607, 2444.0
2.174520088372474, 2444.2
2.174392079855997, 2444.4
2.174264092285036, 2444.6
2.174136125654450, 2444.8
2.174008179959100, 2445.0
2.173880255193849, 2445.2
2.173752351353562, 2445.4
2.173624468433105, 2445.6
2.173496606427345, 2445.8
2.173368765331153, 2446.0
2.173240945139400, 2446.2
2.173113145846959, 2446.4
2.172985367448705, 2446.6
2.172857609939513, 2446.8
2.172729873314262, 2447.0
2.172602157567833, 2447.2
2.172474462695105, 2447.4
2.172346788690962, 2447.6
2.172219135550290, 2447.8
2.172091503267974, 2448.0
2.171963891838902, 2448.2
2.171836301257964, 2448.4
2.171708731520052, 2448.6
2.171581182620059, 2448.8
2.171453654552879, 2449.0
2.171326147313409, 2449.2
2.171198660896546, 2449.4
2.171071195297191, 2449.6
2.170943750510246, 2449.8
2.170816326530612, 2450.0
2.170688923353196, 2450.2
2.170561540972902, 2450.4
2.170434179384641, 2450.6
2.170306838583320, 2450.8
2.170179518563851, 2451.0
2.170052219321149, 2451.2
2.169924940850126, 2451.4
2.169797683145701, 2451.6
2.169670446202790, 2451.8
2.169543230016313, 2452.0
2.169416034581193, 2452.2
2.169288859892350, 2452.4
2.169161705944712, 2452.6
2.169034572733203, 2452.8
2.168907460252752, 2453.0
2.168780368498288, 2453.2
2.168653297464743, 2453.4
2.168526247147049, 2453.6
2.168399217540142, 2453.8
2.168272208638957, 2454.0
2.168145220438432, 2454.2
2.168018252933507, 2454.4
2.167891306119123, 2454.6
2.167764379990223, 2454.8
2.167637474541752, 2455.0
2.167510589768654, 2455.2
2.167383725665879, 2455.4
2.167256882228376, 2455.6
2.167130059451095, 2455.8
2.167003257328990, 2456.0
2.166876475857015, 2456.2
2.166749715030125, 2456.4
2.166622974843279, 2456.6
2.166496255291436, 2456.8
2.166369556369556, 2457.0
2.166242878072603, 2457.2
2.166116220395540, 2457.4
2.165989583333333, 2457.6
2.165862966880950, 2457.8
2.165736371033360, 2458.0
2.165609795785534, 2458.2
2.165483241132444, 2458.4
2.165356707069064, 2458.6
2.165230193590369, 2458.8
2.165103700691338, 2459.0
2.164977228366949, 2459.2
2.164850776612182, 2459.4
2.164724345422020, 2459.6
2.164597934791446, 2459.8
2.164471544715447, 2460.0
2.164345175189009, 2460.2
2.164218826207121, 2460.4
2.164092497764773, 2460.6
2.163966189856957, 2460.8
2.163839902478667, 2461.0
2.163713635624898, 2461.2
2.163587389290647, 2461.4
2.163461163470913, 2461.6
2.163334958160695, 2461.8
2.163208773354996, 2462.0
2.163082609048818, 2462.2
2.162956465237167, 2462.4
2.162830341915049, 2462.6
2.162704239077473, 2462.8
2.162578156719448, 2463.0
2.162452094835986, 2463.2
2.162326053422099, 2463.4
2.162200032472804, 2463.6
2.162074031983115, 2463.8
2.161948051948052, 2464.0
2.161822092362633, 2464.2
2.161696153221880, 2464.4
2.161570234520815, 2464.6
2.161444336254463, 2464.8
2.161318458417850, 2465.0
2.161192601006004, 2465.2
2.161066764013953, 2465.4
2.160940947436730, 2465.6
2.160815151269365, 2465.8
2.160689375506894, 2466.0
2.160563620144352, 2466.2
2.160437885176776, 2466.4
2.160312170599205, 2466.6
2.160186476406681, 2466.8
2.160060802594244, 2467.0
2.159935149156939, 2467.2
2.159809516089811, 2467.4
2.159683903387907, 2467.6
2.159558311046276, 2467.8
2.159432739059968, 2468.0
2.159307187424034, 2468.2
2.159181656133528, 2468.4
2.159056145183505, 2468.6
2.158930654569021, 2468.8
2.158805184285136, 2469.0
2.158679734326908, 2469.2
2.158554304689398, 2469.4
2.158428895367671, 2469.6
2.158303506356790, 2469.8
2.158178137651822, 2470.0
2.158052789247834, 2470.2
2.157927461139896, 2470.4
2.157802153323079, 2470.6
2.157676865792456, 2470.8
2.157551598543100, 2471.0
2.157426351570087, 2471.2
2.157301124868495, 2471.4
2.157175918433404, 2471.6
2.157050732259891, 2471.8
2.156925566343042, 2472.0
2.156800420677939, 2472.2
2.156675295259667, 2472.4
2.156550190083313, 2472.6
2.156425105143966, 2472.8
2.156300040436717, 2473.0
2.156174995956655, 2473.2
2.156049971698876, 2473.4
2.155924967658474, 2473.6
2.155799983830544, 2473.8
2.155675020210186, 2474.0
2.155550076792499, 2474.2
2.155425153572583, 2474.4
2.155300250545543, 2474.6
2.155175367706481, 2474.8
2.155050505050505, 2475.0
2.154925662572722, 2475.2
2.154800840268239, 2475.4
2.154676038132170, 2475.6
2.154551256159625, 2475.8
2.154426494345719, 2476.0
2.154301752685567, 2476.2
2.154177031174285, 2476.4
2.154052329806993, 2476.6
2.153927648578811, 2476.8
2.153802987484861, 2477.0
2.153678346520265, 2477.2
2.153553725680148, 2477.4
2.153429124959638, 2477.6
2.153304544353862, 2477.8
2.153179983857950, 2478.0
2.153055443467033, 2478.2
2.152930923176243, 2478.4
2.152806422980715, 2478.6
2.152681942875585, 2478.8
2.152557482855990, 2479.0
2.152433042917070, 2479.2
2.152308623053965, 2479.4
2.152184223261817, 2479.6
2.152059843535769, 2479.8
2.151935483870968, 2480.0
2.151811144262560, 2480.2
2.151686824705692, 2480.4
2.151562525195517, 2480.6
2.151438245727185, 2480.8
2.151313986295849, 2481.0
2.151189746896663, 2481.2
2.151065527524784, 2481.4
2.150941328175371, 2481.6
2.150817148843581, 2481.8
2.150692989524577, 2482.0
2.150568850213520, 2482.2
2.150444730905575, 2482.4
2.150320631595907, 2482.6
2.150196552279684, 2482.8
2.150072492952074, 2483.0
2.149948453608248, 2483.2
2.149824434243376, 2483.4
2.149700434852633, 2483.6
2.149576455431194, 2483.8
2.149452495974235, 2484.0
2.149328556476934, 2484.2
2.149204636934471, 2484.4
2.149080737342027, 2484.6
2.148956857694784, 2484.8
2.148832997987927, 2485.0
2.148709158216643, 2485.2
2.148585338376117, 2485.4
2.148461538461539, 2485.6
2.148337758468099, 2485.8
2.148213998390990, 2486.0
2.148090258225404, 2486.2
2.147966537966538, 2486.4
2.147842837609587, 2486.6
2.147719157149750, 2486.8
2.147595496582228, 2487.0
2.147471855902220, 2487.2
2.147348235104929, 2487.4
2.147224634185561, 2487.6
2.147101053139320, 2487.8
2.146977491961415, 2488.0
2.146853950647054, 2488.2
2.146730429191448, 2488.4
2.146606927589810, 2488.6
2.146483445837351, 2488.8
2.146359983929289, 2489.0
2.146236541860839, 2489.2
2.146113119627219, 2489.4
2.145989717223650, 2489.6
2.145866334645353, 2489.8
2.145742971887550, 2490.0
2.145619628945466, 2490.2
2.145496305814327, 2490.4
2.145373002489360, 2490.6
2.145249718965794, 2490.8
2.145126455238860, 2491.0
2.145003211303790, 2491.2
2.144879987155816, 2491.4
2.144756782790175, 2491.6
2.144633598202103, 2491.8
2.144510433386838, 2492.0
2.144387288339620, 2492.2
2.144264163055689, 2492.4
2.144141057530290, 2492.6
2.144017971758665, 2492.8
2.143894905736061, 2493.0
2.143771859457725, 2493.2
2.143648832918906, 2493.4
2.143525826114854, 2493.6
2.143402839040821, 2493.8
2.143279871692061, 2494.0
2.143156924063828, 2494.2
2.143033996151379, 2494.4
2.142911087949972, 2494.6
2.142788199454866, 2494.8
2.142665330661323, 2495.0
2.142542481564604, 2495.2
2.142419652159974, 2495.4
2.142296842442699, 2495.6
2.142174052408045, 2495.8
2.142051282051282, 2496.0
2.141928531367679, 2496.2
2.141805800352508, 2496.4
2.141683089001042, 2496.6
2.141560397308555, 2496.8
2.141437725270324, 2497.0
2.141315072881627, 2497.2
2.141192440137743, 2497.4
2.141069827033953, 2497.6
2.140947233565538, 2497.8
2.140824659727782, 2498.0
2.140702105515972, 2498.2
2.140579570925392, 2498.4
2.140457055951333, 2498.6
2.140334560589082, 2498.8
2.140212084833934, 2499.0
2.140089628681178, 2499.2
2.139967192126110, 2499.4
2.139844775164026, 2499.6
2.139722377790223, 2499.8
2.139600000000000, 2500.0
*Material, name=CLADDING
*Elastic
7.5e10, 0.3
*Density
6500
*Specific Heat
330
*Conductivity
16
*Plastic
4000000, 0
2004000000, 1
*Solid Section, elset=FUEL, material=FUEL
,
*Solid Section, elset=CLAD, material=CLADDING
,
*Initial Conditions, type=TEMPERATURE
ALL, 600
*Surface Interaction, name=INTERFACE
*Surface Behavior, pressure-overclosure=LINEAR
1e14
*Gap Conductance
400000, 0
400000.00000000006, 0.000001
396039.60396039614, 0.0000010099999999999999
392118.4197627685, 0.0000010200999999999998
388236.0591710579, 0.0000010303009999999997
384392.13779312663, 0.0000010406040099999998
380586.2750426996, 0.0000010510100500999999
376818.0941016828, 0.000001061520150601
373087.2218828542, 0.00000107213535210701
369393.28899292496, 0.00000108285670562808
365735.9296959653, 0.0000010936852726843608
362114.7818771933, 0.0000011046221254112045
358529.48700712214, 0.0000011156683466653166
354979.69010606146, 0.0000011268250301319698
351465.03970897174, 0.0000011380932804332895
347985.18783066515, 0.0000011494742132376223
344539.7899313516, 0.0000011609689553699985
341128.50488252635, 0.0000011725786449236986
337750.99493319436, 0.0000011843044313729356
334406.9256764301, 0.0000011961474756866649
331095.9660162674, 0.0000012081089504435314
327817.78813491826, 0.0000012201900399479668
324572.06746031507, 0.0000012323919403474466
321358.4826339753, 0.0000012447158597509211
318176.7154791835, 0.0000012571630183484303
315026.4509694886, 0.0000012697346485319147
311907.3771975134, 0.0000012824319950172339
308819.1853440727, 0.0000012952563149674061
305761.56964759674, 0.0000013082088781170801
302734.22737385816, 0.000001321290966898251
299736.8587859982, 0.0000013345038765672334
296769.1671148497, 0.0000013478489153329057
293830.8585295542, 0.0000013613274044862347
290921.6421084695, 0.000001374940678531097
288041.2298103658, 0.000001388690085316408
285189.3364459068, 0.000001402576986169572
282365.67964941263, 0.0000014166027560312678
279569.9798509036, 0.0000014307687835915804
276801.96024841943, 0.0000014450764714274963
274061.3467806133, 0.0000014595272361417712
271347.86809961713, 0.000001474122508503189
268661.25554417534, 0.0000014888637335882209
266001.2431130449, 0.0000015037523709241031
263367.56743865827, 0.0000015187898946333443
260759.96776104782, 0.0000015339777935796777
258178.18590202756, 0.0000015493175715154744
255621.96623963123, 0.0000015648107472306292
253091.0556828032, 0.0000015804588547029355
250585.2036463398, 0.0000015962634432499648
248104.16202607902, 0.0000016122260776824644
245647.68517433567, 0.0000016283483384592892
243215.52987557987, 0.000001644631821843882
240807.45532235628, 0.0000016610781400623208
238423.22309144188, 0.0000016776889214629442
236062.5971202395, 0.0000016944658106775735
233725.34368340543, 0.0000017114104687843492
231411.23136970834, 0.0000017285245734721926
229120.0310591172, 0.0000017458098192069145
226851.515900116, 0.0000017632679173989838
224605.46128724358, 0.0000017809005965729735
222381.64483885502, 0.0000017987096025387033
220179.84637510398, 0.0000018166966985640905
217999.84789614254, 0.0000018348636655497314
215841.43356053717, 0.0000018532123022052287
213704.38966389818, 0.000001871744425227281
211588.504617721, 0.0000018904618694795538
209493.56892843664, 0.0000019093664881743493
207419.37517666994, 0.0000019284601530560927
205365.7179967029, 0.0000019477447545866537
203332.3940561415, 0.0000019672222021325203
201319.20203578364, 0.0000019868944241538454
199325.94260968675, 0.000002006763368395384
197352.41842543244, 0.000002026831002079338
195398.43408458657, 0.0000020470993121001315
193463.796123353, 0.000002067570305221133
191548.31299341883, 0.000002088246008273344
189651.79504298893, 0.0000021091284683560776
187774.05449800883, 0.0000021302197530396385
185914.9054435731, 0.000002151521950570035
184074.16380551795, 0.000002173037170075735
182251.64733219598, 0.0000021947675417764925
180447.17557643165, 0.0000022167152171942576
178660.5698776551, 0.0000022388823693662
176891.65334421297, 0.0000022612711930598622
175140.25083585441, 0.000002283883904990461
173406.1889463905, 0.0000023067227440403656
171689.29598652525, 0.0000023297899714807694
169989.40196685668, 0.000002353087871195577
168306.33858104624, 0.0000023766187499075327
166639.93918915468, 0.000002400384937406608
164990.03880114324, 0.000002424388786780674
163356.47406053788, 0.0000024486326746484807
161739.08322825533, 0.0000024731190013949654
160137.70616658943, 0.000002497850191408915
158552.18432335588, 0.000002522828693323004
156982.36071619394, 0.0000025480569802562343
155428.07991702372, 0.0000025735375500587964
153889.18803665714, 0.0000025992729255593846
152365.53270956152, 0.0000026252656548149785
150856.96307877378, 0.000002651518311363128
149363.32978096412, 0.0000026780334944767595
147884.48493164766, 0.0000027048138294215272
146420.2821105422, 0.0000027318619677157427
144970.5763470715, 0.0000027591805873929002
143535.2241060114, 0.000002786772393266829
142114.08327327858, 0.0000028146401171994977
140707.01314186, 0.0000028427865183714927
139313.87439788118, 0.0000028712143835552076
137934.52910681305, 0.0000028999265273907598
136568.8406998149, 0.000002928925792664667
135216.67396021276, 0.0000029582150505913138
133877.89501011165, 0.000002987797201097227
132552.37129714026, 0.000003017675173108199
131239.971581327, 0.000003047851924839281
129940.56592210593, 0.000003078330444087674
128654.02566545142, 0.0000031091137485285506
127380.22343114002, 0.000003140204886013836
126119.03310013864, 0.0000031716069348739743
124870.32980211747, 0.000003203323004222714
123633.9899030866, 0.000003235356234264941
122409.89099315504, 0.0000032677097966075907
121197.91187441094, 0.0000033003868945736665
119997.93254892172, 0.0000033333907635194033
118809.8342068532, 0.000003366724671154597
117633.49921470613, 0.000003400391917866143
116468.81110366943, 0.000003434395837044805
115315.65455808854, 0.000003468739795415253
114173.91540404806, 0.0000035034271933694055
113043.48059806738, 0.0000035384614653030997
111924.23821590829, 0.0000035738460799561307
110816.07744149335, 0.0000036095845407556923
109718.88855593401, 0.0000036456803861632494
108632.56292666733, 0.000003682137190024882
107556.99299670033, 0.000003718958561925131
106492.07227396072, 0.0000037561481475443823
105437.69532075318, 0.0000037937096290198264
104393.75774331998, 0.000003831646725310025
103360.15618150492, 0.000003869963192563125
102336.78829851974, 0.000003908662824488756
101323.55277081161, 0.000003947749452733644
100320.3492780313, 0.00000398722694726098
99327.07849310029, 0.00000402709921673359
98343.64207237653, 0.000004067370208900926
97369.94264591736, 0.000004108043910989936
96405.88380783895, 0.000004149124350099835
95451.37010677125, 0.000004190615593600833
94506.30703640718, 0.000004232521749536842
93570.60102614571, 0.00000427484696703221
92644.15943182744, 0.0000043175954367025324
91726.89052656182, 0.000004360771391069557
90818.70349164537, 0.000004404379104980253
89919.5084075697, 0.000004448422896030055
89029.2162451185, 0.000004492907124990356
88147.73885655295, 0.00000453783619624026
87274.98896688412, 0.000004583214558202662
86410.8801652318, 0.0000046290467037846885
85555.3268962691, 0.000004675337170822536
84708.2444517516, 0.000004722090542530761
83869.54896213028, 0.000004769311447956069
83039.15738824781, 0.00000481700456243563
82216.98751311663, 0.000004865174608059987
81402.95793377885, 0.000004913826354140586
80596.98805324637, 0.0000049629646176819924
79798.99807252116, 0.000005012594263858813
79008.9089826942, 0.000005062720206497401
78226.64255712298, 0.0000051133474085623755
77452.12134368611, 0.000005164480882647999
76685.26865711497, 0.000005216125691474479
75926.00857140096, 0.000005268286948389224
75174.26591227818, 0.000005320969817873116
74429.96624978037, 0.000005374179516051848
73693.03589087164, 0.0000054279213112123665
72963.40187215015, 0.00000548220052432449
72240.99195262391, 0.000005537022529567735
71525.73460655833, 0.000005592392754863413
70817.55901639439, 0.000005648316682412047
70116.39506573702, 0.000005704799849236167
69422.17333241287, 0.000005761847847728529
68734.82508159691, 0.0000058194663262058146
68054.28225900684, 0.0000058776609894678725
67380.47748416518, 0.0000059364375993625514
66713.3440437279, 0.000005995801975356177
66052.81588487912, 0.0000060557599951097386
65398.8276087912, 0.000006116317595060836
64751.314464149706, 0.000006177480771011445
64110.21234074228, 0.0000062392555787215596
63475.45776311117, 0.000006301648134508775
62846.98788426848, 0.000006364664615853863
62224.74047947374, 0.000006428311262012402
61608.65394007301, 0.000006492594374632526
60998.66726739902, 0.000006557520318378851
60394.7200667317, 0.0000066230955215626394
59796.752541318514, 0.000006689326476778266
59204.705486453975, 0.000006756219741546049
58618.5202836178, 0.0000068237819389615096
58038.13889467108, 0.000006892019758351125
57463.50385610998, 0.000006960939955934636
56894.55827337621, 0.000007030549355493983
56331.24581522398, 0.000007100854849048923
55773.510708142545, 0.000007171863397539413
55221.29773083421, 0.0000072435820315148064
54674.55220874674, 0.000007316017851829955
54133.220008660144, 0.000007389178030348254
53597.247533326874, 0.000007463069810651736
53066.58171616522, 0.000007537700508758253
52541.17001600517, 0.000007613077513845836
52020.9604118863, 0.000007689208288984295
51505.901397907226, 0.000007766100371874139
50995.941978125964, 0.00000784376137559288
50491.03166151086, 0.000007922198989348809
49991.12045694144, 0.000008001420979242297
49496.15886825885, 0.00000808143518903472
49006.0978893652, 0.000008162249540925068
48520.88899937149, 0.000008243872036334318
48040.48415779356, 0.00000832631075669766
47564.8357997956, 0.000008409573864264638
47093.896831480786, 0.000008493669602907284
46627.6206252285, 0.000008578606298936358
46165.96101507772, 0.00000866439236192572
45708.872292156164, 0.000008751036285544978
45256.30920015462, 0.000008838546648400427
44808.226930846155, 0.000008926932114884432
44364.58111964965, 0.000009016201436033277
43925.32784123728, 0.00000910636345039361
43490.423605185424, 0.000009197427084897546
43059.82535166874, 0.000009289401355746522
42633.49044719677, 0.000009382295369303988
42211.37668039284, 0.000009476118322997027
41793.44225781469, 0.000009570879506226997
41379.64579981653, 0.000009666588301289267
40969.94633645201, 0.00000976325418430216
40564.30330341783, 0.000009860886726145182
40162.676538037456, 0.000009959495593406634
39765.02627528461, 0.0000100590905493407
39371.31314384614, 0.000010159681454834107
38981.49816222391, 0.000010261278269382448
38595.542734875155, 0.000010363891052076273
38213.40864839124, 0.000010467529962597036
37835.0580677141, 0.000010572205262223007
37460.453532390195, 0.000010677927314845237
37089.557952861585, 0.000010784706587993689
36722.33460679364, 0.000010892553653873626
36358.747135439255, 0.000011001479190412362
35998.75954003887, 0.000011111493982316485
35642.3361782563, 0.00001122260892213965
35289.4417606498, 0.000011334835011361047
34940.04134717802, 0.000011448183361474658
34594.10034374062, 0.000011562665195089404
34251.58449875309, 0.000011678291847040298
33912.45989975553, 0.0000117950747655107
33576.69297005498, 0.000011913025513165808
33244.25046540097, 0.000012032155768297467
32915.09947069403, 0.000012152477325980441
32589.207396726764, 0.000012274002099240245
32266.54197695719, 0.000012396742120232648
31947.07126431405, 0.000012520709541434974
31630.763628033714, 0.000012645916636849323
31317.58775052843, 0.000012772375803217817
31007.512624285573, 0.000012900099561249995
30700.507548797596, 0.000013029100556862496
30396.542127522374, 0.00001315939156243112
30095.586264873637, 0.000013290985478055432
29797.610163241225, 0.000013423895332835986
29502.584320040816, 0.000013558134286164346
29210.47952479289, 0.00001369371562902599
28921.26685623058, 0.00001383065278531625
28634.917679436217, 0.000013968959313169413
28351.403643006157, 0.000014108648906301107
28070.69667624372, 0.000014249735395364118
27792.76898637992, 0.00001439223274931776
27517.593055821704, 0.000014536155076810937
27245.14163942743, 0.000014681516627579046
26975.387761809336, 0.000014828331793854836
26708.304714662707, 0.000014976615111793385
26443.866054121496, 0.000015126381262911318
26182.045598140092, 0.000015277645075540432
25922.817423901084, 0.000015430421526295836
25666.1558652486, 0.000015584725741558794
25412.035510147125, 0.00001574057299897438
25160.431198165472, 0.000015897978728964126
24911.318017985614, 0.000016056958516253768
24664.671304936248, 0.000016217528101416307
24420.46663855074, 0.00001637970338243047
24178.67984014925, 0.000016543500416254774
23939.2869704448, 0.000016708935420417323
23702.264327173067, 0.000016876024774621498
23467.58844274561, 0.000017044785022367713
23235.23608192635, 0.00001721523287259139
23005.184239531038, 0.000017387385201317303
22777.410138149542, 0.000017561259053330477
22551.891225890635, 0.00001773687164386378
22328.605174149143, 0.00001791424036030242
22107.52987539519, 0.000018093382763905445
21888.643440985335, 0.0000182743165915445
21671.92419899538, 0.000018457059757459946
21457.350692074637, 0.000018641630355034544
21244.90167532142, 0.00001882804665858489
21034.556114179628, 0.000019016327125170738
20826.293182356065, 0.000019206490396422447
20620.09225975848, 0.00001939855530038667
20415.93293045394, 0.000019592540853390538
20213.794980647464, 0.000019788466261924443
20013.658396680657, 0.000019986350924543688
19815.503363050157, 0.000020186214433789125
19619.310260445698, 0.000020388076578127017
19425.059663807624, 0.000020591957343908286
19232.73234040359, 0.00002079787691734737
19042.309247924346, 0.000021005855686520843
18853.771532598363, 0.00002121591424338605
18667.10052732511, 0.00002142807338581991
18482.27774982684, 0.00002164235411967811
18299.284900818657, 0.00002185877766087489
18118.103862196687, 0.00002207736543748364
17938.716695244246, 0.000022298139091858476
17761.10563885569, 0.000022521120482777062
17585.25310777791, 0.000022746331687604834
17411.141690869215, 0.000022973795004480882
17238.75414937546, 0.00002320353295452569
17068.07341522323, 0.000023435568284070946
16899.082589329933, 0.000023669923966911655
16731.764939930625, 0.00002390662320658077
16566.10390092141, 0.000024145689438646577
16402.083070219218, 0.000024387146333033045
16239.686208137842, 0.000024631017796363374
16078.897235780041, 0.000024877327974327007
15919.700233445586, 0.000025126101254070276
15762.079439055035, 0.00002537736226661098
15606.019246589143, 0.00002563113588927709
15451.504204543706, 0.000025887447248169863
15298.51901439971, 0.00002614632172065156
15147.048529108624, 0.000026407784937858075
14997.077751592697, 0.000026671862787236657
14848.591833260096, 0.000026938581415109022
14701.576072534748, 0.000027207967229260113
14556.01591340074, 0.000027480046901552715
14411.896943961128, 0.000027754847370568243
14269.204895011018, 0.000028032395844273926
14127.925638624769, 0.000028312719802716667
13988.045186757197, 0.000028595847000743834
13849.549689858612, 0.00002888180547075127
13712.425435503575, 0.000029170623525458784
13576.658847033244, 0.00002946232976071337
13442.236482211132, 0.000029756953058320507
13309.14503189221, 0.00003005452258890371
13177.371318705158, 0.00003035506781479275
13046.902295747681, 0.00003065861849294068
12917.725045294734, 0.000030965204677870084
12789.826777519538, 0.00003127485672464878
12663.194829227268, 0.00003158760529189527
12537.816662601253, 0.00003190348134481422
12413.679863961639, 0.00003222251615826236
12290.772142536276, 0.000032544741319844986
12169.081329243836, 0.00003287018873304344
12048.595375488947, 0.000033198890620373874
11929.302351969254, 0.00003353087952657761
11811.190447494311, 0.00003386618832184339
11694.247967816149, 0.00003420485020506182
11578.463334471435, 0.00003454689870711244
11463.825083635084, 0.00003489236769418357
11350.32186498523, 0.000035241291371125405
11237.942440579436, 0.00003559370428483666
11126.675683742016, 0.00003594964132768503
11016.510577962392, 0.00003630913774096188
10907.436215804348, 0.000036672229118371496
10799.441797826088, 0.00003703895140955521
10692.516631510978, 0.00003740934092365076
10586.65013020889, 0.00003778343433288727
10481.831812088009, 0.000038161268676216145
10378.051299097038, 0.000038542881362978305
10275.298315937662, 0.00003892831017660809
10173.562689047189, 0.00003931759327837417
10072.834345591276, 0.000039710769211157915
9973.10331246661, 0.000040107876903269494
9874.359715313474, 0.00004050895567230219
9776.593777538093, 0.00004091404522902521
9679.795819344648, 0.00004132318568131546
9583.95625677688, 0.00004173641753812861
9489.065600769189, 0.000042153781713509896
9395.114456207117, 0.000042575319530645
9302.093520997147, 0.000043001072725951445
9209.993585145688, 0.00004343108345321096
9118.805529847217, 0.00004386539428774307
9028.520326581403, 0.0000443040482306205
8939.12903621921, 0.000044747088712926704
8850.622808137832, 0.00004519455960005597
8762.992879344389, 0.000045646505196056534
8676.230573608305, 0.0000461029702480171
8590.327300602283, 0.00004656399995049727
8505.274555051765, 0.000047029639950002244
8421.063915892835, 0.00004749993634950227
8337.687045438452, 0.00004797493571299729
8255.135688552922, 0.00004845468507012726
8173.4016718345765, 0.00004893923192082854
8092.476902806511, 0.00004942862424003682
8012.353369115358, 0.00004992291048243719
7933.023137737978, 0.00005042213958726156
7854.478354196018, 0.00005092636098313418
7776.711241778235, 0.00005143562459296552
7699.7141007705295, 0.00005194998083889518
7623.479307693594, 0.00005246948064728413
7547.999314548112, 0.00005299417545375697
7473.266648067438, 0.00005352411720829454
7399.273908977661, 0.00005405935838037748
7326.013771265011, 0.00005459995196418126
7253.478981450507, 0.000055145951483823074
7181.662357871788, 0.000055697410998661305
7110.556789972067, 0.00005625438510864792
7040.155237596106, 0.0000568169289597344
6970.450730293174, 0.000057385098249331746
6901.4363666269055, 0.00005795894923182506
6833.105313491986, 0.00005853853872414331
6765.450805437609, 0.00005912392411138475
6698.466143997633, 0.000059715163352498595
6632.144697027359, 0.00006031231498602358
6566.47989804689, 0.00006091543813588382
6501.46524559098, 0.00006152459251724266
6437.094302565327, 0.00006213983844241509
6373.3606956092335, 0.00006276123682683924
6310.258114464588, 0.00006338884919510764
6247.780311351077, 0.00006402273768705871
6185.9211003476, 0.00006466296506392931
6124.674356779802, 0.0000653095947145686
6064.034016613665, 0.00006596269066171429
6003.994075855114, 0.00006662231756833144
5944.548589955557, 0.00006728854074401476
5885.691673223324, 0.00006796142615145491
5827.417498240915, 0.00006864104041296946
5769.720295288034, 0.00006932745081709916
5712.594351770331, 0.00007002072532527015
5656.034011653793, 0.00007072093257852286
5600.033674904746, 0.00007142814190430808
5544.587796935391, 0.00007214242332335116
5489.6908880548435, 0.00007286384755658467
5435.337512925587, 0.00007359248603215052
5381.522290025334, 0.00007432841089247202
5328.239891114193, 0.00007507169500139674
5275.485040707121, 0.00007582241195141071
5223.252515551605, 0.00007658063607092481
5171.5371441105, 0.00007734644243163407
5120.333806049999, 0.00007811990685595042
5069.637431732673, 0.00007890110592450992
5019.443001715517, 0.00007969011698375502
4969.745546252988, 0.00008048701815359257
4920.540144804938, 0.0000812918883351285
4871.821925549443, 0.00008210480721847979
4823.586064900439, 0.00008292585529066458
4775.827787030137, 0.00008375511384357123
4728.5423633961755, 0.00008459266498200695
4681.7251122734415, 0.00008543859163182702
4635.371398290536, 0.00008629297754814529
4589.476631970827, 0.00008715590732362674
4544.036269278046, 0.00008802746639686301
4499.045811166383, 0.00008890774106083164
4454.500803135033, 0.00008979681847143996
4410.396834787161, 0.00009069478665615436
4366.729539393228, 0.0000916017345227159
4323.494593458642, 0.00009251775186794306
4280.687716295685, 0.00009344292938662249
4238.304669599688, 0.00009437735868048872
4196.341257029394, 0.00009532113226729361
4154.793323791479, 0.00009627434358996654
4113.6567562291875, 0.00009723708702586621
4072.927481415037, 0.00009820945789612487
4032.6014667475615, 0.00009919155247508613
3992.674719552041, 0.00010018346799983699
3953.1432866851887, 0.00010118530267983537
3914.0032541437513, 0.00010219715570663371
3875.2507466769816, 0.00010321912726370006
3836.881927402952, 0.00010425131853633705
3798.8929974286657, 0.00010529383172170042
3761.280195473926, 0.00010634677003891742
3724.039797498937, 0.0001074102377393066
3687.168116335581, 0.00010848434011669967
3650.6615013223573, 0.00010956918351786667
3614.516337942928, 0.00011066487535304533
3578.7290474682454, 0.00011177152410657579
3543.296086602223, 0.00011288923934764156
3508.2139471309138, 0.00011401813174111798
3473.479155575162, 0.00011515831305852916
3439.088272846695, 0.00011630989618911446
3405.0378939076186, 0.0001174729951510056
3371.324647433286, 0.00011864772510251566
3337.945195478501, 0.00011983420235354082
3304.89623314703, 0.00012103254437707623
3272.1744882643866, 0.000122242869820847
3239.776721053848, 0.00012346529851905546
3207.6997238156914, 0.000124699951504246
3175.940320609596, 0.00012594695101928846
3144.495366940194, 0.00012720642052948134
3113.3617494457367, 0.00012847848473477615
3082.536385589838, 0.0001297632695821239
3052.016223356276, 0.00013106090227794513
3021.7982409468077, 0.00013237151130072458
2991.879446481988, 0.0001336952264137318
2962.256877704939, 0.00013503217867786912
2932.9276016880585, 0.0001363825004646478
2903.888714542632, 0.0001377463254692943
2875.1373411313193, 0.00013912378872398722
2846.6706347834843, 0.0001405150266112271
2818.4857770133503, 0.00014192017687733938
2790.5799772409414, 0.00014333937864611276
2762.9504725157835, 0.0001447727724325739
2735.5945272433496, 0.00014622050015689964
2708.5094329142075, 0.00014768270515846864
2681.692507835849, 0.00014915953221005334
2655.141096867177, 0.00015065112753215388
2628.852571155621, 0.0001521576388074754
2602.8243278768523, 0.00015367921519555017
2577.0537899770816, 0.00015521600734750567
2551.5384059179023, 0.00015676816742098073
2526.2756494236655, 0.00015833584909519054
2501.263019231352, 0.00015991920758614246
2476.4980388429226, 0.00016151839966200388
2451.9782562801215, 0.0001631335836586239
2427.701243841705, 0.00016476491949521014
2403.664597863074, 0.00016641256869016224
2379.865938478291, 0.00016807669437706387
2356.3029093844466, 0.00016975746132083451
2332.9731776083627, 0.00017145503593404287
2309.874433275607, 0.0001731695862933833
2287.0043893817888, 0.00017490128215631712
2264.3607815661276, 0.0001766502949778803
2241.941367887255, 0.0001784167979276591
2219.7439286012427, 0.0001802009659069357
2197.7662659418243, 0.00018200297556600505
2176.0062039027966, 0.0001838230053216651
2154.4615880225706, 0.00018566123537488175
2133.130285170862, 0.00018751784772863057
2112.010183337487, 0.00018939302620591688
2091.0991914232545, 0.00019128695646797604
2070.3952390329255, 0.00019319982603265581
2049.896276270223, 0.00019513182429298237
2029.6002735348745, 0.0001970831425359122
2009.505221321658, 0.0001990539739612713
1989.6091300214434, 0.00020104451370088402
1969.9100297242014, 0.00020305495883789286
1950.4059700239618, 0.0002050855084262718
1931.0950198257046, 0.00020713636351053452
1911.975267154163, 0.00020920772714563986
1893.0448189645178, 0.00021129980441709627
1874.301800954968, 0.00021341280246126723
1855.7443573811565, 0.00021554693048587991
1837.3706508724322, 0.00021770239979073872
1819.1788622499328, 0.0002198794237886461
1801.167190346468, 0.00022207821802653258
1783.3338518281862, 0.0002242990002067979
1765.677081018006, 0.00022654199020886588
1748.1951297207981, 0.00022880741011095453
1730.8862670502951, 0.0002310954842120641
1713.7487792577178, 0.00023340643905418474
1696.7809695620967, 0.0002357405034447266
1679.9811579822742, 0.00023809790847917385
1663.3476811705684, 0.0002404788875639656
1646.8788922480876, 0.00024288367643960526
1630.573160641671, 0.0002453125132040013
1614.4288719224464, 0.0002477656383360413
1598.4444276459867, 0.0002502432947194017
1582.6182451940463, 0.00025274572766659573
1566.9487576178674, 0.0002552731849432617
1551.434413483037, 0.0002578259167926943
1536.073676715878, 0.0002604041759606213
1520.8650264513644, 0.0002630082177202275
1505.8069568825392, 0.00026563829989742976
1490.897977111425, 0.00026829468289640406
1476.1366110014108, 0.0002709776297253681
1461.5213970311, 0.00027368740602262177
1447.050888149604, 0.00027642428008284797
1432.7236516332712, 0.00027918852288367645
1418.538268943833, 0.0002819804081125132
1404.4933355879534, 0.00028480021219363835
1390.5874609781717, 0.0002876482143155747
1376.8192682952194, 0.0002905246964587305
1363.1873943517023, 0.0002934299434233178
1349.690489457131, 0.000296364242857551
1336.327217284288, 0.0002993278852861265
1323.0962547369186, 0.0003023211641389878
1309.9962918187312, 0.0003053443757803777
1297.0260315036944, 0.0003083978195381815
1284.1841896076182, 0.0003114817977335633
1271.4694946610082, 0.0003145966157108989
1258.8806877831764, 0.0003177425818680079
1246.4165225576003, 0.000320920007686688
1234.075764908515, 0.0003241292077635549
1221.8571929787279, 0.0003273704998411904
1209.7595970086415, 0.0003306442048396023
1197.781779216477, 0.0003339506468879983
1185.92255367968, 0.0003372901533568783
1174.180746217505, 0.0003406630548904471
1162.5551942747572, 0.0003440696854393516
1151.0447468066902, 0.00034751038229374515
1139.6482641650398, 0.0003509854861166826
1128.364617985188, 0.00035449534097784944
1117.1926910744435, 0.00035804029438762794
1106.1313773014292, 0.0003616206973315042
1095.1795814865636, 0.00036523690430481924
1084.3362192936272, 0.00036888927334786746
1073.6002171224031, 0.00037257816608134614
1062.9705120023793, 0.00037630394774215963
1052.4460514875043, 0.00038006698721958123
1042.0257935519844, 0.00038386765709177707
1031.7087064871132, 0.00038770633366269484
1021.493768799122, 0.0003915833969993218
1011.3799691080416, 0.000395499230969315
1001.3663060475659, 0.00039945422327900817
991.4517881659068, 0.00040344876551179826
981.6354338276305, 0.00040748325316691624
971.9162711164659, 0.0004115580856985854
962.2933377390751, 0.00041567366655557124
952.7656809297774, 0.00041983040322112695
943.3323573562152, 0.0004240287072533382
933.9924330259557, 0.00042826899432587157
924.7449831940156, 0.0004325516842691303
915.5890922713025, 0.0004368772011118216
906.5238537339629, 0.0004412459731229398
897.5483700336266, 0.0004456584328541692
888.6617525085413, 0.0004501150171827109
879.8631212955854, 0.000454616167354538
871.1516052431538, 0.0004591623290280834
862.5263418249048, 0.00046375395231836427
853.9864770543611, 0.0004683914918415479
845.5311654003575, 0.00047307540675996343
837.1595697033242, 0.00047780616082756307
828.8708610924002, 0.0004825842224358387
820.6642189033665, 0.0004874100646601971
812.5388305973927, 0.000492284165306799
804.4938916805869, 0.000497207006959867
796.5286056243434, 0.0005021790770294657
788.6421837864787, 0.0005072008677997603
780.8338453331471, 0.0005122728764777579
773.1028171615319, 0.0005173956052425355
765.4483338232988, 0.0005225695612949609
757.8696374488107, 0.0005277952569079105
750.3659776720898, 0.0005330732094769896
742.9366115565246, 0.0005384039415717595
735.5808035213114, 0.0005437879809874771
728.2978252686252, 0.0005492258607973519
721.0869557115101, 0.0005547181194053254
713.9474809024852, 0.0005602653005993787
706.8786939628566, 0.0005658679536053725
699.8798950127293, 0.0005715266331414262
692.9503911017122, 0.0005772418994728404
686.0894961403092, 0.0005830143184675688
679.2965308319893, 0.0005888444616522445
672.5708226059301, 0.0005947329062687669
665.9117055504257, 0.0006006802353314545
659.3185203469562, 0.0006066870376847691
652.7906142049071, 0.0006127539080616168
646.3273407969377, 0.000618881447142233
639.9280601949878, 0.0006250702616136554
633.5921388069186, 0.0006313209642297919
627.3189493137808, 0.0006376341738720899
621.1078706077037, 0.0006440105156108108
614.9582877303998, 0.0006504506207669189
608.869591812277, 0.000656955126974588
602.8411800121554, 0.0006635246782443339
596.8724554575796, 0.0006701599250267773
590.9628271857223, 0.0006768615242770451
585.1117100848736, 0.0006836301395198156
579.3185248365085, 0.0006904664409150137
573.5826978579292, 0.0006973711053241639
567.9036612454745, 0.0007043448163774055
562.2808527182915, 0.0007113882645411796
556.7137155626648, 0.0007185021471865915
551.2016985768959, 0.0007256871686584574
545.7442560167286, 0.0007329440403450419
540.3408475413155, 0.0007402734807484923
534.9909381597183, 0.0007476762155559772
529.693998177939, 0.000755152977711537
524.4495031464742, 0.0007627045074886523
519.2569338083903, 0.0007703315525635388
514.1157760479111, 0.0007780348680891743
509.025520839516, 0.000785815216770066
503.9856641975406, 0.0007936733689377667
498.9957071262778, 0.0008016101026271443
494.0551555705721, 0.0008096262036534158
489.1635203669031, 0.0008177224656899499
484.32031719495353, 0.0008258996903468494
479.52506652965695, 0.000834158687250318
474.7772935937197, 0.0008425002741228212
470.0765283106136, 0.0008509252768640494
465.42230525803325, 0.0008594345296326899
460.8141636218151, 0.0008680288749290168
456.251647150312, 0.000876709163678307
451.7343041092198, 0.00088547625531509
447.2616872368513, 0.0008943310178682409
442.83335369985275, 0.0009032743280469233
438.44886504935914, 0.0009123070713273926
434.1077871775833, 0.0009214301420406665
429.80969027483496, 0.0009306444434610732
425.5541487869653, 0.0009399508878956839
421.34074137323296, 0.0009493503967746408
417.1690508645871, 0.0009588439007423872
413.0386642223635, 0.000968432339749811
408.94917249738955, 0.0009781166631473092
404.9001707894946, 0.0009878978297787823
400.8912582074204, 0.0009977768080765702
396.9220378291291, 0.0010077545761573358
392.9921166625041, 0.0010178321219189092
389.10110560643966, 0.0010280104431380983
385.24861941231654, 0.0010382905475694792
381.43427664585795, 0.001048673453045174
377.6576996493643, 0.0010591601875756258
373.9185145043211, 0.001069751789451382
370.21635099437736, 0.0010804493073458957
366.5508425686905, 0.0010912538004193546
362.9216263056341, 0.0011021663384235482
359.32834287686546, 0.0011131880018077837
355.77063651174797, 0.0011243198818258616
352.24815496212665, 0.0011355630806441203
348.76054946745217, 0.0011469187114505615
345.3074747202497, 0.001158387898565067
341.88858883193035, 0.0011699717775507177
338.5035532989409, 0.001181671495326225
335.15203296924847, 0.0011934882102794871
331.83369600915694, 0.001205423092382282
328.5482138704524, 0.0012174773233061048
325.2952612578736, 0.001229652096539166
322.0745160969046, 0.0012419486175045576
318.8856595018857, 0.0012543681036796032
315.72837574444134, 0.0012669117847163992
312.6023522222191, 0.0012795809025635632
309.5072794279397, 0.0012923767115891988
306.4428509187522, 0.0013053004787050909
303.40876328589326, 0.0013183534834921417
300.40471612464677, 0.0013315370183270632
297.4304120046008, 0.0013448523885103338
294.48555644019876, 0.0013583009123954372
291.56985786158293, 0.0013718839215193916
288.6830275857257, 0.0013856027607345855
285.8247797878472, 0.0013994587883419314
282.99483147311605, 0.0014134533762253506
280.1929024486298, 0.001427587909987604
277.41871529567305, 0.00144186378908748
274.6719953422505, 0.001456282426978355
271.95247063589164, 0.0014708452512481385
269.25987191672436, 0.00148555370376062
266.59393259081617, 0.0015004092407982263
263.9543887037784, 0.0015154133332062085
261.3409789146321, 0.0015305674665382705
258.75344446993273, 0.0015458731412036533
256.19152917815126, 0.0015613318726156898
253.65497938430818, 0.0015769451913418466
251.14354394485957, 0.001592714643255265
248.65697420283126, 0.0016086417896878178
246.19502396319928, 0.001624728207584696
243.75744946851415, 0.0016409754896605428
241.34400937476647, 0.0016573852445571483
238.95446472749154, 0.00167395909700272
236.58857893811043, 0.0016906986879727472
234.24611776050537, 0.0017076056748524747
231.9268492678271, 0.0017246817316009994
229.63054382953177, 0.0017419285489170095
227.3569740886453, 0.0017593478344061796
225.10591493925278, 0.0017769413127502415
222.87714350421066, 0.001794710725877744
220.67043911307985, 0.0018126578331365214
218.48558328027707, 0.0018307844114678867
216.32235968344264, 0.0018490922555825656
214.18055414202243, 0.0018675831781383913
212.0599545960618, 0.0018862590099197752
209.9603510852097, 0.001905121600018973
207.8815357279304, 0.0019241728160191627
205.8233027009212, 0.0019434145441793542
203.78544821873388, 0.0019628486896211476
201.7677705135979, 0.001982477176517359
199.77006981544343, 0.002002301948282533
197.79214833212222, 0.002022324967765358
195.83381022982397, 0.002042548217443012
193.89486161368708, 0.002062973699617442
191.97511050860106, 0.0020836034366136166
190.0743668401991, 0.0021044394709797526
188.19244241603872, 0.00212548386568955
186.329150906969, 0.0021467387043464458
184.4843078286822, 0.00216820609138991
182.6577305234477, 0.0021898881523038094
180.84923814202745, 0.0022117870338268474
179.05865162576976, 0.0022339049041651157
177.28579368888094, 0.0022562439532067668
175.53048880087223, 0.0022788063927388345
173.79256316918043, 0.0023015944566662228
172.07184472196082, 0.002324610401232885
170.36816309105032, 0.002347856505245214
168.6813495950993, 0.002371335070297666
167.01123722287062, 0.0023950484210006426
165.35766061670358, 0.002418998905210649
163.72045605614215, 0.0024431888942627556
162.0994614417249, 0.002467620783205383
160.49451627893555, 0.002492296991037437
158.9054616623124, 0.0025172199609478116
157.33214025971526, 0.0025423921605572898
155.7743962967478, 0.0025678160821628626
154.23207554133444, 0.002593494242984491
152.70502528844995, 0.002619429185414336
151.19309434499993, 0.0026456234772684797
149.6961330148514, 0.0026720797120411647
148.2139930840113, 0.0026988005091615765
146.74652780595176, 0.0027257885142531924
145.29359188708094, 0.0027530463993957243
143.85504147235736, 0.0027805768633896817
142.4307341310469, 0.0028083826320235783
141.0205288426207, 0.002836466458343814
139.62428598279277, 0.002864831122927252
138.24186730969583, 0.0028934794341565245
136.8731359501939, 0.0029224142284980897
135.51795638633058, 0.002951638370783071
134.17619444191146, 0.0029811547544909014
132.8477172692193, 0.0030109663020358103
131.53239333586066, 0.0030410759650561685
130.23009241174321, 0.0030714867247067304
128.94068555618142, 0.003102201591953798
127.6640451051301, 0.003133223607873336
126.40004465854466, 0.003164555843952069
125.148559067866, 0.0031962014023915897
123.9094644236297, 0.003228163416415506
122.68263804319771, 0.003260445050579661
121.4679584586116, 0.0032930495010854576
120.26530540456594, 0.0033259799960963124
119.07455980650091, 0.0033592397960572756
117.89560376881279, 0.0033928321940178484
116.72832056318099, 0.003426760515958027
115.57259461701088, 0.003461028121117607
114.42831150199098, 0.003495638402328783
113.29535792276333, 0.003530594786352071
112.17362170570628, 0.0035659007342155914
111.062991787828, 0.0036015597415577473
109.96335820577029, 0.0036375753389733248
108.87461208492108, 0.003673951092363058
107.79664562863474, 0.003710690603286689
106.72935210755914, 0.003747797509319556
105.67262584906845, 0.0037852754844127515
104.62636222680045, 0.003823128239256879
103.59045765029748, 0.0038613595216494476
102.56480955474998, 0.003899973116865942
101.54931639084155, 0.0039389728480346015
100.54387761469461, 0.003978362576514948
99.54839367791546, 0.004018146202280097
98.56276601773806, 0.004058327664302899
97.58689704726541, 0.004098910940945928
96.62069014580732, 0.004139900050355388
95.66404964931418, 0.0041812990508589415
94.71688084090512, 0.004223112041367531
93.77908994149021, 0.004265343161781207
92.85058410048536, 0.004307996593399019
91.93127138661916, 0.004351076559333009
91.02106077883084, 0.0043945873249263395
90.11986215725825, 0.004438533198175603
89.2275862943151, 0.00448291853015736
88.34414484585655, 0.004527747715458933
87.46945034243222, 0.004573025192613522
86.60341618062597, 0.004618755444539657
85.74595661448116, 0.004664942998985054
84.89698674701106, 0.004711592428974904
84.05642252179311, 0.004758708353264653
83.22418071464664, 0.0048062954367973
82.40017892539271, 0.004854358391165273
81.58433556969575, 0.004902901975076926
80.7765698709859, 0.004951930994827695
79.97680185246129, 0.005001450304775972
79.18495232916959, 0.005051464807823732
78.4009429001679, 0.005101979455901969
77.6246959407603, 0.005152999250460989
76.85613459481219, 0.0052045292429655984
76.09518276714078, 0.005256574535395254
75.34176511598098, 0.005309140280749206
74.59580704552572, 0.0053622316835566985
73.85723469854032, 0.0054158540003922655
73.12597494904982, 0.0054700125403961885
72.40195539509882, 0.0055247126658001505
71.68510435158299, 0.005579959792458152
70.97535084315147, 0.005635759390382734
70.27262459717969, 0.005692116984286561
69.57685603681156, 0.005749038154129427
68.88797627407085, 0.005806528535670721
68.20591710304045, 0.005864593821027429
67.53061099310935, 0.005923239759237703
66.8619910822865, 0.00598247215683008
66.19999117058067, 0.006042296878398381
65.54454571344623, 0.0061027198471823646
64.89558981529328, 0.0061637470456541886
64.25305922306266, 0.00622538451611073
63.61689031986401, 0.006287638361271838
62.987020118677236, 0.006350514744884557
62.36338625611607, 0.0064140198923334025
61.74592698625354, 0.006478160091256737
61.13458117450845, 0.0065429416921693045
60.52928829159252, 0.0066083711090909976
59.92998840751735, 0.0066744548201819074
59.33662218566074, 0.006741199368383727
58.74913087689182, 0.006808611362067564
58.16745631375428, 0.00687669747568824
57.59154090470721, 0.006945464450445122
57.02132762842297, 0.007014919094949574
56.45676002814156, 0.00708506828589907
55.89778220608075, 0.007155918968758061
55.344338817901736, 0.007227478158445641
54.796375067229434, 0.007299752940030098
54.25383670022716, 0.007372750469430399
53.716670000224916, 0.007446477974124703
53.1848217824009, 0.00752094275386595
52.658239388515746, 0.007596152181404609
52.13687068169876, 0.0076721137032186556
51.6206640412859, 0.0077488348402508424
51.10956835770881, 0.007826323188653351
50.603533027434466, 0.007904586420539884
50.10250794795491, 0.007983632284745284
49.606443512826644, 0.008063468607592737
49.11529060675905, 0.008144103293668666
48.62900060075153, 0.008225544326605352
48.147525347278744, 0.008307799769871406
47.67081717552351, 0.00839087776757012
47.19882888665694, 0.00847478654524582
46.731513749165295, 0.008559534410698278
46.26882549422306, 0.008645129754805261
45.810718311111934, 0.008731581052353315
45.35714684268508, 0.008818896862876848
44.90806618087632, 0.008907085831505616
44.463431862253785, 0.008996156689820673
44.023199863617606, 0.00908611825671888
43.5873265976412, 0.009176979439286068
43.15576890855564, 0.009268749233678928
42.72848406787688, 0.009361436726015717
42.305429770175124, 0.009455051093275874
41.88656412888626, 0.009549601604208632
41.47184567216462, 0.009645097620250719
41.061233338776844, 0.009741548596453226
40.65468647403648, 0.009838964082417759
40.25216482577869, 0.009937353723241936
39.85362854037494, 0.010036727260474356
39.459038158787074, 0.0101370945330791
39.06835461266047, 0.01023846547840989
38.68153922045591, 0.01034085013319399
38.29855368361971, 0.01044425863452593
37.9193600827918, 0.010548701220871188
37.54392087405128, 0.010654188233079901
37.172198885199286, 0.0107607301154107
36.8041573120785, 0.010868337416564807
36.43975971492921, 0.010977020790730456
36.0789700147814, 0.01108679099863776
35.72175248988257, 0.011197658908624139
35.36807177216096, 0.01130963549771038
35.01789284372372, 0.011422731852687483
34.67118103338982, 0.011536959171214358
34.32790201325725, 0.011652328762926501
33.98802179530421, 0.011768852050555766
33.65150672802397, 0.011886540571061324
33.31832349309304, 0.012005405976771938
32.98843910207231, 0.012125460036539658
32.6618208931409, 0.012246714636905055
32.33843652786228, 0.012369181783274105
32.018253987982455, 0.012492873601106846
31.701241572259857, 0.012617802337117914
31.38736789332659, 0.012743980360489094
31.076601874580785, 0.012871420164093985
30.768912747109685, 0.013000134365734925
30.46427004664325, 0.013130135709392275
30.162643610537874, 0.013261437066486198
29.864003574789976, 0.013394051437151059
29.56832037107918, 0.01352799195152257
29.275564723840773, 0.013663271871037797
28.9857076473671, 0.013799904589748176
28.69872044293772, 0.013937903635645657
28.414574695977944, 0.014077282672002114
28.133242273245486, 0.014218055498722135
27.854695320045035, 0.014360236053709357
27.578906257470337, 0.01450383841424645
27.3058477796736, 0.014648876798388914
27.03549285116198, 0.014795365566372802
26.767814704120774, 0.01494331922203653
26.502786835763143, 0.015092752414256895
26.240383005706082, 0.015243679938399464
25.980577233372358, 0.015396116737783459
25.723343795418174, 0.015550077905161294
25.468657223186312, 0.015705578684212906
25.216492300184466, 0.015862634471055036
24.966824059588582, 0.016021260815765586
24.71962778177087, 0.016181473423923242
24.47487899185235, 0.016343288158162474
24.232553457279554, 0.0165067210397441
23.992627185425302, 0.01667178825014154
23.755076421213168, 0.016838506132642955
23.519877644765515, 0.017006891193969385
23.287007569074767, 0.017176960105909078
23.05644313769779, 0.01734872970696817
22.82816152247306, 0.01752221700403785
22.602140121260454, 0.01769743917407823
22.37835655570342, 0.017874413565819012
22.156788669013284, 0.018053157701477203
21.937414523775526, 0.018233689278491977
21.72021239977775, 0.018416026171276897
21.505160791859158, 0.018600186432989666
21.292238407781344, 0.018786188297319564
21.081424166120144, 0.01897405018029276
20.87269719417836, 0.019163790682095685
20.666036825919168, 0.019355428588916642
20.46142259991997, 0.019548982874805807
20.258834257346503, 0.019744472703553867
20.058251739947035, 0.019941917430589404
19.85965518806637, 0.0201413366048953
19.663024938679573, 0.020342749970944252
19.468341523445122, 0.020546177470653695
19.27558566677735, 0.02075163924536023
19.08473828393797, 0.020959155637813833
18.895780479146506, 0.021168747194191973
18.70869354370941, 0.021380434666133895
18.52345895416773, 0.021594239012795235
18.3400583704631, 0.021810181402923186
18.158473634121883, 0.022028283216952417
17.97868676645731, 0.02224856604912194
17.800679966789417, 0.02247105170961316
17.62443561068259, 0.02269576222670929
17.449936248200583, 0.022922719848976383
17.277164602178797, 0.023151947047466148
17.10610356651366, 0.02338346651794081
16.93673620446897, 0.023617301183120217
16.76904574699898, 0.02385347419495142
16.6030155910881, 0.024092008936900933
16.438629298107028, 0.024332929026269944
16.275870592185175, 0.024576258316532644
16.114723358599186, 0.02482202089969797
15.955171642177412, 0.02507024110869495
15.797199645720207, 0.0253209435197819
15.640791728435849, 0.02557415295497972
15.48593240439193, 0.025829894484529516
15.332606340982109, 0.026088193429374813
15.180798357408028, 0.02634907536366856
15.030493423176265, 0.026612566117305246
14.881676656610164, 0.0268786917784783
14.7343333233764, 0.02714747869626308
14.588448835026139, 0.027418953483225712
14.444008747550633, 0.027693143018057968
14.30099875995112, 0.027970074448238548
14.159404712822893, 0.028249775192720934
14.019212586953358, 0.028532272944648145
13.880408501934017, 0.02881759567409463
13.742978714786156, 0.029105771630835574
13.606909618600154, 0.02939682934714393
13.47218774118827, 0.02969079764061537
13.338799743750762, 0.029987705617021524
13.20673241955521, 0.03028758267319174
13.075972692628921, 0.030590458499923655
12.94650761646428, 0.03089636308492289
12.81832437273691, 0.03120532671577212
12.691410270036545, 0.03151737998292984
12.56575274261044, 0.03183255378275914
12.441339349119248, 0.03215087932058673
12.318157771405197, 0.0324723881137926
12.196195813272471, 0.032797111994930524
12.075441399279676, 0.03312508311487983
11.955882573544233, 0.03345633394602863
11.837507498558645, 0.03379089728548892
11.720304454018459, 0.03412880625834381
11.60426183566184, 0.03447009432092725
11.489368154120635, 0.03481479526413652
11.375612033782804, 0.03516294321677789
11.262982211666143, 0.03551457264894567
11.15146753630311, 0.03586971837543513
11.041056966636745, 0.03622841555918948
10.93173957092747, 0.03659069971478138
10.82350452567076, 0.03695660671192919
10.716341114525505, 0.03732617277904848
10.610238727252975, 0.03769943450683897
10.505186858666313, 0.03807642885190736
10.401175107590408, 0.038457193140426435
10.298193175832086, 0.0388417650718307
10.196230867160482, 0.03923018272254901
10.095278086297506, 0.039622484549774496
9.995324837918323, 0.040018709395272245
9.896361225661705, 0.04041889648922497
9.798377451150204, 0.04082308545411722
9.701363813020004, 0.04123131630865839
9.6053107059604, 0.04164362947174497
9.510208619762773, 0.04206006576646242
9.416048138378983, 0.042480666424127046
9.322819938989092, 0.04290547308836832
9.230514791078308, 0.043334527819252004
9.139123555523078, 0.043767873097444523
9.048637183686216, 0.04420555182841897
8.959046716521005, 0.04464760734670316
8.870343283684162, 0.04509408342017019
8.782518102657587, 0.045545024254371895
8.695562477878799, 0.04600047449691561
8.609467799879999, 0.04646047924188477
8.524225544435643, 0.046925084034303614
8.439827271718459, 0.04739433487464665
8.35626462546382, 0.04786827822339312
8.273529332142395, 0.04834696100562705
8.191613200140987, 0.04883043061568332
8.110508118951472, 0.04931873492184015
8.030206058367794, 0.04981192227105855
7.950699067690885, 0.050310041493769136
7.87197927494147, 0.05081314190870683
7.7940388860806635, 0.0513212733277939
7.716870184238281, 0.051834486061071834
7.640465528948793, 0.05235283092168255
7.564817355394845, 0.05287635923089938
7.489918173658261, 0.053405122823208376
7.415760567978476, 0.05393917405144046
7.342337196018293, 0.05447856579195487
7.269640788136924, 0.05502335144987442
7.197664146670221, 0.05557358496437317
7.1264001452180405, 0.0561293208140169
7.055841727938654, 0.05669061402215707
6.985981908850153, 0.05725752016237864
6.916813771138765, 0.05783009536400242
6.8483304664740245, 0.05840839631764245
6.7805252143307175, 0.058992480280818875
6.713391301317542, 0.05958240508362706
6.646922080512418, 0.060178229134463336
6.5811109708043745, 0.06078001142580797
6.515951456241955, 0.06138781154006605
6.451437085388074, 0.06200168965546671
6.387561470681262, 0.06262170655202137
6.324318287803229, 0.06324792361754158
6.261701275052702, 0.063880402853717
6.199704232725448, 0.06451920688225417
6.138321022500443, 0.06516439895107672
6.077545566832121, 0.06581604294058749
6.017371848348635, 0.06647420336999336
5.9577939092560745, 0.06713894540369329
5.898805850748589, 0.06781033485773022
5.840401832424345, 0.06848843820630753
5.782576071707273, 0.0691733225883706
5.725322843274528, 0.0698650558142543
5.668636478489632, 0.07056370637239684
5.61251136484122, 0.0712693434361208
5.556941945387346, 0.07198203687048202
5.501922718205293, 0.07270185723918685
5.447448235846824, 0.07342887581157871
5.393513104798836, 0.0741631645696945
5.340111984949342, 0.07490479621539145
5.287239589058755, 0.07565384417754537
5.234890682236391, 0.07641038261932082
5.183060081422169, 0.07717448644551403
5.131742654873435, 0.07794623130996917
5.080933321656866, 0.07872569362306886
5.030627051145411, 0.07951295055929955
4.98081886252021, 0.08030808006489254
4.931503824277436, 0.08111116086554146
4.882677053740036, 0.08192227247419688
4.834333716574292, 0.08274149519893885
4.78646902631118, 0.08356891015092824
4.739078243872456, 0.08440459925243753
4.692156677101441, 0.0852486452449619
4.645699680298457, 0.08610113169741151
4.599702653760848, 0.08696214301438564
4.554161043327572, 0.08783176444452949
4.50907033992829, 0.08871008208897478
4.464426079136921, 0.08959718290986453
4.420223840729625, 0.09049315473896317
4.376459248247153, 0.0913980862863528
4.333127968561538, 0.09231206714921633
4.290225711447067, 0.0932351878207085
4.247748229155512, 0.09416753969891559
4.205691315995556, 0.09510921509590474
4.164050807916392, 0.09606030724686379
4.122822582095438, 0.09702091031933242
4.082002556530137, 0.09799111942252575
4.041586689633799, 0.09897103061675101
4.001570979835444, 0.09996074092291853
3.961951465183607, 0.10096034833214772
3.922724222954067, 0.1019699518154692
3.883885369261452, 0.1029896513336239
3.845431058674705, 0.10401954784696013
3.8073574838363413, 0.10505974332542974
3.7696608750854868, 0.10611034075868403
3.73233750008464, 0.10717144416627088
3.6953836634501385, 0.10824315860793358
3.658795706386276, 0.10932559019401292
3.6225700063230453, 0.11041884609595305
3.5867029765574707, 0.11152303455691258
3.551191065898486, 0.1126382649024817
3.5160307583153325, 0.11376464755150652
3.4812185725894382, 0.11490229402702158
3.446751061969741, 0.1160513169672918
3.4126248138314264, 0.11721183013696472
3.378836449338046, 0.11838394843833437
3.345382623106976, 0.11956778792271772
3.312260022878194, 0.1207634658019449
3.279465369186331, 0.12197110045996434
3.2469954150359714, 0.12319081146456398
3.2148469455801694, 0.12442271957920963
3.183016777802148, 0.12566694677500173
3.151501760200146, 0.12692361624275175
3.120298772475392, 0.12819285240517928
3.0894047252231607, 0.12947478092923106
3.0588165596268917, 0.13076952873852338
3.0285312471553385, 0.1320772240259086
2.998545789262711, 0.1333979962661677
2.9688572170917933, 0.13473197622882938
2.939462591179993, 0.13607929599111768
2.91035900116831, 0.13744008895102885
2.8815435655131783, 0.13881448984053915
2.8530134312011666, 0.14020263473894454
2.8247657734665013, 0.141604661086334
2.7967977955113876, 0.14302070769719732
2.7691067282290964, 0.1444509147741693
2.7416898299297987, 0.145895423921911
2.714544386069108, 0.1473543781611301
2.6876677089793146, 0.1488279219427414
2.661057137603282, 0.1503162011621688
2.6347100372309726, 0.15181936317379047
2.6086237992385866, 0.15333755680552838
2.582795840830284, 0.15487093237358365
2.5572236047824592, 0.15641964169731948
2.531904559190554, 0.15798383811429267
2.5068361972183704, 0.1595636764954356
2.4820160368498714, 0.16115931326038996
2.4574416206434373, 0.16277090639299385
2.4331105154885515, 0.1643986154569238
2.4090203123649028, 0.16604260161149303
2.385168626103864, 0.16770302762760797
2.3615530951523405, 0.16938005790388405
2.338171381338951, 0.1710738584829229
2.3150211696425256, 0.17278459706775212
2.292100167962897, 0.17451244303842964
2.2694061068939573, 0.17625756746881394
2.2469367394989677, 0.17802014314350206
2.2246898410880864, 0.1798003445749371
2.2026632089981053, 0.18159834802068647
2.1808546623743617, 0.18341433150089334
2.1592620419548134, 0.1852484748159023
2.137883209856251, 0.1871009595640613
2.1167160493626245, 0.18897196915970194
2.09575846471547, 0.19086168885129895
2.075008380906406, 0.19277030573981194
2.0544637434716893, 0.19469800879721005
2.034122518288801, 0.19664498888518214
2.0139826913750505, 0.19861143877403398
1.9940422686881687, 0.20059755316177433
1.97429927592888, 0.20260352869339207
1.9547517583454257, 0.204629563980326
1.9353977805400253, 0.20667585962012927
1.9162354262772527, 0.20874261821633056
1.8972627982943095, 0.21083004439849387
1.878478018113178, 0.2129383448424788
1.8598792258546315, 0.2150677282909036
1.8414645800540905, 0.21721840557381264
1.8232322574792976, 0.21939058962955077
1.8051804529497997, 0.22158449552584628
1.7873073791582172, 0.22380034048110475
1.7696112664932844, 0.22603834388591582
1.752090362864638, 0.22829872732477496
1.7347429335293447, 0.2305817145980227
1.7175672609201433, 0.23288753174400292
1.7005616444753895, 0.23521640706144295
1.6837244004706826, 0.23756857113205737
1.667053861852161, 0.23994425684337795
1.6505483780714465, 0.24234369941181172
1.6342063149222243, 0.24476713640592984
1.61802605437844, 0.24721480776998914
1.602005994434099, 0.24968695584768902
1.5861445489446524, 0.2521838254061659
1.570440147469953, 0.25470566366022757
1.5548912351187654, 0.25725272029682983
1.5394962723948171, 0.25982524749979813
1.5242537350443732, 0.26242349997479614
1.5091621139053202, 0.2650477349745441
1.4942199147577429, 0.26769821232428953
1.4794256581759828, 0.27037519444753244
1.4647778793821613, 0.27307894639200775
1.45027512810115, 0.27580973585592783
1.4359159684169798, 0.27856783321448714
1.421698978630673, 0.281353511546632
1.407622751119478, 0.28416704666209835
1.3936858921975033, 0.28700871712871934
1.379887021977726, 0.2898788043000065
1.3662247742353721, 0.2927775923430066
1.3526977962726456, 0.2957053682664367
1.3393047487847978, 0.29866242194910103
1.3260443057275224, 0.30164904616859206
1.3129151541856656, 0.304665536630278
1.2999159942432335, 0.3077121919965808
1.2870455388546866, 0.3107893139165466
1.2743025137175115, 0.31389720705571206
1.2616856571460509, 0.3170361791262692
1.249193719946585, 0.32020654091753187
1.2368254652936486, 0.3234086063267072
1.2245796686075727, 0.3266426923899743
1.2124551174332403, 0.329909119313874
1.20045061132004, 0.33320821050701277
1.1885649617030098, 0.3365402926120829
1.1767969917851582, 0.3399056955382037
1.1651455364209486, 0.3433047524935858
1.1536094420009393, 0.3467378000185216
1.1421875663375638, 0.3502051780187068
1.1308787785520433, 0.3537072297988939
1.1196819589624192, 0.35724430209688285
1.1085959989726921, 0.36081674511785167
1.0976198009630616, 0.3644249125690302
1.086752278181249, 0.3680691616947205
1.0759923546349, 0.3717498533116677
1.0653389649850495, 0.3754673518447844
1.0547910544406431, 0.37922202536323224
1.0443475786541019, 0.3830142456168646
1.0340075036179228, 0.38684438807303323
1.0237698055622997, 0.39071283195376355
1.0136334708537622, 0.3946199602733012
1.003597495894814, 0.3985661598760342
0.9936608870245682, 0.40255182147479457
0.9838226604203646, 0.4065773396895425
0.974081842000361, 0.41064311308643797
0.96443746732709, 0.41474954421730237
0.9548885815119703, 0.4188970396594754
0.9454342391207626, 0.42308601005607016
0.9360735040799629, 0.4273168701566309
0.9268054495841217, 0.4315900388581972
0.917629158004081, 0.4359059392467792
0.9085437207961198, 0.44026499863924695
0.8995482384119998, 0.4446676486256394
0.8906418202099008, 0.4491143251118958
0.8818235843662383, 0.4536054683630148
0.8730926577883548, 0.45814152304664496
0.864448176028074, 0.4627229382771114
0.8558892831961129, 0.4673501676598825
0.8474151318773394, 0.4720236693364814
0.8390248830468707, 0.4767439060298462
0.8307177059870007, 0.48151134509014465
0.8224927782049511, 0.4863264585410461
0.8143492853514368, 0.4911897231264566
0.8062864211400365, 0.49610162035772115
0.7983033872673628, 0.5010626365612983
0.7903993933340225, 0.5060732629269113
0.782573656766359, 0.5111339955561804
0.7748254027389694, 0.5162453355117422
0.7671538640979894, 0.5214077888668597
0.759558281285138, 0.5266218667555282
0.752037902262513, 0.5318880854230835
0.7445919824381316, 0.5372069662773143
0.7372197845922095, 0.5425790359400875
0.7299205788041679, 0.5480048262994883
0.7226936423803643, 0.5534848745624832
0.7155382597825389, 0.559019723308108
0.7084537225569693, 0.5646099205411891
0.701439329264326, 0.570256019746601
0.6944943854102237, 0.5759585799440671
0.6876182033764591, 0.5817181657435078
0.6808101023529297, 0.5875353474009428
0.6740694082702274, 0.5934107008749523
0.6673954537328984, 0.5993448078837018
0.6607875779533647, 0.6053382559625389
0.6542451266864997, 0.6113916385221643
0.6477674521648512, 0.6175055549073859
0.6413539130345062, 0.6236806104564597
0.6350038742915903, 0.6299174165610243
0.6287167072193964, 0.6362165907266345
0.622491789326135, 0.6425787566339008
0.616328504283302, 0.6490045442002399
0.6102262418646555, 0.6554945896422423
0.6041843978857975, 0.6620495355386647
0.5982023741443538, 0.6686700308940514
0.5922795783607465, 0.6753567312029919
0.5864154241195509, 0.6821102985150218
0.5806093308114365, 0.6889314015001721
0.5748607235756797, 0.6958207155151738
0.5691690332432473, 0.7027789226703255
0.5635336962804429, 0.7098067118970287
0.5579541547331117, 0.716904779015999
0.5524298561713977, 0.7240738268061591
0.5469602536350473, 0.7313145650742207
0.5415448055792547, 0.7386277107249629
0.5361829758210442, 0.7460139878322125
0.5308742334861825, 0.7534741277105347
0.5256180529566162, 0.7610088689876401
0.5204139138184318, 0.7686189576775165
0.5152613008103286, 0.7763051472542917
0.5101597037726026, 0.7840681987268346
0.5051086175966362, 0.791908880714103
0.5001075421748873, 0.799827969521244
0.49515598235137354, 0.8078262492164565
0.4902534478726471, 0.8159045117086211
0.4853994533392545, 0.8240635568257073
0.48059351815767776, 0.8323041923939644
0.47583516649275026, 0.840627234317904
0.4711239272205448, 0.849033506661083
0.46645933388172756, 0.8575238417276938
0.46184092463537385, 0.8660990801449707
0.4572682422132414, 0.8747600709464204
0.4527408338744965, 0.8835076716558846
0.4482582513608876, 0.8923427483724434
0.443820050852364, 0.9012661758561679
0.43942579292313266, 0.9102788376147295
0.43507504249815115, 0.9193816259908768
0.4307673688100506, 0.9285754422507856
0.42650234535648573, 0.9378611966732935
0.42227954985790667, 0.9472398086400264
0.41809856421574915, 0.9567122067264268
0.41395897447103874, 0.966279328793691
0.4098603707634047, 0.975942122081628
0.4058023472904997, 0.9857015433024443
0.4017845022678215, 0.9955585587354687
0.4, 1
*Contact Pair, interaction=INTERFACE, type=NODE TO SURFACE, adjust=0
S_FUEL_RIGHT, S_CLAD_LEFT
*Amplitude, name=POWER, time=TOTAL TIME
0, 0, 20, 1
*Step, name=PCMI, nlgeom=NO, inc=2560
*Coupled Temperature-Displacement
0.0078125, 20, 0.0078125, 0.0078125
*Controls, parameters=FIELD, field=DISPLACEMENT
1e-10, 1e-10, , , , 1e-10
*Controls, parameters=FIELD, field=TEMPERATURE
1e-7, 1e-7, , , , 1e-10
*Boundary
FUEL_LEFT, 1, 1, 0
CLAD_BOTTOM, 2, 2, 0
CLAD_RIGHT, 11, 11, 600
FUEL_BOTTOM, 2, 2, 0
*Dflux, amplitude=POWER
FUEL, BF, 2e8
*Output, field, frequency=1
*Node Output
NT, U, RF, RFL
*Element Output, directions=YES
S, EE, PE, PEEQ, CE, CEEQ, COORD, IVOL, HFL
*Contact Output
CSTRESS, CDISP, CFORCE, HFL
*Output, history, frequency=0
*End Step
