*Heading
** small original axisymmetric PCMI path, CAX8T.
*Preprint, echo=NO, model=NO, history=NO, contact=NO
*Include, input=b13_small_cax8t_mesh.inc
*Material, name=FUEL
*Elastic
2e11, 0.316
*Expansion, zero=600
1e-5
*Density
10970
*Specific Heat
300
*Conductivity
8.258, 500
8.227529880478087, 502
8.197301587301586, 504
8.167312252964427, 506
8.13755905511811, 508
8.108039215686274, 510
8.07875, 512
8.049688715953307, 514
8.020852713178295, 516
7.992239382239383, 518
7.963846153846154, 520
7.935670498084291, 522
7.907709923664123, 524
7.879961977186312, 526
7.8524242424242425, 528
7.825094339622642, 530
7.797969924812031, 532
7.771048689138577, 534
7.744328358208955, 536
7.717806691449814, 538
7.691481481481482, 540
7.665350553505536, 542
7.639411764705883, 544
7.613663003663004, 546
7.588102189781022, 548
7.562727272727273, 550
7.537536231884058, 552
7.512527075812275, 554
7.487697841726619, 556
7.463046594982079, 558
7.438571428571429, 560
7.414270462633453, 562
7.390141843971631, 564
7.366183745583039, 566
7.342394366197183, 568
7.318771929824562, 570
7.295314685314685, 572
7.272020905923346, 574
7.24888888888889, 576
7.2259169550173015, 578
7.203103448275862, 580
7.180446735395189, 582
7.157945205479453, 584
7.135597269624574, 586
7.113401360544218, 588
7.09135593220339, 590
7.06945945945946, 592
7.047710437710438, 594
7.026107382550336, 596
7.004648829431439, 598
6.983333333333333, 600
6.962159468438538, 602
6.94112582781457, 604
6.9202310231023105, 606
6.899473684210527, 608
6.878852459016394, 610
6.858366013071896, 612
6.838013029315961, 614
6.817792207792208, 616
6.797702265372169, 618
6.7777419354838715, 620
6.757909967845659, 622
6.738205128205129, 624
6.718626198083068, 626
6.699171974522294, 628
6.67984126984127, 630
6.660632911392406, 632
6.641545741324921, 634
6.622578616352202, 636
6.6037304075235115, 638
6.585, 640
6.566386292834891, 642
6.547888198757764, 644
6.529504643962849, 646
6.5112345679012344, 648
6.493076923076924, 650
6.475030674846626, 652
6.457094801223242, 654
6.439268292682927, 656
6.421550151975684, 658
6.403939393939394, 660
6.386435045317221, 662
6.369036144578313, 664
6.351741741741742, 666
6.334550898203593, 668
6.317462686567165, 670
6.300476190476191, 672
6.2835905044510385, 674
6.2668047337278106, 676
6.250117994100295, 678
6.233529411764706, 680
6.217038123167156, 682
6.200643274853801, 684
6.184344023323615, 686
6.168139534883721, 688
6.152028985507247, 690
6.136011560693642, 692
6.120086455331412, 694
6.104252873563219, 696
6.088510028653295, 698
6.072857142857143, 700
6.057293447293447, 702
6.041818181818182, 704
6.02643059490085, 706
6.011129943502826, 708
5.995915492957747, 710
5.980786516853933, 712
5.9657422969187675, 714
5.950782122905029, 716
5.935905292479109, 718
5.921111111111111, 720
5.906398891966759, 722
5.891767955801106, 724
5.877217630853995, 726
5.862747252747253, 728
5.848356164383562, 730
5.834043715846994, 732
5.819809264305177, 734
5.805652173913044, 736
5.791571815718157, 738
5.7775675675675675, 740
5.763638814016173, 742
5.749784946236559, 744
5.736005361930295, 746
5.722299465240642, 748
5.708666666666667, 750
5.695106382978723, 752
5.681618037135279, 754
5.668201058201059, 756
5.654854881266491, 758
5.641578947368421, 760
5.628372703412074, 762
5.615235602094241, 764
5.602167101827677, 766
5.589166666666667, 768
5.576233766233766, 770
5.5633678756476685, 772
5.550568475452197, 774
5.537835051546392, 776
5.525167095115681, 778
5.512564102564103, 780
5.50002557544757, 782
5.487551020408164, 784
5.4751399491094155, 786
5.462791878172589, 788
5.450506329113924, 790
5.438282828282828, 792
5.426120906801008, 794
5.414020100502513, 796
5.401979949874687, 798
5.390000000000001, 800
5.378079800498753, 802
5.366218905472637, 804
5.354416873449132, 806
5.342673267326733, 808
5.330987654320988, 810
5.31935960591133, 812
5.307788697788698, 814
5.296274509803922, 816
5.2848166259168705, 818
5.2734146341463415, 820
5.262068126520681, 822
5.250776699029126, 824
5.2395399515738506, 826
5.228357487922706, 828
5.217228915662651, 830
5.206153846153846, 832
5.195131894484413, 834
5.184162679425838, 836
5.1732458233890215, 838
5.1623809523809525, 840
5.151567695961996, 842
5.140805687203792, 844
5.130094562647755, 846
5.119433962264151, 848
5.108823529411765, 850
5.098262910798122, 852
5.087751756440281, 854
5.077289719626169, 856
5.066876456876457, 858
5.0565116279069775, 860
5.046194895591648, 862
5.035925925925926, 864
5.025704387990762, 866
5.015529953917051, 868
5.005402298850575, 870
4.995321100917431, 872
4.985286041189932, 874
4.975296803652968, 876
4.965353075170843, 878
4.955454545454546, 880
4.945600907029479, 882
4.93579185520362, 884
4.926027088036117, 886
4.916306306306307, 888
4.906629213483146, 890
4.8969955156950675, 892
4.887404921700224, 894
4.877857142857144, 896
4.8683518930957685, 898
4.858888888888889, 900
4.849467849223947, 902
4.8400884955752215, 904
4.83075055187638, 906
4.821453744493392, 908
4.812197802197803, 910
4.802982456140351, 912
4.7938074398249455, 914
4.78467248908297, 916
4.775577342047931, 918
4.766521739130435, 920
4.757505422993493, 922
4.748528138528139, 924
4.739589632829374, 926
4.730689655172414, 928
4.721827956989248, 930
4.713004291845494, 932
4.704218415417559, 934
4.6954700854700855, 936
4.686759061833689, 938
4.678085106382979, 940
4.669447983014862, 942
4.660847457627119, 944
4.6522832980972515, 946
4.643755274261603, 948
4.635263157894737, 950
4.626806722689076, 952
4.618385744234801, 954
4.61, 956
4.601649269311065, 958
4.593333333333334, 960
4.585051975051975, 962
4.5768049792531125, 964
4.568592132505176, 966
4.560413223140496, 968
4.552268041237114, 970
4.544156378600823, 972
4.536078028747434, 974
4.528032786885246, 976
4.520020449897751, 978
4.512040816326531, 980
4.504093686354379, 982
4.496178861788618, 984
4.4882961460446245, 986
4.480445344129555, 988
4.472626262626263, 990
4.464838709677419, 992
4.457082494969819, 994
4.449357429718876, 996
4.441663326653306, 998
4.434, 1000
4.426367265469062, 1002
4.418764940239044, 1004
4.411192842942346, 1006
4.403650793650794, 1008
4.396138613861386, 1010
4.388656126482213, 1012
4.3812031558185405, 1014
4.373779527559055, 1016
4.366385068762279, 1018
4.359019607843138, 1020
4.351682974559687, 1022
4.344375, 1024
4.3370955165692004, 1026
4.329844357976654, 1028
4.322621359223301, 1030
4.315426356589147, 1032
4.30825918762089, 1034
4.301119691119691, 1036
4.2940077071290945, 1038
4.286923076923077, 1040
4.279865642994242, 1042
4.272835249042146, 1044
4.265831739961759, 1046
4.2588549618320615, 1048
4.251904761904762, 1050
4.244980988593156, 1052
4.238083491461101, 1054
4.231212121212121, 1056
4.224366729678639, 1058
4.217547169811321, 1060
4.21075329566855, 1062
4.2039849624060155, 1064
4.197242026266417, 1066
4.190524344569289, 1068
4.183831775700935, 1070
4.177164179104477, 1072
4.170521415270018, 1074
4.163903345724907, 1076
4.157309833024119, 1078
4.150740740740741, 1080
4.144195933456562, 1082
4.137675276752768, 1084
4.131178637200737, 1086
4.124705882352941, 1088
4.118256880733945, 1090
4.111831501831502, 1092
4.1054296160877515, 1094
4.099051094890511, 1096
4.092695810564663, 1098
4.086363636363637, 1100
4.08005444646098, 1102
4.073768115942029, 1104
4.06750452079566, 1106
4.061263537906138, 1108
4.055045045045045, 1110
4.04884892086331, 1112
4.042675044883303, 1114
4.03652329749104, 1116
4.030393559928444, 1118
4.024285714285714, 1120
4.0181996434937615, 1122
4.0121352313167264, 1124
4.0060923623445825, 1126
4.000070921985816, 1128
3.9940707964601767, 1130
3.9880918727915193, 1132
3.982134038800705, 1134
3.9761971830985914, 1136
3.970281195079086, 1138
3.964385964912281, 1140
3.9585113835376533, 1142
3.9526573426573424, 1144
3.946823734729494, 1146
3.9410104529616725, 1148
3.935217391304348, 1150
3.9294444444444445, 1152
3.92369150779896, 1154
3.9179584775086505, 1156
3.912245250431779, 1158
3.906551724137931, 1160
3.9008777969018933, 1162
3.8952233676975943, 1164
3.8895883361921095, 1166
3.883972602739726, 1168
3.878376068376068, 1170
3.8727986348122867, 1172
3.8672402044293013, 1174
3.8617006802721088, 1176
3.8561799660441425, 1178
3.8506779661016948, 1180
3.845194585448392, 1182
3.8397297297297297, 1184
3.8342833052276557, 1186
3.8288552188552187, 1188
3.8234453781512605, 1190
3.8180536912751677, 1192
3.8126800670016747, 1194
3.807324414715719, 1196
3.8019866444073456, 1198
3.7966666666666664, 1200
3.7913643926788683, 1202
3.786079734219269, 1204
3.7808126036484246, 1206
3.775562913907285, 1208
3.7703305785123966, 1210
3.765115511551155, 1212
3.7599176276771002, 1214
3.754736842105263, 1216
3.7495730706075534, 1218
3.7444262295081967, 1220
3.7392962356792143, 1222
3.7341830065359476, 1224
3.7290864600326263, 1226
3.7240065146579804, 1228
3.718943089430894, 1230
3.713896103896104, 1232
3.708865478119935, 1234
3.703851132686084, 1236
3.6988529886914376, 1238
3.6938709677419355, 1240
3.68890499194847, 1242
3.6839549839228294, 1244
3.6790208667736755, 1246
3.674102564102564, 1248
3.6692, 1250
3.6643130990415336, 1252
3.6594417862838915, 1254
3.6545859872611466, 1256
3.649745627980922, 1258
3.6449206349206347, 1260
3.6401109350237717, 1262
3.6353164556962025, 1264
3.6305371248025273, 1266
3.6257728706624603, 1268
3.621023622047244, 1270
3.6162893081761007, 1272
3.611569858712716, 1274
3.6068652037617555, 1276
3.6021752738654147, 1278
3.5974999999999997, 1280
3.5928393135725427, 1282
3.5881931464174452, 1284
3.583561430793157, 1286
3.578944099378882, 1288
3.5743410852713176, 1290
3.569752321981424, 1292
3.565177743431221, 1294
3.560617283950617, 1296
3.556070878274268, 1298
3.5515384615384615, 1300
3.5470199692780335, 1302
3.5425153374233127, 1304
3.53802450229709, 1306
3.5335474006116208, 1308
3.5290839694656486, 1310
3.524634146341463, 1312
3.5201978691019784, 1314
3.515775075987842, 1316
3.5113657056145673, 1318
3.506969696969697, 1320
3.5025869894099846, 1322
3.49821752265861, 1324
3.493861236802413, 1326
3.4895180722891563, 1328
3.485187969924812, 1330
3.480870870870871, 1332
3.476566716641679, 1334
3.4722754491017964, 1336
3.467997010463378, 1338
3.463731343283582, 1340
3.459478390461997, 1342
3.455238095238095, 1344
3.4510104011887073, 1346
3.446795252225519, 1348
3.4425925925925926, 1350
3.438402366863905, 1352
3.4342245199409156, 1354
3.430058997050147, 1356
3.4259057437407954, 1358
3.4217647058823526, 1360
3.4176358296622613, 1362
3.4135190615835778, 1364
3.4094143484626644, 1366
3.4053216374269004, 1368
3.4012408759124084, 1370
3.3971720116618074, 1372
3.3931149927219795, 1374
3.3890697674418604, 1376
3.3850362844702464, 1378
3.381014492753623, 1380
3.3770043415340085, 1382
3.3730057803468205, 1384
3.369018759018759, 1386
3.365043227665706, 1388
3.3610791366906474, 1390
3.357126436781609, 1392
3.3531850789096125, 1394
3.3492550143266473, 1396
3.345336194563662, 1398
3.341428571428571, 1400
3.3375320970042797, 1402
3.3336467236467233, 1404
3.3297724039829304, 1406
3.3259090909090907, 1408
3.3220567375886523, 1410
3.3182152974504247, 1412
3.3143847241867044, 1414
3.3105649717514125, 1416
3.3067559943582507, 1418
3.302957746478873, 1420
3.2991701828410687, 1422
3.2953932584269663, 1424
3.2916269284712483, 1426
3.2878711484593834, 1428
3.284125874125874, 1430
3.280391061452514, 1432
3.2766666666666664, 1434
3.2729526462395544, 1436
3.269248956884562, 1438
3.2655555555555553, 1440
3.261872399445215, 1442
3.2581994459833794, 1444
3.254536652835408, 1446
3.2508839779005525, 1448
3.2472413793103447, 1450
3.243608815426997, 1452
3.2399862448418157, 1454
3.2363736263736262, 1456
3.232770919067215, 1458
3.2291780821917806, 1460
3.225595075239398, 1462
3.222021857923497, 1464
3.218458390177353, 1466
3.2149046321525883, 1468
3.211360544217687, 1470
3.207826086956522, 1472
3.204301221166893, 1474
3.2007859078590783, 1476
3.1972801082543976, 1478
3.1937837837837835, 1480
3.1902968960863696, 1482
3.186819407008086, 1484
3.183351278600269, 1486
3.1798924731182794, 1488
3.176442953020134, 1490
3.1730026809651473, 1492
3.1695716198125834, 1494
3.1661497326203207, 1496
3.1627369826435245, 1498
3.159333333333333, 1500
3.1559387483355525, 1502
3.1525531914893614, 1504
3.149176626826029, 1506
3.1458090185676393, 1508
3.142450331125828, 1510
3.139100529100529, 1512
3.1357595772787317, 1514
3.1324274406332453, 1516
3.1291040843214755, 1518
3.1257894736842102, 1520
3.122483574244415, 1522
3.1191863517060368, 1524
3.1158977719528176, 1526
3.1126178010471204, 1528
3.109346405228758, 1530
3.106083550913838, 1532
3.1028292046936112, 1534
3.0995833333333334, 1536
3.096345903771131, 1538
3.093116883116883, 1540
3.0898962386511024, 1542
3.086683937823834, 1544
3.0834799482535575, 1546
3.080284237726098, 1548
3.0770967741935484, 1550
3.073917525773196, 1552
3.0707464607464607, 1554
3.0675835475578404, 1556
3.064428754813864, 1558
3.0612820512820513, 1560
3.0581434058898846, 1562
3.055012787723785, 1564
3.051890166028097, 1566
3.0487755102040817, 1568
3.045668789808917, 1570
3.0425699745547075, 1572
3.039479034307497, 1574
3.0363959390862942, 1576
3.033320659062104, 1578
3.030253164556962, 1580
3.0271934260429836, 1582
3.024141414141414, 1584
3.0210970996216897, 1586
3.0180604534005036, 1588
3.0150314465408803, 1590
3.012010050251256, 1592
3.008996235884567, 1594
3.0059899749373433, 1596
3.0029912390488107, 1598
3, 1600
2.997016229712859, 1602
2.9940399002493763, 1604
2.99107098381071, 1606
2.9881094527363183, 1608
2.9851552795031053, 1610
2.982208436724566, 1612
2.9792688971499377, 1614
2.976336633663366, 1616
2.9734116192830653, 1618
2.9704938271604937, 1620
2.9675832305795313, 1622
2.964679802955665, 1624
2.9617835178351783, 1626
2.958894348894349, 1628
2.95601226993865, 1630
2.9531372549019608, 1632
2.950269277845777, 1634
2.947408312958435, 1636
2.9445543345543346, 1638
2.9417073170731705, 1640
2.938867235079172, 1642
2.9360340632603403, 1644
2.9332077764277034, 1646
2.930388349514563, 1648
2.9275757575757573, 1650
2.924769975786925, 1652
2.9219709794437727, 1654
2.9191787439613526, 1656
2.9163932448733414, 1658
2.913614457831325, 1660
2.9108423586040915, 1662
2.908076923076923, 1664
2.9053181272509003, 1666
2.902565947242206, 1668
2.899820359281437, 1670
2.8970813397129187, 1672
2.894348864994026, 1674
2.8916229116945105, 1676
2.8889034564958282, 1678
2.886190476190476, 1680
2.8834839476813316, 1682
2.8807838479809975, 1684
2.8780901542111503, 1686
2.8754028436018957, 1688
2.872721893491124, 1690
2.870047281323877, 1692
2.8673789846517117, 1694
2.864716981132075, 1696
2.8620612485276795, 1698
2.8594117647058823, 1700
2.8567685076380727, 1702
2.854131455399061, 1704
2.851500586166471, 1706
2.84887587822014, 1708
2.8462573099415205, 1710
2.843644859813084, 1712
2.8410385064177364, 1714
2.8384382284382284, 1716
2.835844004656577, 1718
2.8332558139534885, 1720
2.8306736353077815, 1722
2.8280974477958236, 1724
2.8255272305909616, 1726
2.8229629629629627, 1728
2.8204046242774563, 1730
2.817852193995381, 1732
2.8153056516724337, 1734
2.8127649769585252, 1736
2.810230149597238, 1738
2.807701149425287, 1740
2.805177956371986, 1742
2.8026605504587154, 1744
2.8001489117983964, 1746
2.7976430205949656, 1748
2.795142857142857, 1750
2.792648401826484, 1752
2.790159635119726, 1754
2.7876765375854213, 1756
2.7851990898748578, 1758
2.7827272727272727, 1760
2.780261066969353, 1762
2.777800453514739, 1764
2.7753454133635334, 1766
2.7728959276018097, 1768
2.77045197740113, 1770
2.7680135440180584, 1772
2.7655806087936865, 1774
2.7631531531531532, 1776
2.760731158605174, 1778
2.758314606741573, 1780
2.7559034792368124, 1782
2.7534977578475335, 1784
2.751097424412094, 1786
2.7487024608501116, 1788
2.746312849162011, 1790
2.7439285714285715, 1792
2.7415496098104795, 1794
2.739175946547884, 1796
2.7368075639599554, 1798
2.7344444444444442, 1800
2.7320865704772475, 1802
2.729733924611973, 1804
2.7273864894795126, 1806
2.7250442477876105, 1808
2.722707182320442, 1810
2.72037527593819, 1812
2.718048511576626, 1814
2.715726872246696, 1816
2.7134103410341033, 1818
2.711098901098901, 1820
2.7087925356750824, 1822
2.7064912280701754, 1824
2.704194961664841, 1826
2.7019037199124725, 1828
2.6996174863387976, 1830
2.697336244541485, 1832
2.695059978189749, 1834
2.692788671023965, 1836
2.6905223068552773, 1838
2.6882608695652173, 1840
2.68600434310532, 1842
2.683752711496746, 1844
2.681505958829902, 1846
2.679264069264069, 1848
2.677027027027027, 1850
2.674794816414687, 1852
2.6725674217907227, 1854
2.6703448275862067, 1856
2.6681270182992463, 1858
2.6659139784946237, 1860
2.663705692803437, 1862
2.661502145922747, 1864
2.6593033226152194, 1866
2.6571092077087792, 1868
2.6549197860962566, 1870
2.6527350427350425, 1872
2.6505549626467446, 1874
2.648379530916844, 1876
2.6462087326943555, 1878
2.6440425531914893, 1880
2.6418809776833156, 1882
2.639723991507431, 1884
2.637571580063627, 1886
2.635423728813559, 1888
2.633280423280423, 1890
2.6311416490486255, 1892
2.6290073917634635, 1894
2.6268776371308014, 1896
2.624752370916754, 1898
2.6226315789473684, 1900
2.620515247108307, 1902
2.6184033613445377, 1904
2.616295907660021, 1906
2.6141928721174, 1908
2.6120942408376964, 1910
2.61, 1912
2.6079101358411703, 1914
2.6058246346555323, 1916
2.603743482794578, 1918
2.6016666666666666, 1920
2.5995941727367327, 1922
2.5975259875259877, 1924
2.5954620976116303, 1926
2.593402489626556, 1928
2.5913471502590673, 1930
2.589296066252588, 1932
2.5872492244053773, 1934
2.585206611570248, 1936
2.583168214654283, 1938
2.5811340206185567, 1940
2.579104016477858, 1942
2.5770781893004115, 1944
2.5750565262076055, 1946
2.5730390143737165, 1948
2.571025641025641, 1950
2.569016393442623, 1952
2.5670112589559877, 1954
2.565010224948875, 1956
2.5630132788559754, 1958
2.5610204081632655, 1960
2.559031600407747, 1962
2.5570468431771896, 1964
2.5550661241098678, 1966
2.553089430894309, 1968
2.5511167512690354, 1970
2.5491480730223124, 1972
2.5471833839918947, 1974
2.5452226720647775, 1976
2.5432659251769465, 1978
2.541313131313131, 1980
2.539364278506559, 1982
2.53741935483871, 1984
2.5354783484390735, 1986
2.5335412474849095, 1988
2.531608040201005, 1990
2.5296787148594375, 1992
2.527753259779338, 1994
2.5258316633266533, 1996
2.5239139139139137, 1998
2.522, 2000
2.52008991008991, 2002
2.518183632734531, 2004
2.516281156530409, 2006
2.514382470119522, 2008
2.5124875621890546, 2010
2.510596421471173, 2012
2.5087090367428004, 2014
2.5068253968253966, 2016
2.5049454905847375, 2018
2.503069306930693, 2020
2.501196834817013, 2022
2.499328063241107, 2024
2.4974629812438303, 2026
2.4956015779092704, 2028
2.493743842364532, 2030
2.4918897637795276, 2032
2.490039331366765, 2034
2.4881925343811395, 2036
2.486349362119725, 2038
2.4845098039215685, 2040
2.4826738491674827, 2042
2.4808414872798434, 2044
2.479012707722385, 2046
2.4771875, 2048
2.475365853658537, 2050
2.4735477582846004, 2052
2.471733203505355, 2054
2.4699221789883268, 2056
2.468114674441205, 2058
2.4663106796116505, 2060
2.4645101842871, 2062
2.4627131782945737, 2064
2.460919651500484, 2066
2.4591295938104447, 2068
2.457342995169082, 2070
2.4555598455598457, 2072
2.4537801350048216, 2074
2.452003853564547, 2076
2.4502309913378246, 2078
2.4484615384615385, 2080
2.4466954851104705, 2082
2.444932821497121, 2084
2.4431735378715245, 2086
2.4414176245210726, 2088
2.4396650717703348, 2090
2.4379158699808796, 2092
2.4361700095510983, 2094
2.4344274809160305, 2096
2.432688274547188, 2098
2.4309523809523808, 2100
2.429219790675547, 2102
2.427490494296578, 2104
2.4257644824311493, 2106
2.42404174573055, 2108
2.4223222748815165, 2110
2.4206060606060604, 2112
2.4188930936613056, 2114
2.4171833648393193, 2116
2.41547686496695, 2118
2.4137735849056603, 2120
2.412073515551367, 2122
2.410376647834275, 2124
2.4086829727187204, 2126
2.4069924812030075, 2128
2.4053051643192487, 2130
2.403621013133208, 2132
2.4019400187441424, 2134
2.400262172284644, 2136
2.3985874649204866, 2138
2.3969158878504673, 2140
2.395247432306256, 2142
2.393582089552239, 2144
2.391919850885368, 2146
2.3902607076350093, 2148
2.3886046511627907, 2150
2.3869516728624536, 2152
2.3853017641597027, 2154
2.3836549165120595, 2156
2.382011121408712, 2158
2.3803703703703705, 2160
2.378732654949121, 2162
2.377097966728281, 2164
2.375466297322253, 2166
2.3738376383763837, 2168
2.3722119815668203, 2170
2.370589318600368, 2172
2.3689696412143513, 2174
2.3673529411764704, 2176
2.365739210284665, 2178
2.3641284403669727, 2180
2.362520623281393, 2182
2.360915750915751, 2184
2.3593138151875572, 2186
2.3577148080438755, 2188
2.356118721461187, 2190
2.3545255474452556, 2192
2.352935278030994, 2194
2.3513479052823314, 2196
2.3497634212920837, 2198
2.348181818181818, 2200
2.346603088101726, 2202
2.34502722323049, 2204
2.3434542157751586, 2206
2.3418840579710145, 2208
2.340316742081448, 2210
2.33875226039783, 2212
2.337190605239386, 2214
2.3356317689530686, 2216
2.3340757439134356, 2218
2.3325225225225226, 2220
2.3309720972097208, 2222
2.3294244604316545, 2224
2.3278796046720576, 2226
2.326337522441652, 2228
2.324798206278027, 2230
2.3232616487455195, 2232
2.321727842435094, 2234
2.320196779964222, 2236
2.318668453976765, 2238
2.317142857142857, 2240
2.3156199821587866, 2242
2.3140998217468804, 2244
2.3125823686553875, 2246
2.311067615658363, 2248
2.3095555555555554, 2250
2.3080461811722914, 2252
2.306539485359361, 2254
2.3050354609929076, 2256
2.3035341009743133, 2258
2.3020353982300885, 2260
2.3005393457117593, 2262
2.2990459363957596, 2264
2.2975551632833184, 2266
2.2960670194003527, 2268
2.2945814977973567, 2270
2.293098591549296, 2272
2.291618293755497, 2274
2.2901405975395432, 2276
2.288665496049166, 2278
2.2871929824561406, 2280
2.2857230499561787, 2282
2.2842556917688266, 2284
2.282790901137358, 2286
2.281328671328671, 2288
2.279868995633188, 2290
2.278411867364747, 2292
2.276957279860506, 2294
2.275505226480836, 2296
2.2740557006092255, 2298
2.272608695652174, 2300
2.2711642050390966, 2302
2.269722222222222, 2304
2.2682827406764963, 2306
2.26684575389948, 2308
2.2654112554112555, 2310
2.263979238754325, 2312
2.2625496974935175, 2314
2.2611226252158896, 2316
2.25969801553063, 2318
2.2582758620689654, 2320
2.2568561584840654, 2322
2.255438898450947, 2324
2.25402407566638, 2326
2.252611683848797, 2328
2.2512017167381972, 2330
2.249794168096055, 2332
2.248389031705227, 2334
2.246986301369863, 2336
2.2455859709153123, 2338
2.244188034188034, 2340
2.242792485055508, 2342
2.2413993174061435, 2344
2.24000852514919, 2346
2.2386201022146506, 2348
2.2372340425531916, 2350
2.2358503401360545, 2352
2.23446898895497, 2354
2.2330899830220714, 2356
2.231713316369805, 2358
2.2303389830508475, 2360
2.2289669771380187, 2362
2.2275972927241963, 2364
2.2262299239222316, 2366
2.224864864864865, 2368
2.2235021097046412, 2370
2.222141652613828, 2372
2.22078348778433, 2374
2.2194276094276093, 2376
2.2180740117746005, 2378
2.21672268907563, 2380
2.215373635600336, 2382
2.214026845637584, 2384
2.2126823134953897, 2386
2.2113400335008375, 2388
2.21, 2390
2.2086622073578597, 2392
2.2073266499582287, 2394
2.205993322203673, 2396
2.2046622185154297, 2398
2.203333333333333, 2400
2.2020066611157367, 2402
2.200682196339434, 2404
2.199359933499584, 2406
2.1980398671096344, 2408
2.196721991701245, 2410
2.1954063018242125, 2412
2.194092792046396, 2414
2.1927814569536426, 2416
2.1914722911497106, 2418
2.1901652892561985, 2420
2.188860445912469, 2422
2.1875577557755777, 2424
2.186257213520198, 2426
2.1849588138385503, 2428
2.1836625514403294, 2430
2.1823684210526317, 2432
2.181076417419885, 2434
2.179786535303777, 2436
2.1784987694831828, 2438
2.1772131147540983, 2440
2.175929565929566, 2442
2.1746481178396073, 2444
2.173368765331153, 2446
2.172091503267974, 2448
2.170816326530612, 2450
2.169543230016313, 2452
2.1682722086389568, 2454
2.1670032573289904, 2456
2.1657363710333604, 2458
2.1644715447154472, 2460
2.163208773354996, 2462
2.161948051948052, 2464
2.1606893755068937, 2466
2.1594327390599677, 2468
2.158178137651822, 2470
2.156925566343042, 2472
2.155675020210186, 2474
2.154426494345719, 2476
2.15317998385795, 2478
2.1519354838709677, 2480
2.1506929895245768, 2482
2.149452495974235, 2484
2.1482139983909896, 2486
2.146977491961415, 2488
2.1457429718875503, 2490
2.144510433386838, 2492
2.143279871692061, 2494
2.1420512820512823, 2496
2.140824659727782, 2498
2.1396, 2500
*Material, name=CLADDING
*Elastic
7.5e10, 0.3
*Density
6500
*Specific Heat
330
*Conductivity
16
*Plastic
4000000, 0
2004000000, 1
*Creep, law=TIME
8e-26, 3, 0
*Solid Section, elset=FUEL, material=FUEL
,
*Solid Section, elset=CLAD, material=CLADDING
,
*Initial Conditions, type=TEMPERATURE
ALL, 600
*Surface Interaction, name=INTERFACE
*Surface Behavior, pressure-overclosure=LINEAR
1e14
*Gap Conductance
400000, 0
400000.00000000006, 0.000001
396039.60396039614, 0.0000010099999999999999
392118.4197627685, 0.0000010200999999999998
388236.0591710579, 0.0000010303009999999997
384392.13779312663, 0.0000010406040099999998
380586.2750426996, 0.0000010510100500999999
376818.0941016828, 0.000001061520150601
373087.2218828542, 0.00000107213535210701
369393.28899292496, 0.00000108285670562808
365735.9296959653, 0.0000010936852726843608
362114.7818771933, 0.0000011046221254112045
358529.48700712214, 0.0000011156683466653166
354979.69010606146, 0.0000011268250301319698
351465.03970897174, 0.0000011380932804332895
347985.18783066515, 0.0000011494742132376223
344539.7899313516, 0.0000011609689553699985
341128.50488252635, 0.0000011725786449236986
337750.99493319436, 0.0000011843044313729356
334406.9256764301, 0.0000011961474756866649
331095.9660162674, 0.0000012081089504435314
327817.78813491826, 0.0000012201900399479668
324572.06746031507, 0.0000012323919403474466
321358.4826339753, 0.0000012447158597509211
318176.7154791835, 0.0000012571630183484303
315026.4509694886, 0.0000012697346485319147
311907.3771975134, 0.0000012824319950172339
308819.1853440727, 0.0000012952563149674061
305761.56964759674, 0.0000013082088781170801
302734.22737385816, 0.000001321290966898251
299736.8587859982, 0.0000013345038765672334
296769.1671148497, 0.0000013478489153329057
293830.8585295542, 0.0000013613274044862347
290921.6421084695, 0.000001374940678531097
288041.2298103658, 0.000001388690085316408
285189.3364459068, 0.000001402576986169572
282365.67964941263, 0.0000014166027560312678
279569.9798509036, 0.0000014307687835915804
276801.96024841943, 0.0000014450764714274963
274061.3467806133, 0.0000014595272361417712
271347.86809961713, 0.000001474122508503189
268661.25554417534, 0.0000014888637335882209
266001.2431130449, 0.0000015037523709241031
263367.56743865827, 0.0000015187898946333443
260759.96776104782, 0.0000015339777935796777
258178.18590202756, 0.0000015493175715154744
255621.96623963123, 0.0000015648107472306292
253091.0556828032, 0.0000015804588547029355
250585.2036463398, 0.0000015962634432499648
248104.16202607902, 0.0000016122260776824644
245647.68517433567, 0.0000016283483384592892
243215.52987557987, 0.000001644631821843882
240807.45532235628, 0.0000016610781400623208
238423.22309144188, 0.0000016776889214629442
236062.5971202395, 0.0000016944658106775735
233725.34368340543, 0.0000017114104687843492
231411.23136970834, 0.0000017285245734721926
229120.0310591172, 0.0000017458098192069145
226851.515900116, 0.0000017632679173989838
224605.46128724358, 0.0000017809005965729735
222381.64483885502, 0.0000017987096025387033
220179.84637510398, 0.0000018166966985640905
217999.84789614254, 0.0000018348636655497314
215841.43356053717, 0.0000018532123022052287
213704.38966389818, 0.000001871744425227281
211588.504617721, 0.0000018904618694795538
209493.56892843664, 0.0000019093664881743493
207419.37517666994, 0.0000019284601530560927
205365.7179967029, 0.0000019477447545866537
203332.3940561415, 0.0000019672222021325203
201319.20203578364, 0.0000019868944241538454
199325.94260968675, 0.000002006763368395384
197352.41842543244, 0.000002026831002079338
195398.43408458657, 0.0000020470993121001315
193463.796123353, 0.000002067570305221133
191548.31299341883, 0.000002088246008273344
189651.79504298893, 0.0000021091284683560776
187774.05449800883, 0.0000021302197530396385
185914.9054435731, 0.000002151521950570035
184074.16380551795, 0.000002173037170075735
182251.64733219598, 0.0000021947675417764925
180447.17557643165, 0.0000022167152171942576
178660.5698776551, 0.0000022388823693662
176891.65334421297, 0.0000022612711930598622
175140.25083585441, 0.000002283883904990461
173406.1889463905, 0.0000023067227440403656
171689.29598652525, 0.0000023297899714807694
169989.40196685668, 0.000002353087871195577
168306.33858104624, 0.0000023766187499075327
166639.93918915468, 0.000002400384937406608
164990.03880114324, 0.000002424388786780674
163356.47406053788, 0.0000024486326746484807
161739.08322825533, 0.0000024731190013949654
160137.70616658943, 0.000002497850191408915
158552.18432335588, 0.000002522828693323004
156982.36071619394, 0.0000025480569802562343
155428.07991702372, 0.0000025735375500587964
153889.18803665714, 0.0000025992729255593846
152365.53270956152, 0.0000026252656548149785
150856.96307877378, 0.000002651518311363128
149363.32978096412, 0.0000026780334944767595
147884.48493164766, 0.0000027048138294215272
146420.2821105422, 0.0000027318619677157427
144970.5763470715, 0.0000027591805873929002
143535.2241060114, 0.000002786772393266829
142114.08327327858, 0.0000028146401171994977
140707.01314186, 0.0000028427865183714927
139313.87439788118, 0.0000028712143835552076
137934.52910681305, 0.0000028999265273907598
136568.8406998149, 0.000002928925792664667
135216.67396021276, 0.0000029582150505913138
133877.89501011165, 0.000002987797201097227
132552.37129714026, 0.000003017675173108199
131239.971581327, 0.000003047851924839281
129940.56592210593, 0.000003078330444087674
128654.02566545142, 0.0000031091137485285506
127380.22343114002, 0.000003140204886013836
126119.03310013864, 0.0000031716069348739743
124870.32980211747, 0.000003203323004222714
123633.9899030866, 0.000003235356234264941
122409.89099315504, 0.0000032677097966075907
121197.91187441094, 0.0000033003868945736665
119997.93254892172, 0.0000033333907635194033
118809.8342068532, 0.000003366724671154597
117633.49921470613, 0.000003400391917866143
116468.81110366943, 0.000003434395837044805
115315.65455808854, 0.000003468739795415253
114173.91540404806, 0.0000035034271933694055
113043.48059806738, 0.0000035384614653030997
111924.23821590829, 0.0000035738460799561307
110816.07744149335, 0.0000036095845407556923
109718.88855593401, 0.0000036456803861632494
108632.56292666733, 0.000003682137190024882
107556.99299670033, 0.000003718958561925131
106492.07227396072, 0.0000037561481475443823
105437.69532075318, 0.0000037937096290198264
104393.75774331998, 0.000003831646725310025
103360.15618150492, 0.000003869963192563125
102336.78829851974, 0.000003908662824488756
101323.55277081161, 0.000003947749452733644
100320.3492780313, 0.00000398722694726098
99327.07849310029, 0.00000402709921673359
98343.64207237653, 0.000004067370208900926
97369.94264591736, 0.000004108043910989936
96405.88380783895, 0.000004149124350099835
95451.37010677125, 0.000004190615593600833
94506.30703640718, 0.000004232521749536842
93570.60102614571, 0.00000427484696703221
92644.15943182744, 0.0000043175954367025324
91726.89052656182, 0.000004360771391069557
90818.70349164537, 0.000004404379104980253
89919.5084075697, 0.000004448422896030055
89029.2162451185, 0.000004492907124990356
88147.73885655295, 0.00000453783619624026
87274.98896688412, 0.000004583214558202662
86410.8801652318, 0.0000046290467037846885
85555.3268962691, 0.000004675337170822536
84708.2444517516, 0.000004722090542530761
83869.54896213028, 0.000004769311447956069
83039.15738824781, 0.00000481700456243563
82216.98751311663, 0.000004865174608059987
81402.95793377885, 0.000004913826354140586
80596.98805324637, 0.0000049629646176819924
79798.99807252116, 0.000005012594263858813
79008.9089826942, 0.000005062720206497401
78226.64255712298, 0.0000051133474085623755
77452.12134368611, 0.000005164480882647999
76685.26865711497, 0.000005216125691474479
75926.00857140096, 0.000005268286948389224
75174.26591227818, 0.000005320969817873116
74429.96624978037, 0.000005374179516051848
73693.03589087164, 0.0000054279213112123665
72963.40187215015, 0.00000548220052432449
72240.99195262391, 0.000005537022529567735
71525.73460655833, 0.000005592392754863413
70817.55901639439, 0.000005648316682412047
70116.39506573702, 0.000005704799849236167
69422.17333241287, 0.000005761847847728529
68734.82508159691, 0.0000058194663262058146
68054.28225900684, 0.0000058776609894678725
67380.47748416518, 0.0000059364375993625514
66713.3440437279, 0.000005995801975356177
66052.81588487912, 0.0000060557599951097386
65398.8276087912, 0.000006116317595060836
64751.314464149706, 0.000006177480771011445
64110.21234074228, 0.0000062392555787215596
63475.45776311117, 0.000006301648134508775
62846.98788426848, 0.000006364664615853863
62224.74047947374, 0.000006428311262012402
61608.65394007301, 0.000006492594374632526
60998.66726739902, 0.000006557520318378851
60394.7200667317, 0.0000066230955215626394
59796.752541318514, 0.000006689326476778266
59204.705486453975, 0.000006756219741546049
58618.5202836178, 0.0000068237819389615096
58038.13889467108, 0.000006892019758351125
57463.50385610998, 0.000006960939955934636
56894.55827337621, 0.000007030549355493983
56331.24581522398, 0.000007100854849048923
55773.510708142545, 0.000007171863397539413
55221.29773083421, 0.0000072435820315148064
54674.55220874674, 0.000007316017851829955
54133.220008660144, 0.000007389178030348254
53597.247533326874, 0.000007463069810651736
53066.58171616522, 0.000007537700508758253
52541.17001600517, 0.000007613077513845836
52020.9604118863, 0.000007689208288984295
51505.901397907226, 0.000007766100371874139
50995.941978125964, 0.00000784376137559288
50491.03166151086, 0.000007922198989348809
49991.12045694144, 0.000008001420979242297
49496.15886825885, 0.00000808143518903472
49006.0978893652, 0.000008162249540925068
48520.88899937149, 0.000008243872036334318
48040.48415779356, 0.00000832631075669766
47564.8357997956, 0.000008409573864264638
47093.896831480786, 0.000008493669602907284
46627.6206252285, 0.000008578606298936358
46165.96101507772, 0.00000866439236192572
45708.872292156164, 0.000008751036285544978
45256.30920015462, 0.000008838546648400427
44808.226930846155, 0.000008926932114884432
44364.58111964965, 0.000009016201436033277
43925.32784123728, 0.00000910636345039361
43490.423605185424, 0.000009197427084897546
43059.82535166874, 0.000009289401355746522
42633.49044719677, 0.000009382295369303988
42211.37668039284, 0.000009476118322997027
41793.44225781469, 0.000009570879506226997
41379.64579981653, 0.000009666588301289267
40969.94633645201, 0.00000976325418430216
40564.30330341783, 0.000009860886726145182
40162.676538037456, 0.000009959495593406634
39765.02627528461, 0.0000100590905493407
39371.31314384614, 0.000010159681454834107
38981.49816222391, 0.000010261278269382448
38595.542734875155, 0.000010363891052076273
38213.40864839124, 0.000010467529962597036
37835.0580677141, 0.000010572205262223007
37460.453532390195, 0.000010677927314845237
37089.557952861585, 0.000010784706587993689
36722.33460679364, 0.000010892553653873626
36358.747135439255, 0.000011001479190412362
35998.75954003887, 0.000011111493982316485
35642.3361782563, 0.00001122260892213965
35289.4417606498, 0.000011334835011361047
34940.04134717802, 0.000011448183361474658
34594.10034374062, 0.000011562665195089404
34251.58449875309, 0.000011678291847040298
33912.45989975553, 0.0000117950747655107
33576.69297005498, 0.000011913025513165808
33244.25046540097, 0.000012032155768297467
32915.09947069403, 0.000012152477325980441
32589.207396726764, 0.000012274002099240245
32266.54197695719, 0.000012396742120232648
31947.07126431405, 0.000012520709541434974
31630.763628033714, 0.000012645916636849323
31317.58775052843, 0.000012772375803217817
31007.512624285573, 0.000012900099561249995
30700.507548797596, 0.000013029100556862496
30396.542127522374, 0.00001315939156243112
30095.586264873637, 0.000013290985478055432
29797.610163241225, 0.000013423895332835986
29502.584320040816, 0.000013558134286164346
29210.47952479289, 0.00001369371562902599
28921.26685623058, 0.00001383065278531625
28634.917679436217, 0.000013968959313169413
28351.403643006157, 0.000014108648906301107
28070.69667624372, 0.000014249735395364118
27792.76898637992, 0.00001439223274931776
27517.593055821704, 0.000014536155076810937
27245.14163942743, 0.000014681516627579046
26975.387761809336, 0.000014828331793854836
26708.304714662707, 0.000014976615111793385
26443.866054121496, 0.000015126381262911318
26182.045598140092, 0.000015277645075540432
25922.817423901084, 0.000015430421526295836
25666.1558652486, 0.000015584725741558794
25412.035510147125, 0.00001574057299897438
25160.431198165472, 0.000015897978728964126
24911.318017985614, 0.000016056958516253768
24664.671304936248, 0.000016217528101416307
24420.46663855074, 0.00001637970338243047
24178.67984014925, 0.000016543500416254774
23939.2869704448, 0.000016708935420417323
23702.264327173067, 0.000016876024774621498
23467.58844274561, 0.000017044785022367713
23235.23608192635, 0.00001721523287259139
23005.184239531038, 0.000017387385201317303
22777.410138149542, 0.000017561259053330477
22551.891225890635, 0.00001773687164386378
22328.605174149143, 0.00001791424036030242
22107.52987539519, 0.000018093382763905445
21888.643440985335, 0.0000182743165915445
21671.92419899538, 0.000018457059757459946
21457.350692074637, 0.000018641630355034544
21244.90167532142, 0.00001882804665858489
21034.556114179628, 0.000019016327125170738
20826.293182356065, 0.000019206490396422447
20620.09225975848, 0.00001939855530038667
20415.93293045394, 0.000019592540853390538
20213.794980647464, 0.000019788466261924443
20013.658396680657, 0.000019986350924543688
19815.503363050157, 0.000020186214433789125
19619.310260445698, 0.000020388076578127017
19425.059663807624, 0.000020591957343908286
19232.73234040359, 0.00002079787691734737
19042.309247924346, 0.000021005855686520843
18853.771532598363, 0.00002121591424338605
18667.10052732511, 0.00002142807338581991
18482.27774982684, 0.00002164235411967811
18299.284900818657, 0.00002185877766087489
18118.103862196687, 0.00002207736543748364
17938.716695244246, 0.000022298139091858476
17761.10563885569, 0.000022521120482777062
17585.25310777791, 0.000022746331687604834
17411.141690869215, 0.000022973795004480882
17238.75414937546, 0.00002320353295452569
17068.07341522323, 0.000023435568284070946
16899.082589329933, 0.000023669923966911655
16731.764939930625, 0.00002390662320658077
16566.10390092141, 0.000024145689438646577
16402.083070219218, 0.000024387146333033045
16239.686208137842, 0.000024631017796363374
16078.897235780041, 0.000024877327974327007
15919.700233445586, 0.000025126101254070276
15762.079439055035, 0.00002537736226661098
15606.019246589143, 0.00002563113588927709
15451.504204543706, 0.000025887447248169863
15298.51901439971, 0.00002614632172065156
15147.048529108624, 0.000026407784937858075
14997.077751592697, 0.000026671862787236657
14848.591833260096, 0.000026938581415109022
14701.576072534748, 0.000027207967229260113
14556.01591340074, 0.000027480046901552715
14411.896943961128, 0.000027754847370568243
14269.204895011018, 0.000028032395844273926
14127.925638624769, 0.000028312719802716667
13988.045186757197, 0.000028595847000743834
13849.549689858612, 0.00002888180547075127
13712.425435503575, 0.000029170623525458784
13576.658847033244, 0.00002946232976071337
13442.236482211132, 0.000029756953058320507
13309.14503189221, 0.00003005452258890371
13177.371318705158, 0.00003035506781479275
13046.902295747681, 0.00003065861849294068
12917.725045294734, 0.000030965204677870084
12789.826777519538, 0.00003127485672464878
12663.194829227268, 0.00003158760529189527
12537.816662601253, 0.00003190348134481422
12413.679863961639, 0.00003222251615826236
12290.772142536276, 0.000032544741319844986
12169.081329243836, 0.00003287018873304344
12048.595375488947, 0.000033198890620373874
11929.302351969254, 0.00003353087952657761
11811.190447494311, 0.00003386618832184339
11694.247967816149, 0.00003420485020506182
11578.463334471435, 0.00003454689870711244
11463.825083635084, 0.00003489236769418357
11350.32186498523, 0.000035241291371125405
11237.942440579436, 0.00003559370428483666
11126.675683742016, 0.00003594964132768503
11016.510577962392, 0.00003630913774096188
10907.436215804348, 0.000036672229118371496
10799.441797826088, 0.00003703895140955521
10692.516631510978, 0.00003740934092365076
10586.65013020889, 0.00003778343433288727
10481.831812088009, 0.000038161268676216145
10378.051299097038, 0.000038542881362978305
10275.298315937662, 0.00003892831017660809
10173.562689047189, 0.00003931759327837417
10072.834345591276, 0.000039710769211157915
9973.10331246661, 0.000040107876903269494
9874.359715313474, 0.00004050895567230219
9776.593777538093, 0.00004091404522902521
9679.795819344648, 0.00004132318568131546
9583.95625677688, 0.00004173641753812861
9489.065600769189, 0.000042153781713509896
9395.114456207117, 0.000042575319530645
9302.093520997147, 0.000043001072725951445
9209.993585145688, 0.00004343108345321096
9118.805529847217, 0.00004386539428774307
9028.520326581403, 0.0000443040482306205
8939.12903621921, 0.000044747088712926704
8850.622808137832, 0.00004519455960005597
8762.992879344389, 0.000045646505196056534
8676.230573608305, 0.0000461029702480171
8590.327300602283, 0.00004656399995049727
8505.274555051765, 0.000047029639950002244
8421.063915892835, 0.00004749993634950227
8337.687045438452, 0.00004797493571299729
8255.135688552922, 0.00004845468507012726
8173.4016718345765, 0.00004893923192082854
8092.476902806511, 0.00004942862424003682
8012.353369115358, 0.00004992291048243719
7933.023137737978, 0.00005042213958726156
7854.478354196018, 0.00005092636098313418
7776.711241778235, 0.00005143562459296552
7699.7141007705295, 0.00005194998083889518
7623.479307693594, 0.00005246948064728413
7547.999314548112, 0.00005299417545375697
7473.266648067438, 0.00005352411720829454
7399.273908977661, 0.00005405935838037748
7326.013771265011, 0.00005459995196418126
7253.478981450507, 0.000055145951483823074
7181.662357871788, 0.000055697410998661305
7110.556789972067, 0.00005625438510864792
7040.155237596106, 0.0000568169289597344
6970.450730293174, 0.000057385098249331746
6901.4363666269055, 0.00005795894923182506
6833.105313491986, 0.00005853853872414331
6765.450805437609, 0.00005912392411138475
6698.466143997633, 0.000059715163352498595
6632.144697027359, 0.00006031231498602358
6566.47989804689, 0.00006091543813588382
6501.46524559098, 0.00006152459251724266
6437.094302565327, 0.00006213983844241509
6373.3606956092335, 0.00006276123682683924
6310.258114464588, 0.00006338884919510764
6247.780311351077, 0.00006402273768705871
6185.9211003476, 0.00006466296506392931
6124.674356779802, 0.0000653095947145686
6064.034016613665, 0.00006596269066171429
6003.994075855114, 0.00006662231756833144
5944.548589955557, 0.00006728854074401476
5885.691673223324, 0.00006796142615145491
5827.417498240915, 0.00006864104041296946
5769.720295288034, 0.00006932745081709916
5712.594351770331, 0.00007002072532527015
5656.034011653793, 0.00007072093257852286
5600.033674904746, 0.00007142814190430808
5544.587796935391, 0.00007214242332335116
5489.6908880548435, 0.00007286384755658467
5435.337512925587, 0.00007359248603215052
5381.522290025334, 0.00007432841089247202
5328.239891114193, 0.00007507169500139674
5275.485040707121, 0.00007582241195141071
5223.252515551605, 0.00007658063607092481
5171.5371441105, 0.00007734644243163407
5120.333806049999, 0.00007811990685595042
5069.637431732673, 0.00007890110592450992
5019.443001715517, 0.00007969011698375502
4969.745546252988, 0.00008048701815359257
4920.540144804938, 0.0000812918883351285
4871.821925549443, 0.00008210480721847979
4823.586064900439, 0.00008292585529066458
4775.827787030137, 0.00008375511384357123
4728.5423633961755, 0.00008459266498200695
4681.7251122734415, 0.00008543859163182702
4635.371398290536, 0.00008629297754814529
4589.476631970827, 0.00008715590732362674
4544.036269278046, 0.00008802746639686301
4499.045811166383, 0.00008890774106083164
4454.500803135033, 0.00008979681847143996
4410.396834787161, 0.00009069478665615436
4366.729539393228, 0.0000916017345227159
4323.494593458642, 0.00009251775186794306
4280.687716295685, 0.00009344292938662249
4238.304669599688, 0.00009437735868048872
4196.341257029394, 0.00009532113226729361
4154.793323791479, 0.00009627434358996654
4113.6567562291875, 0.00009723708702586621
4072.927481415037, 0.00009820945789612487
4032.6014667475615, 0.00009919155247508613
3992.674719552041, 0.00010018346799983699
3953.1432866851887, 0.00010118530267983537
3914.0032541437513, 0.00010219715570663371
3875.2507466769816, 0.00010321912726370006
3836.881927402952, 0.00010425131853633705
3798.8929974286657, 0.00010529383172170042
3761.280195473926, 0.00010634677003891742
3724.039797498937, 0.0001074102377393066
3687.168116335581, 0.00010848434011669967
3650.6615013223573, 0.00010956918351786667
3614.516337942928, 0.00011066487535304533
3578.7290474682454, 0.00011177152410657579
3543.296086602223, 0.00011288923934764156
3508.2139471309138, 0.00011401813174111798
3473.479155575162, 0.00011515831305852916
3439.088272846695, 0.00011630989618911446
3405.0378939076186, 0.0001174729951510056
3371.324647433286, 0.00011864772510251566
3337.945195478501, 0.00011983420235354082
3304.89623314703, 0.00012103254437707623
3272.1744882643866, 0.000122242869820847
3239.776721053848, 0.00012346529851905546
3207.6997238156914, 0.000124699951504246
3175.940320609596, 0.00012594695101928846
3144.495366940194, 0.00012720642052948134
3113.3617494457367, 0.00012847848473477615
3082.536385589838, 0.0001297632695821239
3052.016223356276, 0.00013106090227794513
3021.7982409468077, 0.00013237151130072458
2991.879446481988, 0.0001336952264137318
2962.256877704939, 0.00013503217867786912
2932.9276016880585, 0.0001363825004646478
2903.888714542632, 0.0001377463254692943
2875.1373411313193, 0.00013912378872398722
2846.6706347834843, 0.0001405150266112271
2818.4857770133503, 0.00014192017687733938
2790.5799772409414, 0.00014333937864611276
2762.9504725157835, 0.0001447727724325739
2735.5945272433496, 0.00014622050015689964
2708.5094329142075, 0.00014768270515846864
2681.692507835849, 0.00014915953221005334
2655.141096867177, 0.00015065112753215388
2628.852571155621, 0.0001521576388074754
2602.8243278768523, 0.00015367921519555017
2577.0537899770816, 0.00015521600734750567
2551.5384059179023, 0.00015676816742098073
2526.2756494236655, 0.00015833584909519054
2501.263019231352, 0.00015991920758614246
2476.4980388429226, 0.00016151839966200388
2451.9782562801215, 0.0001631335836586239
2427.701243841705, 0.00016476491949521014
2403.664597863074, 0.00016641256869016224
2379.865938478291, 0.00016807669437706387
2356.3029093844466, 0.00016975746132083451
2332.9731776083627, 0.00017145503593404287
2309.874433275607, 0.0001731695862933833
2287.0043893817888, 0.00017490128215631712
2264.3607815661276, 0.0001766502949778803
2241.941367887255, 0.0001784167979276591
2219.7439286012427, 0.0001802009659069357
2197.7662659418243, 0.00018200297556600505
2176.0062039027966, 0.0001838230053216651
2154.4615880225706, 0.00018566123537488175
2133.130285170862, 0.00018751784772863057
2112.010183337487, 0.00018939302620591688
2091.0991914232545, 0.00019128695646797604
2070.3952390329255, 0.00019319982603265581
2049.896276270223, 0.00019513182429298237
2029.6002735348745, 0.0001970831425359122
2009.505221321658, 0.0001990539739612713
1989.6091300214434, 0.00020104451370088402
1969.9100297242014, 0.00020305495883789286
1950.4059700239618, 0.0002050855084262718
1931.0950198257046, 0.00020713636351053452
1911.975267154163, 0.00020920772714563986
1893.0448189645178, 0.00021129980441709627
1874.301800954968, 0.00021341280246126723
1855.7443573811565, 0.00021554693048587991
1837.3706508724322, 0.00021770239979073872
1819.1788622499328, 0.0002198794237886461
1801.167190346468, 0.00022207821802653258
1783.3338518281862, 0.0002242990002067979
1765.677081018006, 0.00022654199020886588
1748.1951297207981, 0.00022880741011095453
1730.8862670502951, 0.0002310954842120641
1713.7487792577178, 0.00023340643905418474
1696.7809695620967, 0.0002357405034447266
1679.9811579822742, 0.00023809790847917385
1663.3476811705684, 0.0002404788875639656
1646.8788922480876, 0.00024288367643960526
1630.573160641671, 0.0002453125132040013
1614.4288719224464, 0.0002477656383360413
1598.4444276459867, 0.0002502432947194017
1582.6182451940463, 0.00025274572766659573
1566.9487576178674, 0.0002552731849432617
1551.434413483037, 0.0002578259167926943
1536.073676715878, 0.0002604041759606213
1520.8650264513644, 0.0002630082177202275
1505.8069568825392, 0.00026563829989742976
1490.897977111425, 0.00026829468289640406
1476.1366110014108, 0.0002709776297253681
1461.5213970311, 0.00027368740602262177
1447.050888149604, 0.00027642428008284797
1432.7236516332712, 0.00027918852288367645
1418.538268943833, 0.0002819804081125132
1404.4933355879534, 0.00028480021219363835
1390.5874609781717, 0.0002876482143155747
1376.8192682952194, 0.0002905246964587305
1363.1873943517023, 0.0002934299434233178
1349.690489457131, 0.000296364242857551
1336.327217284288, 0.0002993278852861265
1323.0962547369186, 0.0003023211641389878
1309.9962918187312, 0.0003053443757803777
1297.0260315036944, 0.0003083978195381815
1284.1841896076182, 0.0003114817977335633
1271.4694946610082, 0.0003145966157108989
1258.8806877831764, 0.0003177425818680079
1246.4165225576003, 0.000320920007686688
1234.075764908515, 0.0003241292077635549
1221.8571929787279, 0.0003273704998411904
1209.7595970086415, 0.0003306442048396023
1197.781779216477, 0.0003339506468879983
1185.92255367968, 0.0003372901533568783
1174.180746217505, 0.0003406630548904471
1162.5551942747572, 0.0003440696854393516
1151.0447468066902, 0.00034751038229374515
1139.6482641650398, 0.0003509854861166826
1128.364617985188, 0.00035449534097784944
1117.1926910744435, 0.00035804029438762794
1106.1313773014292, 0.0003616206973315042
1095.1795814865636, 0.00036523690430481924
1084.3362192936272, 0.00036888927334786746
1073.6002171224031, 0.00037257816608134614
1062.9705120023793, 0.00037630394774215963
1052.4460514875043, 0.00038006698721958123
1042.0257935519844, 0.00038386765709177707
1031.7087064871132, 0.00038770633366269484
1021.493768799122, 0.0003915833969993218
1011.3799691080416, 0.000395499230969315
1001.3663060475659, 0.00039945422327900817
991.4517881659068, 0.00040344876551179826
981.6354338276305, 0.00040748325316691624
971.9162711164659, 0.0004115580856985854
962.2933377390751, 0.00041567366655557124
952.7656809297774, 0.00041983040322112695
943.3323573562152, 0.0004240287072533382
933.9924330259557, 0.00042826899432587157
924.7449831940156, 0.0004325516842691303
915.5890922713025, 0.0004368772011118216
906.5238537339629, 0.0004412459731229398
897.5483700336266, 0.0004456584328541692
888.6617525085413, 0.0004501150171827109
879.8631212955854, 0.000454616167354538
871.1516052431538, 0.0004591623290280834
862.5263418249048, 0.00046375395231836427
853.9864770543611, 0.0004683914918415479
845.5311654003575, 0.00047307540675996343
837.1595697033242, 0.00047780616082756307
828.8708610924002, 0.0004825842224358387
820.6642189033665, 0.0004874100646601971
812.5388305973927, 0.000492284165306799
804.4938916805869, 0.000497207006959867
796.5286056243434, 0.0005021790770294657
788.6421837864787, 0.0005072008677997603
780.8338453331471, 0.0005122728764777579
773.1028171615319, 0.0005173956052425355
765.4483338232988, 0.0005225695612949609
757.8696374488107, 0.0005277952569079105
750.3659776720898, 0.0005330732094769896
742.9366115565246, 0.0005384039415717595
735.5808035213114, 0.0005437879809874771
728.2978252686252, 0.0005492258607973519
721.0869557115101, 0.0005547181194053254
713.9474809024852, 0.0005602653005993787
706.8786939628566, 0.0005658679536053725
699.8798950127293, 0.0005715266331414262
692.9503911017122, 0.0005772418994728404
686.0894961403092, 0.0005830143184675688
679.2965308319893, 0.0005888444616522445
672.5708226059301, 0.0005947329062687669
665.9117055504257, 0.0006006802353314545
659.3185203469562, 0.0006066870376847691
652.7906142049071, 0.0006127539080616168
646.3273407969377, 0.000618881447142233
639.9280601949878, 0.0006250702616136554
633.5921388069186, 0.0006313209642297919
627.3189493137808, 0.0006376341738720899
621.1078706077037, 0.0006440105156108108
614.9582877303998, 0.0006504506207669189
608.869591812277, 0.000656955126974588
602.8411800121554, 0.0006635246782443339
596.8724554575796, 0.0006701599250267773
590.9628271857223, 0.0006768615242770451
585.1117100848736, 0.0006836301395198156
579.3185248365085, 0.0006904664409150137
573.5826978579292, 0.0006973711053241639
567.9036612454745, 0.0007043448163774055
562.2808527182915, 0.0007113882645411796
556.7137155626648, 0.0007185021471865915
551.2016985768959, 0.0007256871686584574
545.7442560167286, 0.0007329440403450419
540.3408475413155, 0.0007402734807484923
534.9909381597183, 0.0007476762155559772
529.693998177939, 0.000755152977711537
524.4495031464742, 0.0007627045074886523
519.2569338083903, 0.0007703315525635388
514.1157760479111, 0.0007780348680891743
509.025520839516, 0.000785815216770066
503.9856641975406, 0.0007936733689377667
498.9957071262778, 0.0008016101026271443
494.0551555705721, 0.0008096262036534158
489.1635203669031, 0.0008177224656899499
484.32031719495353, 0.0008258996903468494
479.52506652965695, 0.000834158687250318
474.7772935937197, 0.0008425002741228212
470.0765283106136, 0.0008509252768640494
465.42230525803325, 0.0008594345296326899
460.8141636218151, 0.0008680288749290168
456.251647150312, 0.000876709163678307
451.7343041092198, 0.00088547625531509
447.2616872368513, 0.0008943310178682409
442.83335369985275, 0.0009032743280469233
438.44886504935914, 0.0009123070713273926
434.1077871775833, 0.0009214301420406665
429.80969027483496, 0.0009306444434610732
425.5541487869653, 0.0009399508878956839
421.34074137323296, 0.0009493503967746408
417.1690508645871, 0.0009588439007423872
413.0386642223635, 0.000968432339749811
408.94917249738955, 0.0009781166631473092
404.9001707894946, 0.0009878978297787823
400.8912582074204, 0.0009977768080765702
396.9220378291291, 0.0010077545761573358
392.9921166625041, 0.0010178321219189092
389.10110560643966, 0.0010280104431380983
385.24861941231654, 0.0010382905475694792
381.43427664585795, 0.001048673453045174
377.6576996493643, 0.0010591601875756258
373.9185145043211, 0.001069751789451382
370.21635099437736, 0.0010804493073458957
366.5508425686905, 0.0010912538004193546
362.9216263056341, 0.0011021663384235482
359.32834287686546, 0.0011131880018077837
355.77063651174797, 0.0011243198818258616
352.24815496212665, 0.0011355630806441203
348.76054946745217, 0.0011469187114505615
345.3074747202497, 0.001158387898565067
341.88858883193035, 0.0011699717775507177
338.5035532989409, 0.001181671495326225
335.15203296924847, 0.0011934882102794871
331.83369600915694, 0.001205423092382282
328.5482138704524, 0.0012174773233061048
325.2952612578736, 0.001229652096539166
322.0745160969046, 0.0012419486175045576
318.8856595018857, 0.0012543681036796032
315.72837574444134, 0.0012669117847163992
312.6023522222191, 0.0012795809025635632
309.5072794279397, 0.0012923767115891988
306.4428509187522, 0.0013053004787050909
303.40876328589326, 0.0013183534834921417
300.40471612464677, 0.0013315370183270632
297.4304120046008, 0.0013448523885103338
294.48555644019876, 0.0013583009123954372
291.56985786158293, 0.0013718839215193916
288.6830275857257, 0.0013856027607345855
285.8247797878472, 0.0013994587883419314
282.99483147311605, 0.0014134533762253506
280.1929024486298, 0.001427587909987604
277.41871529567305, 0.00144186378908748
274.6719953422505, 0.001456282426978355
271.95247063589164, 0.0014708452512481385
269.25987191672436, 0.00148555370376062
266.59393259081617, 0.0015004092407982263
263.9543887037784, 0.0015154133332062085
261.3409789146321, 0.0015305674665382705
258.75344446993273, 0.0015458731412036533
256.19152917815126, 0.0015613318726156898
253.65497938430818, 0.0015769451913418466
251.14354394485957, 0.001592714643255265
248.65697420283126, 0.0016086417896878178
246.19502396319928, 0.001624728207584696
243.75744946851415, 0.0016409754896605428
241.34400937476647, 0.0016573852445571483
238.95446472749154, 0.00167395909700272
236.58857893811043, 0.0016906986879727472
234.24611776050537, 0.0017076056748524747
231.9268492678271, 0.0017246817316009994
229.63054382953177, 0.0017419285489170095
227.3569740886453, 0.0017593478344061796
225.10591493925278, 0.0017769413127502415
222.87714350421066, 0.001794710725877744
220.67043911307985, 0.0018126578331365214
218.48558328027707, 0.0018307844114678867
216.32235968344264, 0.0018490922555825656
214.18055414202243, 0.0018675831781383913
212.0599545960618, 0.0018862590099197752
209.9603510852097, 0.001905121600018973
207.8815357279304, 0.0019241728160191627
205.8233027009212, 0.0019434145441793542
203.78544821873388, 0.0019628486896211476
201.7677705135979, 0.001982477176517359
199.77006981544343, 0.002002301948282533
197.79214833212222, 0.002022324967765358
195.83381022982397, 0.002042548217443012
193.89486161368708, 0.002062973699617442
191.97511050860106, 0.0020836034366136166
190.0743668401991, 0.0021044394709797526
188.19244241603872, 0.00212548386568955
186.329150906969, 0.0021467387043464458
184.4843078286822, 0.00216820609138991
182.6577305234477, 0.0021898881523038094
180.84923814202745, 0.0022117870338268474
179.05865162576976, 0.0022339049041651157
177.28579368888094, 0.0022562439532067668
175.53048880087223, 0.0022788063927388345
173.79256316918043, 0.0023015944566662228
172.07184472196082, 0.002324610401232885
170.36816309105032, 0.002347856505245214
168.6813495950993, 0.002371335070297666
167.01123722287062, 0.0023950484210006426
165.35766061670358, 0.002418998905210649
163.72045605614215, 0.0024431888942627556
162.0994614417249, 0.002467620783205383
160.49451627893555, 0.002492296991037437
158.9054616623124, 0.0025172199609478116
157.33214025971526, 0.0025423921605572898
155.7743962967478, 0.0025678160821628626
154.23207554133444, 0.002593494242984491
152.70502528844995, 0.002619429185414336
151.19309434499993, 0.0026456234772684797
149.6961330148514, 0.0026720797120411647
148.2139930840113, 0.0026988005091615765
146.74652780595176, 0.0027257885142531924
145.29359188708094, 0.0027530463993957243
143.85504147235736, 0.0027805768633896817
142.4307341310469, 0.0028083826320235783
141.0205288426207, 0.002836466458343814
139.62428598279277, 0.002864831122927252
138.24186730969583, 0.0028934794341565245
136.8731359501939, 0.0029224142284980897
135.51795638633058, 0.002951638370783071
134.17619444191146, 0.0029811547544909014
132.8477172692193, 0.0030109663020358103
131.53239333586066, 0.0030410759650561685
130.23009241174321, 0.0030714867247067304
128.94068555618142, 0.003102201591953798
127.6640451051301, 0.003133223607873336
126.40004465854466, 0.003164555843952069
125.148559067866, 0.0031962014023915897
123.9094644236297, 0.003228163416415506
122.68263804319771, 0.003260445050579661
121.4679584586116, 0.0032930495010854576
120.26530540456594, 0.0033259799960963124
119.07455980650091, 0.0033592397960572756
117.89560376881279, 0.0033928321940178484
116.72832056318099, 0.003426760515958027
115.57259461701088, 0.003461028121117607
114.42831150199098, 0.003495638402328783
113.29535792276333, 0.003530594786352071
112.17362170570628, 0.0035659007342155914
111.062991787828, 0.0036015597415577473
109.96335820577029, 0.0036375753389733248
108.87461208492108, 0.003673951092363058
107.79664562863474, 0.003710690603286689
106.72935210755914, 0.003747797509319556
105.67262584906845, 0.0037852754844127515
104.62636222680045, 0.003823128239256879
103.59045765029748, 0.0038613595216494476
102.56480955474998, 0.003899973116865942
101.54931639084155, 0.0039389728480346015
100.54387761469461, 0.003978362576514948
99.54839367791546, 0.004018146202280097
98.56276601773806, 0.004058327664302899
97.58689704726541, 0.004098910940945928
96.62069014580732, 0.004139900050355388
95.66404964931418, 0.0041812990508589415
94.71688084090512, 0.004223112041367531
93.77908994149021, 0.004265343161781207
92.85058410048536, 0.004307996593399019
91.93127138661916, 0.004351076559333009
91.02106077883084, 0.0043945873249263395
90.11986215725825, 0.004438533198175603
89.2275862943151, 0.00448291853015736
88.34414484585655, 0.004527747715458933
87.46945034243222, 0.004573025192613522
86.60341618062597, 0.004618755444539657
85.74595661448116, 0.004664942998985054
84.89698674701106, 0.004711592428974904
84.05642252179311, 0.004758708353264653
83.22418071464664, 0.0048062954367973
82.40017892539271, 0.004854358391165273
81.58433556969575, 0.004902901975076926
80.7765698709859, 0.004951930994827695
79.97680185246129, 0.005001450304775972
79.18495232916959, 0.005051464807823732
78.4009429001679, 0.005101979455901969
77.6246959407603, 0.005152999250460989
76.85613459481219, 0.0052045292429655984
76.09518276714078, 0.005256574535395254
75.34176511598098, 0.005309140280749206
74.59580704552572, 0.0053622316835566985
73.85723469854032, 0.0054158540003922655
73.12597494904982, 0.0054700125403961885
72.40195539509882, 0.0055247126658001505
71.68510435158299, 0.005579959792458152
70.97535084315147, 0.005635759390382734
70.27262459717969, 0.005692116984286561
69.57685603681156, 0.005749038154129427
68.88797627407085, 0.005806528535670721
68.20591710304045, 0.005864593821027429
67.53061099310935, 0.005923239759237703
66.8619910822865, 0.00598247215683008
66.19999117058067, 0.006042296878398381
65.54454571344623, 0.0061027198471823646
64.89558981529328, 0.0061637470456541886
64.25305922306266, 0.00622538451611073
63.61689031986401, 0.006287638361271838
62.987020118677236, 0.006350514744884557
62.36338625611607, 0.0064140198923334025
61.74592698625354, 0.006478160091256737
61.13458117450845, 0.0065429416921693045
60.52928829159252, 0.0066083711090909976
59.92998840751735, 0.0066744548201819074
59.33662218566074, 0.006741199368383727
58.74913087689182, 0.006808611362067564
58.16745631375428, 0.00687669747568824
57.59154090470721, 0.006945464450445122
57.02132762842297, 0.007014919094949574
56.45676002814156, 0.00708506828589907
55.89778220608075, 0.007155918968758061
55.344338817901736, 0.007227478158445641
54.796375067229434, 0.007299752940030098
54.25383670022716, 0.007372750469430399
53.716670000224916, 0.007446477974124703
53.1848217824009, 0.00752094275386595
52.658239388515746, 0.007596152181404609
52.13687068169876, 0.0076721137032186556
51.6206640412859, 0.0077488348402508424
51.10956835770881, 0.007826323188653351
50.603533027434466, 0.007904586420539884
50.10250794795491, 0.007983632284745284
49.606443512826644, 0.008063468607592737
49.11529060675905, 0.008144103293668666
48.62900060075153, 0.008225544326605352
48.147525347278744, 0.008307799769871406
47.67081717552351, 0.00839087776757012
47.19882888665694, 0.00847478654524582
46.731513749165295, 0.008559534410698278
46.26882549422306, 0.008645129754805261
45.810718311111934, 0.008731581052353315
45.35714684268508, 0.008818896862876848
44.90806618087632, 0.008907085831505616
44.463431862253785, 0.008996156689820673
44.023199863617606, 0.00908611825671888
43.5873265976412, 0.009176979439286068
43.15576890855564, 0.009268749233678928
42.72848406787688, 0.009361436726015717
42.305429770175124, 0.009455051093275874
41.88656412888626, 0.009549601604208632
41.47184567216462, 0.009645097620250719
41.061233338776844, 0.009741548596453226
40.65468647403648, 0.009838964082417759
40.25216482577869, 0.009937353723241936
39.85362854037494, 0.010036727260474356
39.459038158787074, 0.0101370945330791
39.06835461266047, 0.01023846547840989
38.68153922045591, 0.01034085013319399
38.29855368361971, 0.01044425863452593
37.9193600827918, 0.010548701220871188
37.54392087405128, 0.010654188233079901
37.172198885199286, 0.0107607301154107
36.8041573120785, 0.010868337416564807
36.43975971492921, 0.010977020790730456
36.0789700147814, 0.01108679099863776
35.72175248988257, 0.011197658908624139
35.36807177216096, 0.01130963549771038
35.01789284372372, 0.011422731852687483
34.67118103338982, 0.011536959171214358
34.32790201325725, 0.011652328762926501
33.98802179530421, 0.011768852050555766
33.65150672802397, 0.011886540571061324
33.31832349309304, 0.012005405976771938
32.98843910207231, 0.012125460036539658
32.6618208931409, 0.012246714636905055
32.33843652786228, 0.012369181783274105
32.018253987982455, 0.012492873601106846
31.701241572259857, 0.012617802337117914
31.38736789332659, 0.012743980360489094
31.076601874580785, 0.012871420164093985
30.768912747109685, 0.013000134365734925
30.46427004664325, 0.013130135709392275
30.162643610537874, 0.013261437066486198
29.864003574789976, 0.013394051437151059
29.56832037107918, 0.01352799195152257
29.275564723840773, 0.013663271871037797
28.9857076473671, 0.013799904589748176
28.69872044293772, 0.013937903635645657
28.414574695977944, 0.014077282672002114
28.133242273245486, 0.014218055498722135
27.854695320045035, 0.014360236053709357
27.578906257470337, 0.01450383841424645
27.3058477796736, 0.014648876798388914
27.03549285116198, 0.014795365566372802
26.767814704120774, 0.01494331922203653
26.502786835763143, 0.015092752414256895
26.240383005706082, 0.015243679938399464
25.980577233372358, 0.015396116737783459
25.723343795418174, 0.015550077905161294
25.468657223186312, 0.015705578684212906
25.216492300184466, 0.015862634471055036
24.966824059588582, 0.016021260815765586
24.71962778177087, 0.016181473423923242
24.47487899185235, 0.016343288158162474
24.232553457279554, 0.0165067210397441
23.992627185425302, 0.01667178825014154
23.755076421213168, 0.016838506132642955
23.519877644765515, 0.017006891193969385
23.287007569074767, 0.017176960105909078
23.05644313769779, 0.01734872970696817
22.82816152247306, 0.01752221700403785
22.602140121260454, 0.01769743917407823
22.37835655570342, 0.017874413565819012
22.156788669013284, 0.018053157701477203
21.937414523775526, 0.018233689278491977
21.72021239977775, 0.018416026171276897
21.505160791859158, 0.018600186432989666
21.292238407781344, 0.018786188297319564
21.081424166120144, 0.01897405018029276
20.87269719417836, 0.019163790682095685
20.666036825919168, 0.019355428588916642
20.46142259991997, 0.019548982874805807
20.258834257346503, 0.019744472703553867
20.058251739947035, 0.019941917430589404
19.85965518806637, 0.0201413366048953
19.663024938679573, 0.020342749970944252
19.468341523445122, 0.020546177470653695
19.27558566677735, 0.02075163924536023
19.08473828393797, 0.020959155637813833
18.895780479146506, 0.021168747194191973
18.70869354370941, 0.021380434666133895
18.52345895416773, 0.021594239012795235
18.3400583704631, 0.021810181402923186
18.158473634121883, 0.022028283216952417
17.97868676645731, 0.02224856604912194
17.800679966789417, 0.02247105170961316
17.62443561068259, 0.02269576222670929
17.449936248200583, 0.022922719848976383
17.277164602178797, 0.023151947047466148
17.10610356651366, 0.02338346651794081
16.93673620446897, 0.023617301183120217
16.76904574699898, 0.02385347419495142
16.6030155910881, 0.024092008936900933
16.438629298107028, 0.024332929026269944
16.275870592185175, 0.024576258316532644
16.114723358599186, 0.02482202089969797
15.955171642177412, 0.02507024110869495
15.797199645720207, 0.0253209435197819
15.640791728435849, 0.02557415295497972
15.48593240439193, 0.025829894484529516
15.332606340982109, 0.026088193429374813
15.180798357408028, 0.02634907536366856
15.030493423176265, 0.026612566117305246
14.881676656610164, 0.0268786917784783
14.7343333233764, 0.02714747869626308
14.588448835026139, 0.027418953483225712
14.444008747550633, 0.027693143018057968
14.30099875995112, 0.027970074448238548
14.159404712822893, 0.028249775192720934
14.019212586953358, 0.028532272944648145
13.880408501934017, 0.02881759567409463
13.742978714786156, 0.029105771630835574
13.606909618600154, 0.02939682934714393
13.47218774118827, 0.02969079764061537
13.338799743750762, 0.029987705617021524
13.20673241955521, 0.03028758267319174
13.075972692628921, 0.030590458499923655
12.94650761646428, 0.03089636308492289
12.81832437273691, 0.03120532671577212
12.691410270036545, 0.03151737998292984
12.56575274261044, 0.03183255378275914
12.441339349119248, 0.03215087932058673
12.318157771405197, 0.0324723881137926
12.196195813272471, 0.032797111994930524
12.075441399279676, 0.03312508311487983
11.955882573544233, 0.03345633394602863
11.837507498558645, 0.03379089728548892
11.720304454018459, 0.03412880625834381
11.60426183566184, 0.03447009432092725
11.489368154120635, 0.03481479526413652
11.375612033782804, 0.03516294321677789
11.262982211666143, 0.03551457264894567
11.15146753630311, 0.03586971837543513
11.041056966636745, 0.03622841555918948
10.93173957092747, 0.03659069971478138
10.82350452567076, 0.03695660671192919
10.716341114525505, 0.03732617277904848
10.610238727252975, 0.03769943450683897
10.505186858666313, 0.03807642885190736
10.401175107590408, 0.038457193140426435
10.298193175832086, 0.0388417650718307
10.196230867160482, 0.03923018272254901
10.095278086297506, 0.039622484549774496
9.995324837918323, 0.040018709395272245
9.896361225661705, 0.04041889648922497
9.798377451150204, 0.04082308545411722
9.701363813020004, 0.04123131630865839
9.6053107059604, 0.04164362947174497
9.510208619762773, 0.04206006576646242
9.416048138378983, 0.042480666424127046
9.322819938989092, 0.04290547308836832
9.230514791078308, 0.043334527819252004
9.139123555523078, 0.043767873097444523
9.048637183686216, 0.04420555182841897
8.959046716521005, 0.04464760734670316
8.870343283684162, 0.04509408342017019
8.782518102657587, 0.045545024254371895
8.695562477878799, 0.04600047449691561
8.609467799879999, 0.04646047924188477
8.524225544435643, 0.046925084034303614
8.439827271718459, 0.04739433487464665
8.35626462546382, 0.04786827822339312
8.273529332142395, 0.04834696100562705
8.191613200140987, 0.04883043061568332
8.110508118951472, 0.04931873492184015
8.030206058367794, 0.04981192227105855
7.950699067690885, 0.050310041493769136
7.87197927494147, 0.05081314190870683
7.7940388860806635, 0.0513212733277939
7.716870184238281, 0.051834486061071834
7.640465528948793, 0.05235283092168255
7.564817355394845, 0.05287635923089938
7.489918173658261, 0.053405122823208376
7.415760567978476, 0.05393917405144046
7.342337196018293, 0.05447856579195487
7.269640788136924, 0.05502335144987442
7.197664146670221, 0.05557358496437317
7.1264001452180405, 0.0561293208140169
7.055841727938654, 0.05669061402215707
6.985981908850153, 0.05725752016237864
6.916813771138765, 0.05783009536400242
6.8483304664740245, 0.05840839631764245
6.7805252143307175, 0.058992480280818875
6.713391301317542, 0.05958240508362706
6.646922080512418, 0.060178229134463336
6.5811109708043745, 0.06078001142580797
6.515951456241955, 0.06138781154006605
6.451437085388074, 0.06200168965546671
6.387561470681262, 0.06262170655202137
6.324318287803229, 0.06324792361754158
6.261701275052702, 0.063880402853717
6.199704232725448, 0.06451920688225417
6.138321022500443, 0.06516439895107672
6.077545566832121, 0.06581604294058749
6.017371848348635, 0.06647420336999336
5.9577939092560745, 0.06713894540369329
5.898805850748589, 0.06781033485773022
5.840401832424345, 0.06848843820630753
5.782576071707273, 0.0691733225883706
5.725322843274528, 0.0698650558142543
5.668636478489632, 0.07056370637239684
5.61251136484122, 0.0712693434361208
5.556941945387346, 0.07198203687048202
5.501922718205293, 0.07270185723918685
5.447448235846824, 0.07342887581157871
5.393513104798836, 0.0741631645696945
5.340111984949342, 0.07490479621539145
5.287239589058755, 0.07565384417754537
5.234890682236391, 0.07641038261932082
5.183060081422169, 0.07717448644551403
5.131742654873435, 0.07794623130996917
5.080933321656866, 0.07872569362306886
5.030627051145411, 0.07951295055929955
4.98081886252021, 0.08030808006489254
4.931503824277436, 0.08111116086554146
4.882677053740036, 0.08192227247419688
4.834333716574292, 0.08274149519893885
4.78646902631118, 0.08356891015092824
4.739078243872456, 0.08440459925243753
4.692156677101441, 0.0852486452449619
4.645699680298457, 0.08610113169741151
4.599702653760848, 0.08696214301438564
4.554161043327572, 0.08783176444452949
4.50907033992829, 0.08871008208897478
4.464426079136921, 0.08959718290986453
4.420223840729625, 0.09049315473896317
4.376459248247153, 0.0913980862863528
4.333127968561538, 0.09231206714921633
4.290225711447067, 0.0932351878207085
4.247748229155512, 0.09416753969891559
4.205691315995556, 0.09510921509590474
4.164050807916392, 0.09606030724686379
4.122822582095438, 0.09702091031933242
4.082002556530137, 0.09799111942252575
4.041586689633799, 0.09897103061675101
4.001570979835444, 0.09996074092291853
3.961951465183607, 0.10096034833214772
3.922724222954067, 0.1019699518154692
3.883885369261452, 0.1029896513336239
3.845431058674705, 0.10401954784696013
3.8073574838363413, 0.10505974332542974
3.7696608750854868, 0.10611034075868403
3.73233750008464, 0.10717144416627088
3.6953836634501385, 0.10824315860793358
3.658795706386276, 0.10932559019401292
3.6225700063230453, 0.11041884609595305
3.5867029765574707, 0.11152303455691258
3.551191065898486, 0.1126382649024817
3.5160307583153325, 0.11376464755150652
3.4812185725894382, 0.11490229402702158
3.446751061969741, 0.1160513169672918
3.4126248138314264, 0.11721183013696472
3.378836449338046, 0.11838394843833437
3.345382623106976, 0.11956778792271772
3.312260022878194, 0.1207634658019449
3.279465369186331, 0.12197110045996434
3.2469954150359714, 0.12319081146456398
3.2148469455801694, 0.12442271957920963
3.183016777802148, 0.12566694677500173
3.151501760200146, 0.12692361624275175
3.120298772475392, 0.12819285240517928
3.0894047252231607, 0.12947478092923106
3.0588165596268917, 0.13076952873852338
3.0285312471553385, 0.1320772240259086
2.998545789262711, 0.1333979962661677
2.9688572170917933, 0.13473197622882938
2.939462591179993, 0.13607929599111768
2.91035900116831, 0.13744008895102885
2.8815435655131783, 0.13881448984053915
2.8530134312011666, 0.14020263473894454
2.8247657734665013, 0.141604661086334
2.7967977955113876, 0.14302070769719732
2.7691067282290964, 0.1444509147741693
2.7416898299297987, 0.145895423921911
2.714544386069108, 0.1473543781611301
2.6876677089793146, 0.1488279219427414
2.661057137603282, 0.1503162011621688
2.6347100372309726, 0.15181936317379047
2.6086237992385866, 0.15333755680552838
2.582795840830284, 0.15487093237358365
2.5572236047824592, 0.15641964169731948
2.531904559190554, 0.15798383811429267
2.5068361972183704, 0.1595636764954356
2.4820160368498714, 0.16115931326038996
2.4574416206434373, 0.16277090639299385
2.4331105154885515, 0.1643986154569238
2.4090203123649028, 0.16604260161149303
2.385168626103864, 0.16770302762760797
2.3615530951523405, 0.16938005790388405
2.338171381338951, 0.1710738584829229
2.3150211696425256, 0.17278459706775212
2.292100167962897, 0.17451244303842964
2.2694061068939573, 0.17625756746881394
2.2469367394989677, 0.17802014314350206
2.2246898410880864, 0.1798003445749371
2.2026632089981053, 0.18159834802068647
2.1808546623743617, 0.18341433150089334
2.1592620419548134, 0.1852484748159023
2.137883209856251, 0.1871009595640613
2.1167160493626245, 0.18897196915970194
2.09575846471547, 0.19086168885129895
2.075008380906406, 0.19277030573981194
2.0544637434716893, 0.19469800879721005
2.034122518288801, 0.19664498888518214
2.0139826913750505, 0.19861143877403398
1.9940422686881687, 0.20059755316177433
1.97429927592888, 0.20260352869339207
1.9547517583454257, 0.204629563980326
1.9353977805400253, 0.20667585962012927
1.9162354262772527, 0.20874261821633056
1.8972627982943095, 0.21083004439849387
1.878478018113178, 0.2129383448424788
1.8598792258546315, 0.2150677282909036
1.8414645800540905, 0.21721840557381264
1.8232322574792976, 0.21939058962955077
1.8051804529497997, 0.22158449552584628
1.7873073791582172, 0.22380034048110475
1.7696112664932844, 0.22603834388591582
1.752090362864638, 0.22829872732477496
1.7347429335293447, 0.2305817145980227
1.7175672609201433, 0.23288753174400292
1.7005616444753895, 0.23521640706144295
1.6837244004706826, 0.23756857113205737
1.667053861852161, 0.23994425684337795
1.6505483780714465, 0.24234369941181172
1.6342063149222243, 0.24476713640592984
1.61802605437844, 0.24721480776998914
1.602005994434099, 0.24968695584768902
1.5861445489446524, 0.2521838254061659
1.570440147469953, 0.25470566366022757
1.5548912351187654, 0.25725272029682983
1.5394962723948171, 0.25982524749979813
1.5242537350443732, 0.26242349997479614
1.5091621139053202, 0.2650477349745441
1.4942199147577429, 0.26769821232428953
1.4794256581759828, 0.27037519444753244
1.4647778793821613, 0.27307894639200775
1.45027512810115, 0.27580973585592783
1.4359159684169798, 0.27856783321448714
1.421698978630673, 0.281353511546632
1.407622751119478, 0.28416704666209835
1.3936858921975033, 0.28700871712871934
1.379887021977726, 0.2898788043000065
1.3662247742353721, 0.2927775923430066
1.3526977962726456, 0.2957053682664367
1.3393047487847978, 0.29866242194910103
1.3260443057275224, 0.30164904616859206
1.3129151541856656, 0.304665536630278
1.2999159942432335, 0.3077121919965808
1.2870455388546866, 0.3107893139165466
1.2743025137175115, 0.31389720705571206
1.2616856571460509, 0.3170361791262692
1.249193719946585, 0.32020654091753187
1.2368254652936486, 0.3234086063267072
1.2245796686075727, 0.3266426923899743
1.2124551174332403, 0.329909119313874
1.20045061132004, 0.33320821050701277
1.1885649617030098, 0.3365402926120829
1.1767969917851582, 0.3399056955382037
1.1651455364209486, 0.3433047524935858
1.1536094420009393, 0.3467378000185216
1.1421875663375638, 0.3502051780187068
1.1308787785520433, 0.3537072297988939
1.1196819589624192, 0.35724430209688285
1.1085959989726921, 0.36081674511785167
1.0976198009630616, 0.3644249125690302
1.086752278181249, 0.3680691616947205
1.0759923546349, 0.3717498533116677
1.0653389649850495, 0.3754673518447844
1.0547910544406431, 0.37922202536323224
1.0443475786541019, 0.3830142456168646
1.0340075036179228, 0.38684438807303323
1.0237698055622997, 0.39071283195376355
1.0136334708537622, 0.3946199602733012
1.003597495894814, 0.3985661598760342
0.9936608870245682, 0.40255182147479457
0.9838226604203646, 0.4065773396895425
0.974081842000361, 0.41064311308643797
0.96443746732709, 0.41474954421730237
0.9548885815119703, 0.4188970396594754
0.9454342391207626, 0.42308601005607016
0.9360735040799629, 0.4273168701566309
0.9268054495841217, 0.4315900388581972
0.917629158004081, 0.4359059392467792
0.9085437207961198, 0.44026499863924695
0.8995482384119998, 0.4446676486256394
0.8906418202099008, 0.4491143251118958
0.8818235843662383, 0.4536054683630148
0.8730926577883548, 0.45814152304664496
0.864448176028074, 0.4627229382771114
0.8558892831961129, 0.4673501676598825
0.8474151318773394, 0.4720236693364814
0.8390248830468707, 0.4767439060298462
0.8307177059870007, 0.48151134509014465
0.8224927782049511, 0.4863264585410461
0.8143492853514368, 0.4911897231264566
0.8062864211400365, 0.49610162035772115
0.7983033872673628, 0.5010626365612983
0.7903993933340225, 0.5060732629269113
0.782573656766359, 0.5111339955561804
0.7748254027389694, 0.5162453355117422
0.7671538640979894, 0.5214077888668597
0.759558281285138, 0.5266218667555282
0.752037902262513, 0.5318880854230835
0.7445919824381316, 0.5372069662773143
0.7372197845922095, 0.5425790359400875
0.7299205788041679, 0.5480048262994883
0.7226936423803643, 0.5534848745624832
0.7155382597825389, 0.559019723308108
0.7084537225569693, 0.5646099205411891
0.701439329264326, 0.570256019746601
0.6944943854102237, 0.5759585799440671
0.6876182033764591, 0.5817181657435078
0.6808101023529297, 0.5875353474009428
0.6740694082702274, 0.5934107008749523
0.6673954537328984, 0.5993448078837018
0.6607875779533647, 0.6053382559625389
0.6542451266864997, 0.6113916385221643
0.6477674521648512, 0.6175055549073859
0.6413539130345062, 0.6236806104564597
0.6350038742915903, 0.6299174165610243
0.6287167072193964, 0.6362165907266345
0.622491789326135, 0.6425787566339008
0.616328504283302, 0.6490045442002399
0.6102262418646555, 0.6554945896422423
0.6041843978857975, 0.6620495355386647
0.5982023741443538, 0.6686700308940514
0.5922795783607465, 0.6753567312029919
0.5864154241195509, 0.6821102985150218
0.5806093308114365, 0.6889314015001721
0.5748607235756797, 0.6958207155151738
0.5691690332432473, 0.7027789226703255
0.5635336962804429, 0.7098067118970287
0.5579541547331117, 0.716904779015999
0.5524298561713977, 0.7240738268061591
0.5469602536350473, 0.7313145650742207
0.5415448055792547, 0.7386277107249629
0.5361829758210442, 0.7460139878322125
0.5308742334861825, 0.7534741277105347
0.5256180529566162, 0.7610088689876401
0.5204139138184318, 0.7686189576775165
0.5152613008103286, 0.7763051472542917
0.5101597037726026, 0.7840681987268346
0.5051086175966362, 0.791908880714103
0.5001075421748873, 0.799827969521244
0.49515598235137354, 0.8078262492164565
0.4902534478726471, 0.8159045117086211
0.4853994533392545, 0.8240635568257073
0.48059351815767776, 0.8323041923939644
0.47583516649275026, 0.840627234317904
0.4711239272205448, 0.849033506661083
0.46645933388172756, 0.8575238417276938
0.46184092463537385, 0.8660990801449707
0.4572682422132414, 0.8747600709464204
0.4527408338744965, 0.8835076716558846
0.4482582513608876, 0.8923427483724434
0.443820050852364, 0.9012661758561679
0.43942579292313266, 0.9102788376147295
0.43507504249815115, 0.9193816259908768
0.4307673688100506, 0.9285754422507856
0.42650234535648573, 0.9378611966732935
0.42227954985790667, 0.9472398086400264
0.41809856421574915, 0.9567122067264268
0.41395897447103874, 0.966279328793691
0.4098603707634047, 0.975942122081628
0.4058023472904997, 0.9857015433024443
0.4017845022678215, 0.9955585587354687
0.4, 1
*Contact Pair, interaction=INTERFACE, type=NODE TO SURFACE, adjust=0, smooth=0
S_FUEL_RIGHT, S_CLAD_LEFT
*Amplitude, name=AXIAL_LOADING, time=TOTAL TIME
0, 0, 0.5, 2e-6, 20, 2e-5
*Amplitude, name=POWER, time=TOTAL TIME
0, 0, 20, 1
*Step, name=PRELOAD, nlgeom=NO, inc=1
*Coupled Temperature-Displacement, cetol=1e-4
0.5, 0.5, 0.5, 0.5
*Controls, parameters=FIELD, field=DISPLACEMENT
1e-10, 1e-10, , , , 1e-10
*Controls, parameters=FIELD, field=TEMPERATURE
1e-10, 1e-10, , , , 1e-10
*Boundary
FUEL_LEFT, 1, 1, 0
CLAD_BOTTOM, 2, 2, 0
CLAD_RIGHT, 11, 11, 600
FUEL_BOTTOM, 2, 2, 0
*Boundary, amplitude=AXIAL_LOADING
CLAD_TOP, 2, 2, 1
*Dflux, amplitude=POWER
FUEL, BF, 2e8
*Output, field, frequency=1
*Node Output
NT, U, RF, RFL
*Element Output, directions=YES
S, EE, PE, PEEQ, CE, CEEQ, COORD, IVOL, HFL
*Contact Output
CSTRESS, CDISP, CFORCE, HFL
*Output, history, frequency=0
*End Step
*Step, name=PCMI, nlgeom=NO, inc=20
*Coupled Temperature-Displacement, cetol=1e-4
1, 19.5, 1, 1
*Controls, parameters=FIELD, field=DISPLACEMENT
1e-10, 1e-10, , , , 1e-10
*Controls, parameters=FIELD, field=TEMPERATURE
1e-10, 1e-10, , , , 1e-10
*Boundary
FUEL_LEFT, 1, 1, 0
CLAD_BOTTOM, 2, 2, 0
CLAD_RIGHT, 11, 11, 600
FUEL_BOTTOM, 2, 2, 0
*Boundary, amplitude=AXIAL_LOADING
CLAD_TOP, 2, 2, 1
*Dflux, amplitude=POWER
FUEL, BF, 2e8
*Output, field, frequency=1
*Node Output
NT, U, RF, RFL
*Element Output, directions=YES
S, EE, PE, PEEQ, CE, CEEQ, COORD, IVOL, HFL
*Contact Output
CSTRESS, CDISP, CFORCE, HFL
*Output, history, frequency=0
*End Step
