*Heading
** Native CAX4T annulus with generalized-plane-strain constraints.
** Radial displacement and the top axial displacement are solved, not prescribed.
*Preprint, echo=NO, model=NO, history=NO, contact=NO
*Node
1, 0.004, 0
2, 0.005, 0
3, 0.005, 0.01
4, 0.004, 0.01
*Element, type=CAX4T, elset=ANNULUS
1, 1, 2, 3, 4
*Nset, nset=ALL
1, 2, 3, 4
*Nset, nset=BOTTOM
1, 2
*Equation
2
4, 1, 1, 1, 1, -1
*Equation
2
3, 1, 1, 2, 1, -1
*Equation
2
3, 2, 1, 4, 2, -1
*Material, name=SOLID
*Elastic
1e9, 0.3
*Expansion, zero=600
1e-5
*Conductivity
10
*Density
1000
*Specific Heat
1000
*Solid Section, elset=ANNULUS, material=SOLID
,
*Initial Conditions, type=TEMPERATURE
ALL, 600
*Amplitude, name=TEMPERATURE, time=TOTAL TIME
0, 600, 1, 650
*Amplitude, name=AXIAL_FORCE, time=TOTAL TIME
0, 0, 1, 28.274333882308138
*Step, name=THERMAL_AXIAL, nlgeom=NO, inc=10
*Coupled Temperature-Displacement
0.1, 1, 0.1, 0.1
*Controls, parameters=FIELD, field=DISPLACEMENT
1e-10, 1e-10, , , , 1e-10
*Boundary
BOTTOM, 2, 2, 0
*Boundary, amplitude=TEMPERATURE
ALL, 11, 11, 1
*Cload, amplitude=AXIAL_FORCE
4, 2, 1
*Output, field, frequency=1
*Node Output
NT, U, RF, RFL
*Element Output
S, EE
COORD, IVOL, HFL
*Output, history, frequency=0
*End Step
