*Heading
** Nonuniform diagonal finite deformation with two nonproportional stages.
** Native CAX4T, all nodal fields prescribed, ten accepted increments.
*Preprint, echo=NO, model=NO, history=NO, contact=NO
*Node
1, 0.004, 0
2, 0.005, 0
3, 0.005, 0.01
4, 0.004, 0.01
*Element, type=CAX4T, elset=ANNULUS
1, 1, 2, 3, 4
*Nset, nset=ALL
1, 2, 3, 4
*Nset, nset=INNER
1, 4
*Nset, nset=OUTER
2, 3
*Nset, nset=BOTTOM
1, 2
*Nset, nset=TOP
3, 4
*Material, name=SOLID
*Elastic
1e9, 0.3
*Expansion, zero=600
1e-5
*Conductivity
10
*Density
1000
*Specific Heat
1000
*Solid Section, elset=ANNULUS, material=SOLID
,
*Initial Conditions, type=TEMPERATURE
ALL, 600
*Amplitude, name=INNER_TEMPERATURE, time=TOTAL TIME
0, 600, 0.5, 650, 1, 700
*Amplitude, name=OUTER_TEMPERATURE, time=TOTAL TIME
0, 600, 0.5, 620, 1, 640
*Amplitude, name=INNER_RADIAL, time=TOTAL TIME
0, 0, 0.5, 0.0001, 1, 0.00015
*Amplitude, name=OUTER_RADIAL, time=TOTAL TIME
0, 0, 0.5, 0.00005, 1, 0.00025
*Amplitude, name=TOP_AXIAL, time=TOTAL TIME
0, 0, 0.5, 0.0002, 1, -0.0001
*Step, name=NONUNIFORM_FINITE, nlgeom=YES, inc=10
*Coupled Temperature-Displacement
0.1, 1, 0.1, 0.1
*Controls, parameters=FIELD, field=DISPLACEMENT
1e-10, 1e-10, , , , 1e-10
*Boundary
BOTTOM, 2, 2, 0
*Boundary, amplitude=TOP_AXIAL
TOP, 2, 2, 1
*Boundary, amplitude=INNER_RADIAL
INNER, 1, 1, 1
*Boundary, amplitude=OUTER_RADIAL
OUTER, 1, 1, 1
*Boundary, amplitude=INNER_TEMPERATURE
INNER, 11, 11, 1
*Boundary, amplitude=OUTER_TEMPERATURE
OUTER, 11, 11, 1
*Output, field, frequency=1
*Node Output
NT, U, RF, RFL
*Element Output
S, EE
COORD, IVOL, HFL
*Output, history, frequency=0
*End Step
