*Heading
** Radial thermal operators: paired endpoint k, rho and cp; small strain.
** Ten fixed increments: nonuniform heating, hold, then volumetric source.
*Preprint, echo=NO, model=NO, history=NO, contact=NO
*Node
1, 0.004, 0
2, 0.005, 0
3, 0.005, 0.01
4, 0.004, 0.01
*Element, type=CAX4T, elset=ANNULUS
1, 1, 2, 3, 4
*Nset, nset=ALL
1, 2, 3, 4
*Nset, nset=INNER
1, 4
*Nset, nset=OUTER
2, 3
*Nset, nset=BOTTOM
1, 2
*Nset, nset=TOP
3, 4
*Material, name=SOLID
*Elastic
1e9, 0.3
*Conductivity
10, 600
20, 700
*Density
1000, 600
1200, 700
*Specific Heat
1000, 600
1500, 700
*Solid Section, elset=ANNULUS, material=SOLID
,
*Initial Conditions, type=TEMPERATURE
ALL, 600
*Amplitude, name=INNER_TEMPERATURE, time=TOTAL TIME
0, 600, 0.3, 680, 0.6, 700, 1, 700
*Amplitude, name=OUTER_TEMPERATURE, time=TOTAL TIME
0, 600, 0.3, 620, 0.6, 640, 1, 640
*Amplitude, name=INNER_RADIAL, time=TOTAL TIME
0, 0, 0.3, 0.0001, 0.6, 0.00015, 1, 0.00015
*Amplitude, name=OUTER_RADIAL, time=TOTAL TIME
0, 0, 0.3, 0.00005, 0.6, 0.00025, 1, 0.00025
*Amplitude, name=TOP_AXIAL, time=TOTAL TIME
0, 0, 0.3, 0.0002, 0.6, -0.0001, 1, -0.0001
*Amplitude, name=SOURCE, time=TOTAL TIME
0, 0, 0.7, 0, 0.8, 1e7, 1, 1e7
*Step, name=THERMAL_PATH, nlgeom=NO, inc=10
*Coupled Temperature-Displacement
0.1, 1, 0.1, 0.1
*Boundary
BOTTOM, 2, 2, 0
*Boundary, amplitude=TOP_AXIAL
TOP, 2, 2, 1
*Boundary, amplitude=INNER_RADIAL
INNER, 1, 1, 1
*Boundary, amplitude=OUTER_RADIAL
OUTER, 1, 1, 1
*Boundary, amplitude=INNER_TEMPERATURE
INNER, 11, 11, 1
*Boundary, amplitude=OUTER_TEMPERATURE
OUTER, 11, 11, 1
*Dflux, amplitude=SOURCE
ANNULUS, BF, 1
*Output, field, frequency=1
*Node Output
NT, U, RF, RFL
*Element Output
S, EE, COORD, IVOL, HFL
*Output, history, frequency=0
*End Step
