*Heading
** B5.44 diagnostic: prescribe all native nodal U/T histories, with no external loads.
** Capacity isolation: constant conductivity 1e-20 W/(m*K); all other physical data unchanged.
** Reference mesh, material, initial temperature and ten accepted times match the source input.
** B5.44 connected distorted C3D8RT cantilever with temperature-dependent properties.
** The physical coefficients are prescribed independently of the comparison results.
*Preprint, echo=NO, model=NO, history=NO, contact=NO
*Node
1, 0, 0, 0
2, 1.06, -0.04, -0.025
3, 2.06, 0.04, 0.025
4, 3.06, -0.04, -0.025
5, 4, 0, 0
6, 0, 1, 0
7, 0.9399999999999999, 0.96, 0.025
8, 1.94, 1.04, -0.025
9, 2.94, 0.96, 0.025
10, 4, 1, 0
11, 0, 0, 0.5
12, 1, 0, 0.475
13, 2, 0, 0.525
14, 3, 0, 0.475
15, 4, 0, 0.5
16, 0, 1, 0.5
17, 1, 1, 0.525
18, 2, 1, 0.475
19, 3, 1, 0.525
20, 4, 1, 0.5
21, 0, 0, 1
22, 0.9399999999999999, 0.04, 0.975
23, 1.94, -0.04, 1.025
24, 2.94, 0.04, 0.975
25, 4, 0, 1
26, 0, 1, 1
27, 1.06, 1.04, 1.025
28, 2.06, 0.96, 0.975
29, 3.06, 1.04, 1.025
30, 4, 1, 1
*Element, type=C3D8RT, elset=VOLUME
1, 1, 2, 7, 6, 11, 12, 17, 16
2, 2, 3, 8, 7, 12, 13, 18, 17
3, 3, 4, 9, 8, 13, 14, 19, 18
4, 4, 5, 10, 9, 14, 15, 20, 19
5, 11, 12, 17, 16, 21, 22, 27, 26
6, 12, 13, 18, 17, 22, 23, 28, 27
7, 13, 14, 19, 18, 23, 24, 29, 28
8, 14, 15, 20, 19, 24, 25, 30, 29
*Nset, nset=ALL_NODES, generate
1, 30, 1
*Nset, nset=LEFT
1, 6, 11, 16, 21, 26
*Nset, nset=RIGHT
5, 10, 15, 20, 25, 30
*Surface, type=ELEMENT, name=RIGHT_SURFACE
4, S4
8, S4
*Surface, type=ELEMENT, name=TOP_SURFACE
5, S2
6, S2
7, S2
8, S2
*Surface, type=ELEMENT, name=Y_HIGH_SURFACE
1, S5
2, S5
3, S5
4, S5
5, S5
6, S5
7, S5
8, S5
*Material, name=TEMPERATURE_DEPENDENT
*Elastic
2.0e8, 0.25, 300.0
1.2e8, 0.25, 700.0
*Expansion, zero=300.0
1.0e-5
*Conductivity
1.0e-20
*Density
2000.0
*Specific Heat
500.0, 300.0
1000.0, 700.0
*Solid Section, elset=VOLUME, material=TEMPERATURE_DEPENDENT
,
*Initial Conditions, type=TEMPERATURE
ALL_NODES, 300.0
*Amplitude, name=N001_U1, definition=TABULAR, time=TOTAL TIME
0.0000000000000000e+00, 0.0000000000000000e+00, 1.0000000000000000e+05, -1.3275447040797870e-38, 2.0000000000000000e+05, -1.2381241038567560e-33, 3.0000000000000000e+05, 8.8460583180467649e-39
4.0000000000000000e+05, -6.6457212374394429e-38, 5.0000000000000000e+05, -1.9581862459957081e-38, 6.0000000000000000e+05, -1.4331973448214509e-38, 7.0000000000000000e+05, -1.4375700407864339e-36
8.0000000000000000e+05, -1.5266251018791281e-36, 9.0000000000000000e+05, -1.5888388608652321e-36, 1.0000000000000000e+06, -1.6917344714847329e-36
*Amplitude, name=N001_U2, definition=TABULAR, time=TOTAL TIME
0.0000000000000000e+00, 0.0000000000000000e+00, 1.0000000000000000e+05, -6.5082898862602003e-37, 2.0000000000000000e+05, -6.0870173058825417e-34, 3.0000000000000000e+05, 2.2166032622216761e-38
4.0000000000000000e+05, 1.3942636203690189e-38, 5.0000000000000000e+05, 8.7604935544755727e-39, 6.0000000000000000e+05, 6.3791729165603296e-39, 7.0000000000000000e+05, -4.6680220071257803e-37
8.0000000000000000e+05, -4.0056181234195073e-37, 9.0000000000000000e+05, -3.7339766154651310e-37, 1.0000000000000000e+06, -3.6171752134578790e-37
*Amplitude, name=N001_U3, definition=TABULAR, time=TOTAL TIME
0.0000000000000000e+00, 0.0000000000000000e+00, 1.0000000000000000e+05, -2.6056761439190179e-37, 2.0000000000000000e+05, -1.1378261566193691e-33, 3.0000000000000000e+05, 1.2151297318905501e-37
4.0000000000000000e+05, 6.5927683546908385e-38, 5.0000000000000000e+05, 4.5612340816742312e-38, 6.0000000000000000e+05, 3.4192878742072982e-38, 7.0000000000000000e+05, -2.1357298885607370e-36
8.0000000000000000e+05, -1.8654832995105069e-36, 9.0000000000000000e+05, -1.7518427443114221e-36, 1.0000000000000000e+06, -1.6866774852032901e-36
*Amplitude, name=N001_T, definition=TABULAR, time=TOTAL TIME
0.0000000000000000e+00, 3.0000000000000000e+02, 1.0000000000000000e+05, 3.0000000000000000e+02, 2.0000000000000000e+05, 3.0000000000000000e+02, 3.0000000000000000e+05, 3.0000000000000000e+02
4.0000000000000000e+05, 3.0000000000000000e+02, 5.0000000000000000e+05, 3.0000000000000000e+02, 6.0000000000000000e+05, 3.0000000000000000e+02, 7.0000000000000000e+05, 3.0000000000000000e+02
8.0000000000000000e+05, 3.0000000000000000e+02, 9.0000000000000000e+05, 3.0000000000000000e+02, 1.0000000000000000e+06, 3.0000000000000000e+02
*Amplitude, name=N002_U1, definition=TABULAR, time=TOTAL TIME
0.0000000000000000e+00, 0.0000000000000000e+00, 1.0000000000000000e+05, 4.9401908423474354e-03, 2.0000000000000000e+05, 4.9467520782551337e-03, 3.0000000000000000e+05, 4.9583584763893190e-03
4.0000000000000000e+05, 4.9706628638329408e-03, 5.0000000000000000e+05, 4.9843869868535107e-03, 6.0000000000000000e+05, 4.9991906485805006e-03, 7.0000000000000000e+05, 5.0148998583610712e-03
8.0000000000000000e+05, 5.0314055760739456e-03, 9.0000000000000000e+05, 5.0486508662752859e-03, 1.0000000000000000e+06, 5.0666033739808734e-03
*Amplitude, name=N002_U2, definition=TABULAR, time=TOTAL TIME
0.0000000000000000e+00, 0.0000000000000000e+00, 1.0000000000000000e+05, 6.6122503072034676e-03, 2.0000000000000000e+05, 6.6086872361525544e-03, 3.0000000000000000e+05, 6.5964110223030899e-03
4.0000000000000000e+05, 6.5787672204680424e-03, 5.0000000000000000e+05, 6.5574250834241673e-03, 6.0000000000000000e+05, 6.5332336738159816e-03, 7.0000000000000000e+05, 6.5066091624405367e-03
8.0000000000000000e+05, 6.4778403629846149e-03, 9.0000000000000000e+05, 6.4470500418001920e-03, 1.0000000000000000e+06, 6.4143111545853660e-03
*Amplitude, name=N002_U3, definition=TABULAR, time=TOTAL TIME
0.0000000000000000e+00, 0.0000000000000000e+00, 1.0000000000000000e+05, -3.4133679019782192e-03, 2.0000000000000000e+05, -3.4338577055195579e-03, 3.0000000000000000e+05, -3.4529038464481479e-03
4.0000000000000000e+05, -3.4846495453121789e-03, 5.0000000000000000e+05, -3.5210947400772150e-03, 6.0000000000000000e+05, -3.5612198654905308e-03, 7.0000000000000000e+05, -3.6045329331140358e-03
8.0000000000000000e+05, -3.6507147167575849e-03, 9.0000000000000000e+05, -3.6996359000416069e-03, 1.0000000000000000e+06, -3.7512363055096460e-03
*Amplitude, name=N002_T, definition=TABULAR, time=TOTAL TIME
0.0000000000000000e+00, 3.0000000000000000e+02, 1.0000000000000000e+05, 3.0047455823482238e+02, 2.0000000000000000e+05, 3.0264505525288712e+02, 3.0000000000000000e+05, 3.0624545642373852e+02
4.0000000000000000e+05, 3.1087709362949562e+02, 5.0000000000000000e+05, 3.1625330872388071e+02, 6.0000000000000000e+05, 3.2220349783204068e+02, 7.0000000000000000e+05, 3.2863899732462232e+02
8.0000000000000000e+05, 3.3550085677259108e+02, 9.0000000000000000e+05, 3.4276109272363448e+02, 1.0000000000000000e+06, 3.5040346172893271e+02
*Amplitude, name=N003_U1, definition=TABULAR, time=TOTAL TIME
0.0000000000000000e+00, 0.0000000000000000e+00, 1.0000000000000000e+05, 4.8779359124992176e-03, 2.0000000000000000e+05, 4.9133238994054007e-03, 3.0000000000000000e+05, 4.9943020331807367e-03
4.0000000000000000e+05, 5.0792022848068002e-03, 5.0000000000000000e+05, 5.1742502236247854e-03, 6.0000000000000000e+05, 5.2769292277902950e-03, 7.0000000000000000e+05, 5.3859623646287137e-03
8.0000000000000000e+05, 5.5004167361489310e-03, 9.0000000000000000e+05, 5.6198151717666801e-03, 1.0000000000000000e+06, 5.7438128787150747e-03
*Amplitude, name=N003_U2, definition=TABULAR, time=TOTAL TIME
0.0000000000000000e+00, 0.0000000000000000e+00, 1.0000000000000000e+05, 2.5025364937005270e-02, 2.0000000000000000e+05, 2.5009838539068591e-02, 3.0000000000000000e+05, 2.5004355178416430e-02
4.0000000000000000e+05, 2.4979123206494629e-02, 5.0000000000000000e+05, 2.4948399225083729e-02, 6.0000000000000000e+05, 2.4913470698331670e-02, 7.0000000000000000e+05, 2.4874954880135459e-02
8.0000000000000000e+05, 2.4833359169290779e-02, 9.0000000000000000e+05, 2.4788894839332810e-02, 1.0000000000000000e+06, 2.4741725407685829e-02
*Amplitude, name=N003_U3, definition=TABULAR, time=TOTAL TIME
0.0000000000000000e+00, 0.0000000000000000e+00, 1.0000000000000000e+05, -1.2120472762976880e-02, 2.0000000000000000e+05, -1.2192906407865340e-02, 3.0000000000000000e+05, -1.2262698444091740e-02
4.0000000000000000e+05, -1.2361784468948100e-02, 5.0000000000000000e+05, -1.2472117045774110e-02, 6.0000000000000000e+05, -1.2591392438725400e-02, 7.0000000000000000e+05, -1.2718536234537460e-02
8.0000000000000000e+05, -1.2852789225611750e-02, 9.0000000000000000e+05, -1.2993872229042551e-02, 1.0000000000000000e+06, -1.3141650028884179e-02
*Amplitude, name=N003_T, definition=TABULAR, time=TOTAL TIME
0.0000000000000000e+00, 3.0000000000000000e+02, 1.0000000000000000e+05, 3.0329140978736461e+02, 2.0000000000000000e+05, 3.1076240663600572e+02, 3.0000000000000000e+05, 3.2099732354342592e+02
4.0000000000000000e+05, 3.3299685887732818e+02, 5.0000000000000000e+05, 3.4620521764861138e+02, 6.0000000000000000e+05, 3.6032419491981437e+02, 7.0000000000000000e+05, 3.7520317109398911e+02
8.0000000000000000e+05, 3.9072648879856217e+02, 9.0000000000000000e+05, 4.0683704028868340e+02, 1.0000000000000000e+06, 4.2349268710562978e+02
*Amplitude, name=N004_U1, definition=TABULAR, time=TOTAL TIME
0.0000000000000000e+00, 0.0000000000000000e+00, 1.0000000000000000e+05, 1.4587542889197031e-03, 2.0000000000000000e+05, 1.5778666691730859e-03, 3.0000000000000000e+05, 1.7878254802761119e-03
4.0000000000000000e+05, 2.0038983518684971e-03, 5.0000000000000000e+05, 2.2382352708723522e-03, 6.0000000000000000e+05, 2.4859084634107180e-03, 7.0000000000000000e+05, 2.7443597258180580e-03
8.0000000000000000e+05, 3.0115267278134862e-03, 9.0000000000000000e+05, 3.2862695994821038e-03, 1.0000000000000000e+06, 3.5676391275417732e-03
*Amplitude, name=N004_U2, definition=TABULAR, time=TOTAL TIME
0.0000000000000000e+00, 0.0000000000000000e+00, 1.0000000000000000e+05, 4.2522261952774879e-02, 2.0000000000000000e+05, 4.2432013387498177e-02, 3.0000000000000000e+05, 4.2404244036168749e-02
4.0000000000000000e+05, 4.2329639584107771e-02, 5.0000000000000000e+05, 4.2249705809918291e-02, 6.0000000000000000e+05, 4.2165723381915113e-02, 7.0000000000000000e+05, 4.2078307245804289e-02
8.0000000000000000e+05, 4.1988021681556263e-02, 9.0000000000000000e+05, 4.1895091931927503e-02, 1.0000000000000000e+06, 4.1799712036397853e-02
*Amplitude, name=N004_U3, definition=TABULAR, time=TOTAL TIME
0.0000000000000000e+00, 0.0000000000000000e+00, 1.0000000000000000e+05, -2.4454291255134361e-02, 2.0000000000000000e+05, -2.4651503425991591e-02, 3.0000000000000000e+05, -2.4842321683250519e-02
4.0000000000000000e+05, -2.5083804976434761e-02, 5.0000000000000000e+05, -2.5345451369398340e-02, 6.0000000000000000e+05, -2.5623759686748949e-02, 7.0000000000000000e+05, -2.5917230312117151e-02
8.0000000000000000e+05, -2.6224854644990300e-02, 9.0000000000000000e+05, -2.6546456657480181e-02, 1.0000000000000000e+06, -2.6882125290045949e-02
*Amplitude, name=N004_T, definition=TABULAR, time=TOTAL TIME
0.0000000000000000e+00, 3.0000000000000000e+02, 1.0000000000000000e+05, 3.1451671326751091e+02, 2.0000000000000000e+05, 3.3518724290399769e+02, 3.0000000000000000e+05, 3.5879331046473658e+02
4.0000000000000000e+05, 3.8399335722386257e+02, 5.0000000000000000e+05, 4.1019648068862227e+02, 6.0000000000000000e+05, 4.3711476816207232e+02, 7.0000000000000000e+05, 4.6460962152440680e+02
8.0000000000000000e+05, 4.9256094988950872e+02, 9.0000000000000000e+05, 5.2091623363224778e+02, 1.0000000000000000e+06, 5.4963281134132853e+02
*Amplitude, name=N005_U1, definition=TABULAR, time=TOTAL TIME
0.0000000000000000e+00, 0.0000000000000000e+00, 1.0000000000000000e+05, 5.0857577597158976e-03, 2.0000000000000000e+05, 5.4579617349448384e-03, 3.0000000000000000e+05, 5.9335371942867811e-03
4.0000000000000000e+05, 6.4231854047762217e-03, 5.0000000000000000e+05, 6.9353338273624989e-03, 6.0000000000000000e+05, 7.4636259259911837e-03, 7.0000000000000000e+05, 8.0046826036327592e-03
8.0000000000000000e+05, 8.5557056447388407e-03, 9.0000000000000000e+05, 9.1150428136334196e-03, 1.0000000000000000e+06, 9.6812380969846425e-03
*Amplitude, name=N005_U2, definition=TABULAR, time=TOTAL TIME
0.0000000000000000e+00, 0.0000000000000000e+00, 1.0000000000000000e+05, 6.3786272020760232e-02, 2.0000000000000000e+05, 6.3571665236835037e-02, 3.0000000000000000e+05, 6.3500655483775148e-02
4.0000000000000000e+05, 6.3358100946083032e-02, 5.0000000000000000e+05, 6.3215640095789824e-02, 6.0000000000000000e+05, 6.3073237100188764e-02, 7.0000000000000000e+05, 6.2930843311793702e-02
8.0000000000000000e+05, 6.2788474478754575e-02, 9.0000000000000000e+05, 6.2646061162795946e-02, 1.0000000000000000e+06, 6.2503559472752601e-02
*Amplitude, name=N005_U3, definition=TABULAR, time=TOTAL TIME
0.0000000000000000e+00, 0.0000000000000000e+00, 1.0000000000000000e+05, -3.7217456086106673e-02, 2.0000000000000000e+05, -3.7606605894071922e-02, 3.0000000000000000e+05, -3.7976579359091732e-02
4.0000000000000000e+05, -3.8411919914042213e-02, 5.0000000000000000e+05, -3.8874607965855443e-02, 6.0000000000000000e+05, -3.9361367779850658e-02, 7.0000000000000000e+05, -3.9871202469688442e-02
8.0000000000000000e+05, -4.0403798410917229e-02, 9.0000000000000000e+05, -4.0959856550683842e-02, 1.0000000000000000e+06, -4.1540528354643481e-02
*Amplitude, name=N005_T, definition=TABULAR, time=TOTAL TIME
0.0000000000000000e+00, 3.0000000000000000e+02, 1.0000000000000000e+05, 3.4000000000000011e+02, 2.0000000000000000e+05, 3.8000000000000011e+02, 3.0000000000000000e+05, 4.2000000000000000e+02
4.0000000000000000e+05, 4.6000000000000000e+02, 5.0000000000000000e+05, 5.0000000000000000e+02, 6.0000000000000000e+05, 5.4000000000000000e+02, 7.0000000000000000e+05, 5.8000000000000000e+02
8.0000000000000000e+05, 6.2000000000000000e+02, 9.0000000000000000e+05, 6.6000000000000000e+02, 1.0000000000000000e+06, 7.0000000000000000e+02
*Amplitude, name=N006_U1, definition=TABULAR, time=TOTAL TIME
0.0000000000000000e+00, 0.0000000000000000e+00, 1.0000000000000000e+05, 6.1034994312533461e-37, 2.0000000000000000e+05, -1.1604525386815070e-33, 3.0000000000000000e+05, 1.6978751551943479e-38
4.0000000000000000e+05, -6.2020952641967981e-38, 5.0000000000000000e+05, -1.7195741234166280e-38, 6.0000000000000000e+05, -1.2709461394283579e-38, 7.0000000000000000e+05, -1.2647236843206380e-36
8.0000000000000000e+05, -1.3416562775708130e-36, 9.0000000000000000e+05, -1.3933537700609970e-36, 1.0000000000000000e+06, -1.4808997974287139e-36
*Amplitude, name=N006_U2, definition=TABULAR, time=TOTAL TIME
0.0000000000000000e+00, 0.0000000000000000e+00, 1.0000000000000000e+05, 2.4153678689529909e-38, 2.0000000000000000e+05, 1.5410429148892379e-33, 3.0000000000000000e+05, -8.2322886147242213e-38
4.0000000000000000e+05, -4.3482921010180140e-38, 5.0000000000000000e+05, -3.1189662206107361e-38, 6.0000000000000000e+05, -2.3502752779533090e-38, 7.0000000000000000e+05, 6.7949176561890648e-37
8.0000000000000000e+05, 5.1682660331265578e-37, 9.0000000000000000e+05, 4.3091495802916951e-37, 1.0000000000000000e+06, 3.5085516110235599e-37
*Amplitude, name=N006_U3, definition=TABULAR, time=TOTAL TIME
0.0000000000000000e+00, 0.0000000000000000e+00, 1.0000000000000000e+05, -3.6933564466264831e-37, 2.0000000000000000e+05, -1.5825017621799500e-33, 3.0000000000000000e+05, 1.4293784404752020e-37
4.0000000000000000e+05, 7.9025186366889579e-38, 5.0000000000000000e+05, 5.4779046683858894e-38, 6.0000000000000000e+05, 4.1146897321186749e-38, 7.0000000000000000e+05, -2.1777433602708911e-36
8.0000000000000000e+05, -1.8676554782661259e-36, 9.0000000000000000e+05, -1.7268856004999670e-36, 1.0000000000000000e+06, -1.6290393368277541e-36
*Amplitude, name=N006_T, definition=TABULAR, time=TOTAL TIME
0.0000000000000000e+00, 3.0000000000000000e+02, 1.0000000000000000e+05, 3.0000000000000000e+02, 2.0000000000000000e+05, 3.0000000000000000e+02, 3.0000000000000000e+05, 3.0000000000000000e+02
4.0000000000000000e+05, 3.0000000000000000e+02, 5.0000000000000000e+05, 3.0000000000000000e+02, 6.0000000000000000e+05, 3.0000000000000000e+02, 7.0000000000000000e+05, 3.0000000000000000e+02
8.0000000000000000e+05, 3.0000000000000000e+02, 9.0000000000000000e+05, 3.0000000000000000e+02, 1.0000000000000000e+06, 3.0000000000000000e+02
*Amplitude, name=N007_U1, definition=TABULAR, time=TOTAL TIME
0.0000000000000000e+00, 0.0000000000000000e+00, 1.0000000000000000e+05, -9.9282070235988049e-03, 2.0000000000000000e+05, -9.9333491445455536e-03, 3.0000000000000000e+05, -9.9320784392778715e-03
4.0000000000000000e+05, -9.9299722528544167e-03, 5.0000000000000000e+05, -9.9261920843894368e-03, 6.0000000000000000e+05, -9.9211534634729877e-03, 7.0000000000000000e+05, -9.9150636035040696e-03
8.0000000000000000e+05, -9.9080813125897154e-03, 9.0000000000000000e+05, -9.9002761283158210e-03, 1.0000000000000000e+06, -9.8916993558567975e-03
*Amplitude, name=N007_U2, definition=TABULAR, time=TOTAL TIME
0.0000000000000000e+00, 0.0000000000000000e+00, 1.0000000000000000e+05, 6.8898882743526901e-03, 2.0000000000000000e+05, 6.9032665498241358e-03, 3.0000000000000000e+05, 6.9239256663316054e-03
4.0000000000000000e+05, 6.9492591885046027e-03, 5.0000000000000000e+05, 6.9778215158317900e-03, 6.0000000000000000e+05, 7.0088959986184191e-03, 7.0000000000000000e+05, 7.0421303674341003e-03
8.0000000000000000e+05, 7.0773034175665699e-03, 9.0000000000000000e+05, 7.1143164552135577e-03, 1.0000000000000000e+06, 7.1531224563867284e-03
*Amplitude, name=N007_U3, definition=TABULAR, time=TOTAL TIME
0.0000000000000000e+00, 0.0000000000000000e+00, 1.0000000000000000e+05, -3.2898892904255580e-03, 2.0000000000000000e+05, -3.3007786900270540e-03, 3.0000000000000000e+05, -3.3256873357304199e-03
4.0000000000000000e+05, -3.3533634067499920e-03, 5.0000000000000000e+05, -3.3848246303957042e-03, 6.0000000000000000e+05, -3.4192267833714329e-03, 7.0000000000000000e+05, -3.4561578365143049e-03
8.0000000000000000e+05, -3.4953453943966802e-03, 9.0000000000000000e+05, -3.5366712589446382e-03, 1.0000000000000000e+06, -3.5800725755716972e-03
*Amplitude, name=N007_T, definition=TABULAR, time=TOTAL TIME
0.0000000000000000e+00, 3.0000000000000000e+02, 1.0000000000000000e+05, 2.9702410200709448e+02, 2.0000000000000000e+05, 2.9817873668006672e+02, 3.0000000000000000e+05, 3.0088487448300282e+02
4.0000000000000000e+05, 3.0442731034821628e+02, 5.0000000000000000e+05, 3.0853223829163937e+02, 6.0000000000000000e+05, 3.1307186011061532e+02, 7.0000000000000000e+05, 3.1798799256562268e+02
8.0000000000000000e+05, 3.2324087156247077e+02, 9.0000000000000000e+05, 3.2881510211565092e+02, 1.0000000000000000e+06, 3.3470242051052747e+02
*Amplitude, name=N008_U1, definition=TABULAR, time=TOTAL TIME
0.0000000000000000e+00, 0.0000000000000000e+00, 1.0000000000000000e+05, -1.7304153659446798e-02, 2.0000000000000000e+05, -1.7286243378156339e-02, 3.0000000000000000e+05, -1.7264537297538751e-02
4.0000000000000000e+05, -1.7223204360390050e-02, 5.0000000000000000e+05, -1.7173725604882732e-02, 6.0000000000000000e+05, -1.7118157450100029e-02, 7.0000000000000000e+05, -1.7057542920368051e-02
8.0000000000000000e+05, -1.6992650054045079e-02, 9.0000000000000000e+05, -1.6923856221878510e-02, 1.0000000000000000e+06, -1.6851437675139531e-02
*Amplitude, name=N008_U2, definition=TABULAR, time=TOTAL TIME
0.0000000000000000e+00, 0.0000000000000000e+00, 1.0000000000000000e+05, 2.1428737692961022e-02, 2.0000000000000000e+05, 2.1474592894949091e-02, 3.0000000000000000e+05, 2.1551792437759700e-02
4.0000000000000000e+05, 2.1629739198598331e-02, 5.0000000000000000e+05, 2.1713983841458982e-02, 6.0000000000000000e+05, 2.1803111425743739e-02, 7.0000000000000000e+05, 2.1896434522635670e-02
8.0000000000000000e+05, 2.1993448772650120e-02, 9.0000000000000000e+05, 2.2093912129731001e-02, 1.0000000000000000e+06, 2.2197663507804589e-02
*Amplitude, name=N008_U3, definition=TABULAR, time=TOTAL TIME
0.0000000000000000e+00, 0.0000000000000000e+00, 1.0000000000000000e+05, -1.1739131279604071e-02, 2.0000000000000000e+05, -1.1790788021769499e-02, 3.0000000000000000e+05, -1.1876350843045880e-02
4.0000000000000000e+05, -1.1971105803846870e-02, 5.0000000000000000e+05, -1.2076318145613539e-02, 6.0000000000000000e+05, -1.2189801889203621e-02, 7.0000000000000000e+05, -1.2310527500857010e-02
8.0000000000000000e+05, -1.2437766274627751e-02, 9.0000000000000000e+05, -1.2571234088299930e-02, 1.0000000000000000e+06, -1.2710780707564141e-02
*Amplitude, name=N008_T, definition=TABULAR, time=TOTAL TIME
0.0000000000000000e+00, 3.0000000000000000e+02, 1.0000000000000000e+05, 2.9880253877599182e+02, 2.0000000000000000e+05, 3.0361406630124247e+02, 3.0000000000000000e+05, 3.1104148513760981e+02
4.0000000000000000e+05, 3.1995152833603129e+02, 5.0000000000000000e+05, 3.2987606890576552e+02, 6.0000000000000000e+05, 3.4059118184545292e+02, 7.0000000000000000e+05, 3.5199185207699583e+02
8.0000000000000000e+05, 3.6399492340361968e+02, 9.0000000000000000e+05, 3.7656380267620432e+02, 1.0000000000000000e+06, 3.8967139249425429e+02
*Amplitude, name=N009_U1, definition=TABULAR, time=TOTAL TIME
0.0000000000000000e+00, 0.0000000000000000e+00, 1.0000000000000000e+05, -1.3714789531269500e-02, 2.0000000000000000e+05, -1.3594459784809981e-02, 3.0000000000000000e+05, -1.3459409301318139e-02
4.0000000000000000e+05, -1.3284532712255071e-02, 5.0000000000000000e+05, -1.3092779519901071e-02, 6.0000000000000000e+05, -1.2888667178115929e-02, 7.0000000000000000e+05, -1.2674530754711271e-02
8.0000000000000000e+05, -1.2452239991454450e-02, 9.0000000000000000e+05, -1.2222804973355719e-02, 1.0000000000000000e+06, -1.1987060025672090e-02
*Amplitude, name=N009_U2, definition=TABULAR, time=TOTAL TIME
0.0000000000000000e+00, 0.0000000000000000e+00, 1.0000000000000000e+05, 4.1870082160293462e-02, 2.0000000000000000e+05, 4.1963526304283003e-02, 3.0000000000000000e+05, 4.2140881589483439e-02
4.0000000000000000e+05, 4.2291835295684567e-02, 5.0000000000000000e+05, 4.2448297493504178e-02, 6.0000000000000000e+05, 4.2608995723483770e-02, 7.0000000000000000e+05, 4.2773295952391287e-02
8.0000000000000000e+05, 4.2940705398825503e-02, 9.0000000000000000e+05, 4.3110957373856097e-02, 1.0000000000000000e+06, 4.3283858612425577e-02
*Amplitude, name=N009_U3, definition=TABULAR, time=TOTAL TIME
0.0000000000000000e+00, 0.0000000000000000e+00, 1.0000000000000000e+05, -2.3734287335589521e-02, 2.0000000000000000e+05, -2.3893372849533280e-02, 3.0000000000000000e+05, -2.4094735028660431e-02
4.0000000000000000e+05, -2.4318369931903221e-02, 5.0000000000000000e+05, -2.4560370967872319e-02, 6.0000000000000000e+05, -2.4817487155903008e-02, 7.0000000000000000e+05, -2.5088308188545391e-02
8.0000000000000000e+05, -2.5371874696428740e-02, 9.0000000000000000e+05, -2.5667984817298581e-02, 1.0000000000000000e+06, -2.5976675034370310e-02
*Amplitude, name=N009_T, definition=TABULAR, time=TOTAL TIME
0.0000000000000000e+00, 3.0000000000000000e+02, 1.0000000000000000e+05, 3.0701871586417752e+02, 2.0000000000000000e+05, 3.2160554046926092e+02, 3.0000000000000000e+05, 3.3918078354202089e+02
4.0000000000000000e+05, 3.5839796892582109e+02, 5.0000000000000000e+05, 3.7875038088397042e+02, 6.0000000000000000e+05, 3.9999660975517082e+02, 7.0000000000000000e+05, 4.2201143686615211e+02
8.0000000000000000e+05, 4.4468950354507672e+02, 9.0000000000000000e+05, 4.6797201636447602e+02, 1.0000000000000000e+06, 4.9181025947435012e+02
*Amplitude, name=N010_U1, definition=TABULAR, time=TOTAL TIME
0.0000000000000000e+00, 0.0000000000000000e+00, 1.0000000000000000e+05, -1.9892070062329681e-02, 2.0000000000000000e+05, -1.9489718026953880e-02, 3.0000000000000000e+05, -1.9053035757803458e-02
4.0000000000000000e+05, -1.8565508947635988e-02, 5.0000000000000000e+05, -1.8054858101680050e-02, 6.0000000000000000e+05, -1.7527717974184419e-02, 7.0000000000000000e+05, -1.6987619302372931e-02
8.0000000000000000e+05, -1.6437530849685671e-02, 9.0000000000000000e+05, -1.5879195334741979e-02, 1.0000000000000000e+06, -1.5314173079945431e-02
*Amplitude, name=N010_U2, definition=TABULAR, time=TOTAL TIME
0.0000000000000000e+00, 0.0000000000000000e+00, 1.0000000000000000e+05, 6.2292921808254152e-02, 2.0000000000000000e+05, 6.2477381964072209e-02, 3.0000000000000000e+05, 6.2806367723146364e-02
4.0000000000000000e+05, 6.3064590910116791e-02, 5.0000000000000000e+05, 6.3323657919813078e-02, 6.0000000000000000e+05, 6.3583518094275732e-02, 7.0000000000000000e+05, 6.3844152145398861e-02
8.0000000000000000e+05, 6.4105619524919763e-02, 9.0000000000000000e+05, 6.4367926822783528e-02, 1.0000000000000000e+06, 6.4631127019242812e-02
*Amplitude, name=N010_U3, definition=TABULAR, time=TOTAL TIME
0.0000000000000000e+00, 0.0000000000000000e+00, 1.0000000000000000e+05, -3.8398974922125517e-02, 2.0000000000000000e+05, -3.8770451543506362e-02, 3.0000000000000000e+05, -3.9177859402099703e-02
4.0000000000000000e+05, -3.9621164481182608e-02, 5.0000000000000000e+05, -4.0091180367954962e-02, 6.0000000000000000e+05, -4.0584800127967911e-02, 7.0000000000000000e+05, -4.1101113254888397e-02
8.0000000000000000e+05, -4.1639881292159682e-02, 9.0000000000000000e+05, -4.2201843183217833e-02, 1.0000000000000000e+06, -4.2788184017480628e-02
*Amplitude, name=N010_T, definition=TABULAR, time=TOTAL TIME
0.0000000000000000e+00, 3.0000000000000000e+02, 1.0000000000000000e+05, 3.4000000000000011e+02, 2.0000000000000000e+05, 3.8000000000000011e+02, 3.0000000000000000e+05, 4.2000000000000000e+02
4.0000000000000000e+05, 4.6000000000000000e+02, 5.0000000000000000e+05, 5.0000000000000000e+02, 6.0000000000000000e+05, 5.4000000000000000e+02, 7.0000000000000000e+05, 5.8000000000000000e+02
8.0000000000000000e+05, 6.2000000000000000e+02, 9.0000000000000000e+05, 6.6000000000000000e+02, 1.0000000000000000e+06, 7.0000000000000000e+02
*Amplitude, name=N011_U1, definition=TABULAR, time=TOTAL TIME
0.0000000000000000e+00, 0.0000000000000000e+00, 1.0000000000000000e+05, 3.0874489945263029e-32, 2.0000000000000000e+05, 2.9837113210634208e-32, 3.0000000000000000e+05, 3.0934468911027541e-32
4.0000000000000000e+05, 3.0966090388942861e-32, 5.0000000000000000e+05, 3.0998456552311609e-32, 6.0000000000000000e+05, 3.1031303010150733e-32, 7.0000000000000000e+05, 3.1064472560374337e-32
8.0000000000000000e+05, 3.1098009181871898e-32, 9.0000000000000000e+05, 3.1131992418968270e-32, 1.0000000000000000e+06, 3.1166336196769362e-32
*Amplitude, name=N011_U2, definition=TABULAR, time=TOTAL TIME
0.0000000000000000e+00, 0.0000000000000000e+00, 1.0000000000000000e+05, 1.4145066951421570e-33, 2.0000000000000000e+05, -1.7686094613385830e-34, 3.0000000000000000e+05, 1.4760932489656510e-33
4.0000000000000000e+05, 1.5041534523123690e-33, 5.0000000000000000e+05, 1.5313707814339181e-33, 6.0000000000000000e+05, 1.5578784587059039e-33, 7.0000000000000000e+05, 1.5829150632334921e-33
8.0000000000000000e+05, 1.6083264570137769e-33, 9.0000000000000000e+05, 1.6330483877972430e-33, 1.0000000000000000e+06, 1.6571373126155290e-33
*Amplitude, name=N011_U3, definition=TABULAR, time=TOTAL TIME
0.0000000000000000e+00, 0.0000000000000000e+00, 1.0000000000000000e+05, -1.8730730788517281e-33, 2.0000000000000000e+05, -2.4273817977759078e-34, 3.0000000000000000e+05, -1.8120640040719340e-33
4.0000000000000000e+05, -1.7888448730696660e-33, 5.0000000000000000e+05, -1.7683296183955181e-33, 6.0000000000000000e+05, -1.7499085991724381e-33, 7.0000000000000000e+05, -1.7314373421742601e-33
8.0000000000000000e+05, -1.7166994740481951e-33, 9.0000000000000000e+05, -1.7032820214727789e-33, 1.0000000000000000e+06, -1.6912608895135451e-33
*Amplitude, name=N011_T, definition=TABULAR, time=TOTAL TIME
0.0000000000000000e+00, 3.0000000000000000e+02, 1.0000000000000000e+05, 3.0000000000000000e+02, 2.0000000000000000e+05, 3.0000000000000000e+02, 3.0000000000000000e+05, 3.0000000000000000e+02
4.0000000000000000e+05, 3.0000000000000000e+02, 5.0000000000000000e+05, 3.0000000000000000e+02, 6.0000000000000000e+05, 3.0000000000000000e+02, 7.0000000000000000e+05, 3.0000000000000000e+02
8.0000000000000000e+05, 3.0000000000000000e+02, 9.0000000000000000e+05, 3.0000000000000000e+02, 1.0000000000000000e+06, 3.0000000000000000e+02
*Amplitude, name=N012_U1, definition=TABULAR, time=TOTAL TIME
0.0000000000000000e+00, 0.0000000000000000e+00, 1.0000000000000000e+05, 6.1078998955587400e-03, 2.0000000000000000e+05, 6.1208070715082566e-03, 3.0000000000000000e+05, 6.1509378104602601e-03
4.0000000000000000e+05, 6.1822483153287479e-03, 5.0000000000000000e+05, 6.2175601486673948e-03, 6.0000000000000000e+05, 6.2559716621236414e-03, 7.0000000000000000e+05, 6.2970389020008798e-03
8.0000000000000000e+05, 6.3404706503910543e-03, 9.0000000000000000e+05, 6.3861355176973852e-03, 1.0000000000000000e+06, 6.4339625085310876e-03
*Amplitude, name=N012_U2, definition=TABULAR, time=TOTAL TIME
0.0000000000000000e+00, 0.0000000000000000e+00, 1.0000000000000000e+05, 7.0002206920566573e-03, 2.0000000000000000e+05, 6.9935763887165880e-03, 3.0000000000000000e+05, 6.9880319856286842e-03
4.0000000000000000e+05, 6.9736251536360516e-03, 5.0000000000000000e+05, 6.9559450124235533e-03, 6.0000000000000000e+05, 6.9357384019812151e-03, 7.0000000000000000e+05, 6.9133696489109006e-03
8.0000000000000000e+05, 6.8890929358762926e-03, 9.0000000000000000e+05, 6.8630131254509502e-03, 1.0000000000000000e+06, 6.8351920960517858e-03
*Amplitude, name=N012_U3, definition=TABULAR, time=TOTAL TIME
0.0000000000000000e+00, 0.0000000000000000e+00, 1.0000000000000000e+05, -2.6930759301446879e-03, 2.0000000000000000e+05, -2.7026335427850399e-03, 3.0000000000000000e+05, -2.7035867275031918e-03
4.0000000000000000e+05, -2.7114765882492509e-03, 5.0000000000000000e+05, -2.7204137329456361e-03, 6.0000000000000000e+05, -2.7301952458222748e-03, 7.0000000000000000e+05, -2.7407280819727992e-03
8.0000000000000000e+05, -2.7519590373350838e-03, 9.0000000000000000e+05, -2.7638724734836890e-03, 1.0000000000000000e+06, -2.7764690216448618e-03
*Amplitude, name=N012_T, definition=TABULAR, time=TOTAL TIME
0.0000000000000000e+00, 3.0000000000000000e+02, 1.0000000000000000e+05, 3.0086561731499921e+02, 2.0000000000000000e+05, 3.0302742908798541e+02, 3.0000000000000000e+05, 3.0648817914347728e+02
4.0000000000000000e+05, 3.1091700165262091e+02, 5.0000000000000000e+05, 3.1604979452701059e+02, 6.0000000000000000e+05, 3.2172753780168779e+02, 7.0000000000000000e+05, 3.2786830441768262e+02
8.0000000000000000e+05, 3.3441652239116212e+02, 9.0000000000000000e+05, 3.4134674289152531e+02, 1.0000000000000000e+06, 3.4864418036649079e+02
*Amplitude, name=N013_U1, definition=TABULAR, time=TOTAL TIME
0.0000000000000000e+00, 0.0000000000000000e+00, 1.0000000000000000e+05, 8.4078718067222419e-03, 2.0000000000000000e+05, 8.4580057607428032e-03, 3.0000000000000000e+05, 8.5583902461636163e-03
4.0000000000000000e+05, 8.6643792417728845e-03, 5.0000000000000000e+05, 8.7824631290632817e-03, 6.0000000000000000e+05, 8.9098654611443912e-03, 7.0000000000000000e+05, 9.0452201313424713e-03
8.0000000000000000e+05, 9.1875305717038988e-03, 9.0000000000000000e+05, 9.3363365247345377e-03, 1.0000000000000000e+06, 9.4913316186545499e-03
*Amplitude, name=N013_U2, definition=TABULAR, time=TOTAL TIME
0.0000000000000000e+00, 0.0000000000000000e+00, 1.0000000000000000e+05, 2.3976331871828321e-02, 2.0000000000000000e+05, 2.3951337991090730e-02, 3.0000000000000000e+05, 2.3953579507850639e-02
4.0000000000000000e+05, 2.3927655805470290e-02, 5.0000000000000000e+05, 2.3896234759044701e-02, 6.0000000000000000e+05, 2.3860632332376331e-02, 7.0000000000000000e+05, 2.3821492776775581e-02
8.0000000000000000e+05, 2.3779347142472200e-02, 9.0000000000000000e+05, 2.3734426674051661e-02, 1.0000000000000000e+06, 2.3686914017169880e-02
*Amplitude, name=N013_U3, definition=TABULAR, time=TOTAL TIME
0.0000000000000000e+00, 0.0000000000000000e+00, 1.0000000000000000e+05, -1.1579467573538969e-02, 2.0000000000000000e+05, -1.1617701698667450e-02, 3.0000000000000000e+05, -1.1638449746249099e-02
4.0000000000000000e+05, -1.1679805185388720e-02, 5.0000000000000000e+05, -1.1726198939416701e-02, 6.0000000000000000e+05, -1.1776731887491371e-02, 7.0000000000000000e+05, -1.1831009141323070e-02
8.0000000000000000e+05, -1.1888794758635329e-02, 9.0000000000000000e+05, -1.1950042369410080e-02, 1.0000000000000000e+06, -1.2014779491249990e-02
*Amplitude, name=N013_T, definition=TABULAR, time=TOTAL TIME
0.0000000000000000e+00, 3.0000000000000000e+02, 1.0000000000000000e+05, 3.0365052651657720e+02, 2.0000000000000000e+05, 3.1075140364912511e+02, 3.0000000000000000e+05, 3.2044654726945259e+02
4.0000000000000000e+05, 3.3187365883107560e+02, 5.0000000000000000e+05, 3.4449967563761737e+02, 6.0000000000000000e+05, 3.5802903163888698e+02, 7.0000000000000000e+05, 3.7231083036752301e+02
8.0000000000000000e+05, 3.8723035949021971e+02, 9.0000000000000000e+05, 4.0273101407593600e+02, 1.0000000000000000e+06, 4.1877157204165883e+02
*Amplitude, name=N014_U1, definition=TABULAR, time=TOTAL TIME
0.0000000000000000e+00, 0.0000000000000000e+00, 1.0000000000000000e+05, 1.0096121789874559e-02, 2.0000000000000000e+05, 1.0266989874316840e-02, 3.0000000000000000e+05, 1.0526003064640460e-02
4.0000000000000000e+05, 1.0800895202717610e-02, 5.0000000000000000e+05, 1.1098523042309030e-02, 6.0000000000000000e+05, 1.1413535967783250e-02, 7.0000000000000000e+05, 1.1743276942189330e-02
8.0000000000000000e+05, 1.2085709697790461e-02, 9.0000000000000000e+05, 1.2439859454850421e-02, 1.0000000000000000e+06, 1.2805018642732469e-02
*Amplitude, name=N014_U2, definition=TABULAR, time=TOTAL TIME
0.0000000000000000e+00, 0.0000000000000000e+00, 1.0000000000000000e+05, 4.2733093387622392e-02, 2.0000000000000000e+05, 4.2642667306142752e-02, 3.0000000000000000e+05, 4.2636871027925551e-02
4.0000000000000000e+05, 4.2573807274759123e-02, 5.0000000000000000e+05, 4.2505583291494620e-02, 6.0000000000000000e+05, 4.2433481315760087e-02, 7.0000000000000000e+05, 4.2358132114088141e-02
8.0000000000000000e+05, 4.2280122203471930e-02, 9.0000000000000000e+05, 4.2199703799909248e-02, 1.0000000000000000e+06, 4.2117102960043402e-02
*Amplitude, name=N014_U3, definition=TABULAR, time=TOTAL TIME
0.0000000000000000e+00, 0.0000000000000000e+00, 1.0000000000000000e+05, -2.3419418575751780e-02, 2.0000000000000000e+05, -2.3520373816335101e-02, 3.0000000000000000e+05, -2.3601452684227579e-02
4.0000000000000000e+05, -2.3723556411397669e-02, 5.0000000000000000e+05, -2.3859911490420781e-02, 6.0000000000000000e+05, -2.4008349992815529e-02, 7.0000000000000000e+05, -2.4168016993098441e-02
8.0000000000000000e+05, -2.4338442464157149e-02, 9.0000000000000000e+05, -2.4519689345149420e-02, 1.0000000000000000e+06, -2.4712025956293501e-02
*Amplitude, name=N014_T, definition=TABULAR, time=TOTAL TIME
0.0000000000000000e+00, 3.0000000000000000e+02, 1.0000000000000000e+05, 3.1389564394353300e+02, 2.0000000000000000e+05, 3.3349058420639909e+02, 3.0000000000000000e+05, 3.5597469452584568e+02
4.0000000000000000e+05, 3.8007947292940179e+02, 5.0000000000000000e+05, 4.0521927503172100e+02, 6.0000000000000000e+05, 4.3110402515404678e+02, 7.0000000000000000e+05, 4.5759286395810892e+02
8.0000000000000000e+05, 4.8456406222297448e+02, 9.0000000000000000e+05, 5.1196355545689312e+02, 1.0000000000000000e+06, 5.3974744781976995e+02
*Amplitude, name=N015_U1, definition=TABULAR, time=TOTAL TIME
0.0000000000000000e+00, 0.0000000000000000e+00, 1.0000000000000000e+05, 1.0290912866750559e-02, 2.0000000000000000e+05, 1.0757047004550570e-02, 3.0000000000000000e+05, 1.1321981518119530e-02
4.0000000000000000e+05, 1.1908622308587680e-02, 5.0000000000000000e+05, 1.2522133315306300e-02, 6.0000000000000000e+05, 1.3156200221869510e-02, 7.0000000000000000e+05, 1.3807690456941109e-02
8.0000000000000000e+05, 1.4474146682820290e-02, 9.0000000000000000e+05, 1.5154390251210891e-02, 1.0000000000000000e+06, 1.5847541722626080e-02
*Amplitude, name=N015_U2, definition=TABULAR, time=TOTAL TIME
0.0000000000000000e+00, 0.0000000000000000e+00, 1.0000000000000000e+05, 6.3692082781957704e-02, 2.0000000000000000e+05, 6.3481617543140953e-02, 3.0000000000000000e+05, 6.3443414014401109e-02
4.0000000000000000e+05, 6.3318752924574298e-02, 5.0000000000000000e+05, 6.3194209065802906e-02, 6.0000000000000000e+05, 6.3069857076281141e-02, 7.0000000000000000e+05, 6.2945732160277004e-02
8.0000000000000000e+05, 6.2821938700540925e-02, 9.0000000000000000e+05, 6.2698491095418432e-02, 1.0000000000000000e+06, 6.2575441787624503e-02
*Amplitude, name=N015_U3, definition=TABULAR, time=TOTAL TIME
0.0000000000000000e+00, 0.0000000000000000e+00, 1.0000000000000000e+05, -3.7454034861126827e-02, 2.0000000000000000e+05, -3.7645964704525477e-02, 3.0000000000000000e+05, -3.7819920221457921e-02
4.0000000000000000e+05, -3.8058279905148852e-02, 5.0000000000000000e+05, -3.8323851422335083e-02, 6.0000000000000000e+05, -3.8613390284764570e-02, 7.0000000000000000e+05, -3.8925916210039303e-02
8.0000000000000000e+05, -3.9261130271247419e-02, 9.0000000000000000e+05, -3.9619740963016702e-02, 1.0000000000000000e+06, -4.0002905500265931e-02
*Amplitude, name=N015_T, definition=TABULAR, time=TOTAL TIME
0.0000000000000000e+00, 3.0000000000000000e+02, 1.0000000000000000e+05, 3.4000000000000011e+02, 2.0000000000000000e+05, 3.8000000000000011e+02, 3.0000000000000000e+05, 4.2000000000000000e+02
4.0000000000000000e+05, 4.6000000000000000e+02, 5.0000000000000000e+05, 5.0000000000000000e+02, 6.0000000000000000e+05, 5.4000000000000000e+02, 7.0000000000000000e+05, 5.8000000000000000e+02
8.0000000000000000e+05, 6.2000000000000000e+02, 9.0000000000000000e+05, 6.6000000000000000e+02, 1.0000000000000000e+06, 7.0000000000000000e+02
*Amplitude, name=N016_U1, definition=TABULAR, time=TOTAL TIME
0.0000000000000000e+00, 0.0000000000000000e+00, 1.0000000000000000e+05, 2.8894152685580200e-32, 2.0000000000000000e+05, 2.7825152732168660e-32, 3.0000000000000000e+05, 2.8949013116566639e-32
4.0000000000000000e+05, 2.8978167067491442e-32, 5.0000000000000000e+05, 2.9007961647733279e-32, 6.0000000000000000e+05, 2.9038134518082911e-32, 7.0000000000000000e+05, 2.9068622231044623e-32
8.0000000000000000e+05, 2.9099301727258688e-32, 9.0000000000000000e+05, 2.9130333955845130e-32, 1.0000000000000000e+06, 2.9161627265534141e-32
*Amplitude, name=N016_U2, definition=TABULAR, time=TOTAL TIME
0.0000000000000000e+00, 0.0000000000000000e+00, 1.0000000000000000e+05, -6.5807236111171958e-34, 2.0000000000000000e+05, -1.0839672216086809e-34, 3.0000000000000000e+05, -6.5097764473172369e-34
4.0000000000000000e+05, -6.4379890602979372e-34, 5.0000000000000000e+05, -6.3534665986406859e-34, 6.0000000000000000e+05, -6.2594346498028374e-34, 7.0000000000000000e+05, -6.1539171837280353e-34
8.0000000000000000e+05, -6.0464287825979726e-34, 9.0000000000000000e+05, -5.9329813202593349e-34, 1.0000000000000000e+06, -5.8145348362247633e-34
*Amplitude, name=N016_U3, definition=TABULAR, time=TOTAL TIME
0.0000000000000000e+00, 0.0000000000000000e+00, 1.0000000000000000e+05, -2.2988941563597330e-33, 2.0000000000000000e+05, -1.2025394662549060e-33, 3.0000000000000000e+05, -2.2730587581437021e-33
4.0000000000000000e+05, -2.2681427069345988e-33, 5.0000000000000000e+05, -2.2660961353968221e-33, 6.0000000000000000e+05, -2.2662260993218581e-33, 7.0000000000000000e+05, -2.2664751026125110e-33
8.0000000000000000e+05, -2.2702405699693642e-33, 9.0000000000000000e+05, -2.2752747568027400e-33, 1.0000000000000000e+06, -2.2815867304942391e-33
*Amplitude, name=N016_T, definition=TABULAR, time=TOTAL TIME
0.0000000000000000e+00, 3.0000000000000000e+02, 1.0000000000000000e+05, 3.0000000000000000e+02, 2.0000000000000000e+05, 3.0000000000000000e+02, 3.0000000000000000e+05, 3.0000000000000000e+02
4.0000000000000000e+05, 3.0000000000000000e+02, 5.0000000000000000e+05, 3.0000000000000000e+02, 6.0000000000000000e+05, 3.0000000000000000e+02, 7.0000000000000000e+05, 3.0000000000000000e+02
8.0000000000000000e+05, 3.0000000000000000e+02, 9.0000000000000000e+05, 3.0000000000000000e+02, 1.0000000000000000e+06, 3.0000000000000000e+02
*Amplitude, name=N017_U1, definition=TABULAR, time=TOTAL TIME
0.0000000000000000e+00, 0.0000000000000000e+00, 1.0000000000000000e+05, -6.1742457723674921e-03, 2.0000000000000000e+05, -6.1653751946648188e-03, 3.0000000000000000e+05, -6.1573679201507086e-03
4.0000000000000000e+05, -6.1389115475572222e-03, 5.0000000000000000e+05, -6.1164273247995646e-03, 6.0000000000000000e+05, -6.0908355641901227e-03, 7.0000000000000000e+05, -6.0625866016817400e-03
8.0000000000000000e+05, -6.0319909356806919e-03, 9.0000000000000000e+05, -5.9991791877255776e-03, 1.0000000000000000e+06, -5.9642275370004744e-03
*Amplitude, name=N017_U2, definition=TABULAR, time=TOTAL TIME
0.0000000000000000e+00, 0.0000000000000000e+00, 1.0000000000000000e+05, 7.0674375322660474e-03, 2.0000000000000000e+05, 7.0804406650137311e-03, 3.0000000000000000e+05, 7.1083913788302349e-03
4.0000000000000000e+05, 7.1368313639337648e-03, 5.0000000000000000e+05, 7.1684474047784908e-03, 6.0000000000000000e+05, 7.2025213187244894e-03, 7.0000000000000000e+05, 7.2386980428651186e-03
8.0000000000000000e+05, 7.2767465743330782e-03, 9.0000000000000000e+05, 7.3165596075103418e-03, 1.0000000000000000e+06, 7.3580788203811680e-03
*Amplitude, name=N017_U3, definition=TABULAR, time=TOTAL TIME
0.0000000000000000e+00, 0.0000000000000000e+00, 1.0000000000000000e+05, -3.3772986333970539e-03, 2.0000000000000000e+05, -3.3798344638911182e-03, 3.0000000000000000e+05, -3.3903056543658130e-03
4.0000000000000000e+05, -3.3988742763767718e-03, 5.0000000000000000e+05, -3.4082318457171711e-03, 6.0000000000000000e+05, -3.4182236028405038e-03, 7.0000000000000000e+05, -3.4287780863497940e-03
8.0000000000000000e+05, -3.4398506112819950e-03, 9.0000000000000000e+05, -3.4514247004480761e-03, 1.0000000000000000e+06, -3.4634957136284489e-03
*Amplitude, name=N017_T, definition=TABULAR, time=TOTAL TIME
0.0000000000000000e+00, 3.0000000000000000e+02, 1.0000000000000000e+05, 2.9728545540767129e+02, 2.0000000000000000e+05, 2.9850604405202557e+02, 3.0000000000000000e+05, 3.0128974321434151e+02
4.0000000000000000e+05, 3.0494073440477348e+02, 5.0000000000000000e+05, 3.0917737803855567e+02, 6.0000000000000000e+05, 3.1386590443838429e+02, 7.0000000000000000e+05, 3.1894454517382599e+02
8.0000000000000000e+05, 3.2437246988261398e+02, 9.0000000000000000e+05, 3.3013300147166183e+02, 1.0000000000000000e+06, 3.3621733546051621e+02
*Amplitude, name=N018_U1, definition=TABULAR, time=TOTAL TIME
0.0000000000000000e+00, 0.0000000000000000e+00, 1.0000000000000000e+05, -8.8016078914744597e-03, 2.0000000000000000e+05, -8.7481123351853627e-03, 3.0000000000000000e+05, -8.6930917176787446e-03
4.0000000000000000e+05, -8.6090841618008482e-03, 5.0000000000000000e+05, -8.5134541168049617e-03, 6.0000000000000000e+05, -8.4089051719750500e-03, 7.0000000000000000e+05, -8.2967680723970774e-03
8.0000000000000000e+05, -8.1780321152195128e-03, 9.0000000000000000e+05, -8.0531447953134886e-03, 1.0000000000000000e+06, -7.9224134793365424e-03
*Amplitude, name=N018_U2, definition=TABULAR, time=TOTAL TIME
0.0000000000000000e+00, 0.0000000000000000e+00, 1.0000000000000000e+05, 2.3774171537171190e-02, 2.0000000000000000e+05, 2.3811970044359521e-02, 3.0000000000000000e+05, 2.3901066181450270e-02
4.0000000000000000e+05, 2.3979453237747559e-02, 5.0000000000000000e+05, 2.4063662838363031e-02, 6.0000000000000000e+05, 2.4152356843894371e-02, 7.0000000000000000e+05, 2.4244871401254690e-02
8.0000000000000000e+05, 2.4340714989920340e-02, 9.0000000000000000e+05, 2.4439637774727210e-02, 1.0000000000000000e+06, 2.4541465749925051e-02
*Amplitude, name=N018_U3, definition=TABULAR, time=TOTAL TIME
0.0000000000000000e+00, 0.0000000000000000e+00, 1.0000000000000000e+05, -1.2481978427057569e-02, 2.0000000000000000e+05, -1.2506703078469780e-02, 3.0000000000000000e+05, -1.2552114084417219e-02
4.0000000000000000e+05, -1.2599247522121279e-02, 5.0000000000000000e+05, -1.2651546882464219e-02, 6.0000000000000000e+05, -1.2708091299014760e-02, 7.0000000000000000e+05, -1.2768475742523190e-02
8.0000000000000000e+05, -1.2832462034861330e-02, 9.0000000000000000e+05, -1.2900002155346649e-02, 1.0000000000000000e+06, -1.2971124963863099e-02
*Amplitude, name=N018_T, definition=TABULAR, time=TOTAL TIME
0.0000000000000000e+00, 3.0000000000000000e+02, 1.0000000000000000e+05, 2.9972880360027210e+02, 2.0000000000000000e+05, 3.0518045874575301e+02, 3.0000000000000000e+05, 3.1324038154803168e+02
4.0000000000000000e+05, 3.2281144181776563e+02, 5.0000000000000000e+05, 3.3342042054481851e+02, 6.0000000000000000e+05, 3.4483833075825959e+02, 7.0000000000000000e+05, 3.5695743534501997e+02
8.0000000000000000e+05, 3.6969065328559350e+02, 9.0000000000000000e+05, 3.8299961988910701e+02, 1.0000000000000000e+06, 3.9685527839242911e+02
*Amplitude, name=N019_U1, definition=TABULAR, time=TOTAL TIME
0.0000000000000000e+00, 0.0000000000000000e+00, 1.0000000000000000e+05, -1.0809392571861131e-02, 2.0000000000000000e+05, -1.0625067257785210e-02, 3.0000000000000000e+05, -1.0421890455129290e-02
4.0000000000000000e+05, -1.0167087316029021e-02, 5.0000000000000000e+05, -9.8890394467476515e-03, 6.0000000000000000e+05, -9.5931776071425008e-03, 7.0000000000000000e+05, -9.2821830399679138e-03
8.0000000000000000e+05, -8.9581247841674008e-03, 9.0000000000000000e+05, -8.6219610098454535e-03, 1.0000000000000000e+06, -8.2743859484566366e-03
*Amplitude, name=N019_U2, definition=TABULAR, time=TOTAL TIME
0.0000000000000000e+00, 0.0000000000000000e+00, 1.0000000000000000e+05, 4.2693214020475857e-02, 2.0000000000000000e+05, 4.2780923872687747e-02, 3.0000000000000000e+05, 4.2981094453921023e-02
4.0000000000000000e+05, 4.3140415016935017e-02, 5.0000000000000000e+05, 4.3305311301484531e-02, 6.0000000000000000e+05, 4.3474482834150473e-02, 7.0000000000000000e+05, 4.3647269288920640e-02
8.0000000000000000e+05, 4.3823149287711527e-02, 9.0000000000000000e+05, 4.4001827633241918e-02, 1.0000000000000000e+06, 4.4183080076639063e-02
*Amplitude, name=N019_U3, definition=TABULAR, time=TOTAL TIME
0.0000000000000000e+00, 0.0000000000000000e+00, 1.0000000000000000e+05, -2.4268883796853890e-02, 2.0000000000000000e+05, -2.4344392091848410e-02, 3.0000000000000000e+05, -2.4448706011717950e-02
4.0000000000000000e+05, -2.4567735752043830e-02, 5.0000000000000000e+05, -2.4700310477615190e-02, 6.0000000000000000e+05, -2.4844413710840851e-02, 7.0000000000000000e+05, -2.4999262737591760e-02
8.0000000000000000e+05, -2.5164445233450971e-02, 9.0000000000000000e+05, -2.5340045733354549e-02, 1.0000000000000000e+06, -2.5526346972678821e-02
*Amplitude, name=N019_T, definition=TABULAR, time=TOTAL TIME
0.0000000000000000e+00, 3.0000000000000000e+02, 1.0000000000000000e+05, 3.0805185132829831e+02, 2.0000000000000000e+05, 3.2340318694697299e+02, 3.0000000000000000e+05, 3.4166490739706268e+02
4.0000000000000000e+05, 3.6153620031348328e+02, 5.0000000000000000e+05, 3.8252441781123349e+02, 6.0000000000000000e+05, 4.0439521836633492e+02, 7.0000000000000000e+05, 4.2702672622993850e+02
8.0000000000000000e+05, 4.5031537883326490e+02, 9.0000000000000000e+05, 4.7420307028034290e+02, 1.0000000000000000e+06, 4.9864124430067488e+02
*Amplitude, name=N020_U1, definition=TABULAR, time=TOTAL TIME
0.0000000000000000e+00, 0.0000000000000000e+00, 1.0000000000000000e+05, -1.1160475827502720e-02, 2.0000000000000000e+05, -1.0684478462304289e-02, 3.0000000000000000e+05, -1.0187141362586550e-02
4.0000000000000000e+05, -9.6287744198442528e-03, 5.0000000000000000e+05, -9.0434525246729097e-03, 6.0000000000000000e+05, -8.4375718693532036e-03, 7.0000000000000000e+05, -7.8143100426018835e-03
8.0000000000000000e+05, -7.1761879725134236e-03, 9.0000000000000000e+05, -6.5244110504066024e-03, 1.0000000000000000e+06, -5.8598986499043722e-03
*Amplitude, name=N020_U2, definition=TABULAR, time=TOTAL TIME
0.0000000000000000e+00, 0.0000000000000000e+00, 1.0000000000000000e+05, 6.3848873763080821e-02, 2.0000000000000000e+05, 6.4037088873534875e-02, 3.0000000000000000e+05, 6.4397056123739624e-02
4.0000000000000000e+05, 6.4671467644421471e-02, 5.0000000000000000e+05, 6.4946266576963077e-02, 6.0000000000000000e+05, 6.5221468565695787e-02, 7.0000000000000000e+05, 6.5497075532896784e-02
8.0000000000000000e+05, 6.5773157823194664e-02, 9.0000000000000000e+05, 6.6049707825075979e-02, 1.0000000000000000e+06, 6.6326754724927633e-02
*Amplitude, name=N020_U3, definition=TABULAR, time=TOTAL TIME
0.0000000000000000e+00, 0.0000000000000000e+00, 1.0000000000000000e+05, -3.8316224624319897e-02, 2.0000000000000000e+05, -3.8489249067801531e-02, 3.0000000000000000e+05, -3.8698619390416647e-02
4.0000000000000000e+05, -3.8943383731482893e-02, 5.0000000000000000e+05, -3.9214710814759877e-02, 6.0000000000000000e+05, -3.9509509095695373e-02, 7.0000000000000000e+05, -3.9826872860788433e-02
8.0000000000000000e+05, -4.0166566634058667e-02, 9.0000000000000000e+05, -4.0529325675916758e-02, 1.0000000000000000e+06, -4.0916328302152701e-02
*Amplitude, name=N020_T, definition=TABULAR, time=TOTAL TIME
0.0000000000000000e+00, 3.0000000000000000e+02, 1.0000000000000000e+05, 3.4000000000000011e+02, 2.0000000000000000e+05, 3.8000000000000011e+02, 3.0000000000000000e+05, 4.2000000000000000e+02
4.0000000000000000e+05, 4.6000000000000000e+02, 5.0000000000000000e+05, 5.0000000000000000e+02, 6.0000000000000000e+05, 5.4000000000000000e+02, 7.0000000000000000e+05, 5.8000000000000000e+02
8.0000000000000000e+05, 6.2000000000000000e+02, 9.0000000000000000e+05, 6.6000000000000000e+02, 1.0000000000000000e+06, 7.0000000000000000e+02
*Amplitude, name=N021_U1, definition=TABULAR, time=TOTAL TIME
0.0000000000000000e+00, 0.0000000000000000e+00, 1.0000000000000000e+05, 9.6010427056287043e-37, 2.0000000000000000e+05, -1.1111361921785800e-33, 3.0000000000000000e+05, 4.5110887782106997e-39
4.0000000000000000e+05, 8.2344041523593516e-38, 5.0000000000000000e+05, 3.3784077677026808e-38, 6.0000000000000000e+05, 2.6035926729976669e-38, 7.0000000000000000e+05, 5.7105729901716688e-37
8.0000000000000000e+05, 7.4287196619011790e-37, 9.0000000000000000e+05, 8.3011884032210868e-37, 1.0000000000000000e+06, 9.4010094493039619e-37
*Amplitude, name=N021_U2, definition=TABULAR, time=TOTAL TIME
0.0000000000000000e+00, 0.0000000000000000e+00, 1.0000000000000000e+05, 1.6105991099737059e-36, 2.0000000000000000e+05, -1.6623784143371070e-33, 3.0000000000000000e+05, 7.8779375625449043e-38
4.0000000000000000e+05, 4.4115339167866579e-38, 5.0000000000000000e+05, 3.1540013408853498e-38, 6.0000000000000000e+05, 2.4006683483893248e-38, 7.0000000000000000e+05, -6.5242834192537850e-37
8.0000000000000000e+05, -4.9224262764048631e-37, 9.0000000000000000e+05, -4.0952551457619866e-37, 1.0000000000000000e+06, -3.3088778700024511e-37
*Amplitude, name=N021_U3, definition=TABULAR, time=TOTAL TIME
0.0000000000000000e+00, 0.0000000000000000e+00, 1.0000000000000000e+05, 2.7664700009480122e-37, 2.0000000000000000e+05, 1.6219801565966091e-33, 3.0000000000000000e+05, -1.3749415705307400e-37
4.0000000000000000e+05, -8.4791317194092318e-38, 5.0000000000000000e+05, -5.6106047293776236e-38, 6.0000000000000000e+05, -4.2242294096527829e-38, 7.0000000000000000e+05, 1.9216846087824919e-36
8.0000000000000000e+05, 1.5980350279286428e-36, 9.0000000000000000e+05, 1.4446958070605090e-36, 1.0000000000000000e+06, 1.3280911779109020e-36
*Amplitude, name=N021_T, definition=TABULAR, time=TOTAL TIME
0.0000000000000000e+00, 3.0000000000000000e+02, 1.0000000000000000e+05, 3.0000000000000000e+02, 2.0000000000000000e+05, 3.0000000000000000e+02, 3.0000000000000000e+05, 3.0000000000000000e+02
4.0000000000000000e+05, 3.0000000000000000e+02, 5.0000000000000000e+05, 3.0000000000000000e+02, 6.0000000000000000e+05, 3.0000000000000000e+02, 7.0000000000000000e+05, 3.0000000000000000e+02
8.0000000000000000e+05, 3.0000000000000000e+02, 9.0000000000000000e+05, 3.0000000000000000e+02, 1.0000000000000000e+06, 3.0000000000000000e+02
*Amplitude, name=N022_U1, definition=TABULAR, time=TOTAL TIME
0.0000000000000000e+00, 0.0000000000000000e+00, 1.0000000000000000e+05, 1.0331031885741080e-02, 2.0000000000000000e+05, 1.0345092567477589e-02, 3.0000000000000000e+05, 1.0378098846362410e-02
4.0000000000000000e+05, 1.0409634351839610e-02, 5.0000000000000000e+05, 1.0444383258943851e-02, 6.0000000000000000e+05, 1.0481638397794389e-02, 7.0000000000000000e+05, 1.0521053633935649e-02
8.0000000000000000e+05, 1.0562406584950831e-02, 9.0000000000000000e+05, 1.0605595637740800e-02, 1.0000000000000000e+06, 1.0650569241599810e-02
*Amplitude, name=N022_U2, definition=TABULAR, time=TOTAL TIME
0.0000000000000000e+00, 0.0000000000000000e+00, 1.0000000000000000e+05, 7.6137880612129937e-03, 2.0000000000000000e+05, 7.6086718201513184e-03, 3.0000000000000000e+05, 7.6123994658090742e-03
4.0000000000000000e+05, 7.6051177705265607e-03, 5.0000000000000000e+05, 7.5951263422116156e-03, 6.0000000000000000e+05, 7.5830403557965980e-03, 7.0000000000000000e+05, 7.5691588494215282e-03
8.0000000000000000e+05, 7.5536881149347156e-03, 9.0000000000000000e+05, 7.5367095797477550e-03, 1.0000000000000000e+06, 7.5182693585350941e-03
*Amplitude, name=N022_U3, definition=TABULAR, time=TOTAL TIME
0.0000000000000000e+00, 0.0000000000000000e+00, 1.0000000000000000e+05, -2.8924059116378041e-03, 2.0000000000000000e+05, -2.8927057429178919e-03, 3.0000000000000000e+05, -2.8784698306361729e-03
4.0000000000000000e+05, -2.8665850507950709e-03, 5.0000000000000000e+05, -2.8526658453227921e-03, 6.0000000000000000e+05, -2.8371967944638751e-03, 7.0000000000000000e+05, -2.8204195577093021e-03
8.0000000000000000e+05, -2.8025042557338980e-03, 9.0000000000000000e+05, -2.7835286487944179e-03, 1.0000000000000000e+06, -2.7635428893594662e-03
*Amplitude, name=N022_T, definition=TABULAR, time=TOTAL TIME
0.0000000000000000e+00, 3.0000000000000000e+02, 1.0000000000000000e+05, 3.0267339407849909e+02, 2.0000000000000000e+05, 3.0492880549288742e+02, 3.0000000000000000e+05, 3.0825227712741088e+02
4.0000000000000000e+05, 3.1247322248019549e+02, 5.0000000000000000e+05, 3.1735762499169732e+02, 6.0000000000000000e+05, 3.2275854467122662e+02, 7.0000000000000000e+05, 3.2860093464180522e+02
8.0000000000000000e+05, 3.3483201082409568e+02, 9.0000000000000000e+05, 3.4142901734276973e+02, 1.0000000000000000e+06, 3.4837858811152819e+02
*Amplitude, name=N023_U1, definition=TABULAR, time=TOTAL TIME
0.0000000000000000e+00, 0.0000000000000000e+00, 1.0000000000000000e+05, 1.6772109982945291e-02, 2.0000000000000000e+05, 1.6828918807492571e-02, 3.0000000000000000e+05, 1.6937978471979861e-02
4.0000000000000000e+05, 1.7056212414693319e-02, 5.0000000000000000e+05, 1.7188897884052780e-02, 6.0000000000000000e+05, 1.7332932949354118e-02, 7.0000000000000000e+05, 1.7486828037536851e-02
8.0000000000000000e+05, 1.7649573674124060e-02, 9.0000000000000000e+05, 1.7820757795004999e-02, 1.0000000000000000e+06, 1.8000170091134009e-02
*Amplitude, name=N023_U2, definition=TABULAR, time=TOTAL TIME
0.0000000000000000e+00, 0.0000000000000000e+00, 1.0000000000000000e+05, 2.2809233153184161e-02, 2.0000000000000000e+05, 2.2777127569010239e-02, 3.0000000000000000e+05, 2.2788688757131071e-02
4.0000000000000000e+05, 2.2764288364771741e-02, 5.0000000000000000e+05, 2.2734486776215760e-02, 6.0000000000000000e+05, 2.2700612903275730e-02, 7.0000000000000000e+05, 2.2663332283451510e-02
8.0000000000000000e+05, 2.2623193435595840e-02, 9.0000000000000000e+05, 2.2580447418666980e-02, 1.0000000000000000e+06, 2.2535296956353389e-02
*Amplitude, name=N023_U3, definition=TABULAR, time=TOTAL TIME
0.0000000000000000e+00, 0.0000000000000000e+00, 1.0000000000000000e+05, -1.0914702992510600e-02, 2.0000000000000000e+05, -1.0921308641787050e-02, 3.0000000000000000e+05, -1.0897651531330189e-02
4.0000000000000000e+05, -1.0886066743759391e-02, 5.0000000000000000e+05, -1.0873671619259759e-02, 6.0000000000000000e+05, -1.0860916265601889e-02, 7.0000000000000000e+05, -1.0848070633231640e-02
8.0000000000000000e+05, -1.0835412746521320e-02, 9.0000000000000000e+05, -1.0823133636908429e-02, 1.0000000000000000e+06, -1.0811431763483389e-02
*Amplitude, name=N023_T, definition=TABULAR, time=TOTAL TIME
0.0000000000000000e+00, 3.0000000000000000e+02, 1.0000000000000000e+05, 3.0517464062110412e+02, 2.0000000000000000e+05, 3.1200607126000648e+02, 3.0000000000000000e+05, 3.2120213636881329e+02
4.0000000000000000e+05, 3.3209195363662701e+02, 5.0000000000000000e+05, 3.4416897111781242e+02, 6.0000000000000000e+05, 3.5714111551864818e+02, 7.0000000000000000e+05, 3.7085751746641461e+02
8.0000000000000000e+05, 3.8520495780924432e+02, 9.0000000000000000e+05, 4.0012742797214719e+02, 1.0000000000000000e+06, 4.1558475808686501e+02
*Amplitude, name=N024_U1, definition=TABULAR, time=TOTAL TIME
0.0000000000000000e+00, 0.0000000000000000e+00, 1.0000000000000000e+05, 1.2956625506592280e-02, 2.0000000000000000e+05, 1.3128732991081389e-02, 3.0000000000000000e+05, 1.3388891868722970e-02
4.0000000000000000e+05, 1.3672547315721100e-02, 5.0000000000000000e+05, 1.3983256179718210e-02, 6.0000000000000000e+05, 1.4315252153516480e-02, 7.0000000000000000e+05, 1.4665788004920230e-02
8.0000000000000000e+05, 1.5032824811744250e-02, 9.0000000000000000e+05, 1.5415537204472560e-02, 1.0000000000000000e+06, 1.5813427851135160e-02
*Amplitude, name=N024_U2, definition=TABULAR, time=TOTAL TIME
0.0000000000000000e+00, 0.0000000000000000e+00, 1.0000000000000000e+05, 4.2898114520688958e-02, 2.0000000000000000e+05, 4.2808257623649183e-02, 3.0000000000000000e+05, 4.2824438701172980e-02
4.0000000000000000e+05, 4.2773624812478088e-02, 5.0000000000000000e+05, 4.2717951220997787e-02, 6.0000000000000000e+05, 4.2658671355769208e-02, 7.0000000000000000e+05, 4.2596418489404667e-02
8.0000000000000000e+05, 4.2531790086331553e-02, 9.0000000000000000e+05, 4.2465062038820223e-02, 1.0000000000000000e+06, 4.2396491017558623e-02
*Amplitude, name=N024_U3, definition=TABULAR, time=TOTAL TIME
0.0000000000000000e+00, 0.0000000000000000e+00, 1.0000000000000000e+05, -2.2830049616855679e-02, 2.0000000000000000e+05, -2.2841728442059912e-02, 3.0000000000000000e+05, -2.2820422424969830e-02
4.0000000000000000e+05, -2.2830851080920419e-02, 5.0000000000000000e+05, -2.2849709563688751e-02, 6.0000000000000000e+05, -2.2876172779129109e-02, 7.0000000000000000e+05, -2.2910050095471170e-02
8.0000000000000000e+05, -2.2951434560914929e-02, 9.0000000000000000e+05, -2.3000656154074491e-02, 1.0000000000000000e+06, -2.3058195055538449e-02
*Amplitude, name=N024_T, definition=TABULAR, time=TOTAL TIME
0.0000000000000000e+00, 3.0000000000000000e+02, 1.0000000000000000e+05, 3.1462747175847102e+02, 2.0000000000000000e+05, 3.3314062516686988e+02, 3.0000000000000000e+05, 3.5438694439437461e+02
4.0000000000000000e+05, 3.7727525490760888e+02, 5.0000000000000000e+05, 4.0123405848829839e+02, 6.0000000000000000e+05, 4.2597196021696732e+02, 7.0000000000000000e+05, 4.5134596185273142e+02
8.0000000000000000e+05, 4.7723202258523918e+02, 9.0000000000000000e+05, 5.0357450005293919e+02, 1.0000000000000000e+06, 5.3032803097321698e+02
*Amplitude, name=N025_U1, definition=TABULAR, time=TOTAL TIME
0.0000000000000000e+00, 0.0000000000000000e+00, 1.0000000000000000e+05, 1.9032914969649990e-02, 2.0000000000000000e+05, 1.9527532423339041e-02, 3.0000000000000000e+05, 2.0132508986436051e-02
4.0000000000000000e+05, 2.0774060797786629e-02, 5.0000000000000000e+05, 2.1452042351584939e-02, 6.0000000000000000e+05, 2.2158919272742300e-02, 7.0000000000000000e+05, 2.2891163638529732e-02
8.0000000000000000e+05, 2.3646137150808880e-02, 9.0000000000000000e+05, 2.4422870606184741e-02, 1.0000000000000000e+06, 2.5220854527211560e-02
*Amplitude, name=N025_U2, definition=TABULAR, time=TOTAL TIME
0.0000000000000000e+00, 0.0000000000000000e+00, 1.0000000000000000e+05, 6.3413604118056882e-02, 2.0000000000000000e+05, 6.3206582086272556e-02, 3.0000000000000000e+05, 6.3199389384890184e-02
4.0000000000000000e+05, 6.3091316507763534e-02, 5.0000000000000000e+05, 6.2983256162016110e-02, 6.0000000000000000e+05, 6.2875361893828682e-02, 7.0000000000000000e+05, 6.2767722486236327e-02
8.0000000000000000e+05, 6.2660496164837709e-02, 9.0000000000000000e+05, 6.2553743967897646e-02, 1.0000000000000000e+06, 6.2447570950999197e-02
*Amplitude, name=N025_U3, definition=TABULAR, time=TOTAL TIME
0.0000000000000000e+00, 0.0000000000000000e+00, 1.0000000000000000e+05, -3.7329042734608547e-02, 2.0000000000000000e+05, -3.7322571996067998e-02, 3.0000000000000000e+05, -3.7298698294534263e-02
4.0000000000000000e+05, -3.7338883583981512e-02, 5.0000000000000000e+05, -3.7406349185168893e-02, 6.0000000000000000e+05, -3.7497887611609299e-02, 7.0000000000000000e+05, -3.7612553184690339e-02
8.0000000000000000e+05, -3.7750086735285827e-02, 9.0000000000000000e+05, -3.7911239690511113e-02, 1.0000000000000000e+06, -3.8097220488452273e-02
*Amplitude, name=N025_T, definition=TABULAR, time=TOTAL TIME
0.0000000000000000e+00, 3.0000000000000000e+02, 1.0000000000000000e+05, 3.4000000000000011e+02, 2.0000000000000000e+05, 3.8000000000000011e+02, 3.0000000000000000e+05, 4.2000000000000000e+02
4.0000000000000000e+05, 4.6000000000000000e+02, 5.0000000000000000e+05, 5.0000000000000000e+02, 6.0000000000000000e+05, 5.4000000000000000e+02, 7.0000000000000000e+05, 5.8000000000000000e+02
8.0000000000000000e+05, 6.2000000000000000e+02, 9.0000000000000000e+05, 6.6000000000000000e+02, 1.0000000000000000e+06, 7.0000000000000000e+02
*Amplitude, name=N026_U1, definition=TABULAR, time=TOTAL TIME
0.0000000000000000e+00, 0.0000000000000000e+00, 1.0000000000000000e+05, -2.0356888880265049e-36, 2.0000000000000000e+05, -1.1902174017635020e-33, 3.0000000000000000e+05, -7.1545998117021076e-39
4.0000000000000000e+05, 8.5716260056960269e-38, 5.0000000000000000e+05, 3.4190588607275408e-38, 6.0000000000000000e+05, 2.6518122449973698e-38, 7.0000000000000000e+05, 5.2655999039735357e-37
8.0000000000000000e+05, 7.0656327656910531e-37, 9.0000000000000000e+05, 7.9724270774397828e-37, 1.0000000000000000e+06, 9.0866344085838281e-37
*Amplitude, name=N026_U2, definition=TABULAR, time=TOTAL TIME
0.0000000000000000e+00, 0.0000000000000000e+00, 1.0000000000000000e+05, 2.0686024227240740e-36, 2.0000000000000000e+05, 6.1836850899417599e-34, 3.0000000000000000e+05, -1.8459921032758010e-38
4.0000000000000000e+05, -1.5538818186462829e-38, 5.0000000000000000e+05, -1.0016322536705119e-38, 6.0000000000000000e+05, -7.7005197758393670e-39, 7.0000000000000000e+05, 5.5749059757277997e-37
8.0000000000000000e+05, 4.9810272168981158e-37, 9.0000000000000000e+05, 4.8267117602144649e-37, 1.0000000000000000e+06, 4.8357954632137753e-37
*Amplitude, name=N026_U3, definition=TABULAR, time=TOTAL TIME
0.0000000000000000e+00, 0.0000000000000000e+00, 1.0000000000000000e+05, 5.9476328146271230e-37, 2.0000000000000000e+05, 1.1332501504358110e-33, 3.0000000000000000e+05, -1.1356881044220120e-37
4.0000000000000000e+05, -7.2106316934841507e-38, 5.0000000000000000e+05, -4.6689121174103480e-38, 6.0000000000000000e+05, -3.5124437397933922e-38, 7.0000000000000000e+05, 1.8637401059597869e-36
8.0000000000000000e+05, 1.5831566868337850e-36, 9.0000000000000000e+05, 1.4596597807843560e-36, 1.0000000000000000e+06, 1.3782749331914480e-36
*Amplitude, name=N026_T, definition=TABULAR, time=TOTAL TIME
0.0000000000000000e+00, 3.0000000000000000e+02, 1.0000000000000000e+05, 3.0000000000000000e+02, 2.0000000000000000e+05, 3.0000000000000000e+02, 3.0000000000000000e+05, 3.0000000000000000e+02
4.0000000000000000e+05, 3.0000000000000000e+02, 5.0000000000000000e+05, 3.0000000000000000e+02, 6.0000000000000000e+05, 3.0000000000000000e+02, 7.0000000000000000e+05, 3.0000000000000000e+02
8.0000000000000000e+05, 3.0000000000000000e+02, 9.0000000000000000e+05, 3.0000000000000000e+02, 1.0000000000000000e+06, 3.0000000000000000e+02
*Amplitude, name=N027_U1, definition=TABULAR, time=TOTAL TIME
0.0000000000000000e+00, 0.0000000000000000e+00, 1.0000000000000000e+05, -5.4966348398757733e-03, 2.0000000000000000e+05, -5.4866768347907836e-03, 3.0000000000000000e+05, -5.4879847200550126e-03
4.0000000000000000e+05, -5.4749594957111524e-03, 5.0000000000000000e+05, -5.4584501959191456e-03, 6.0000000000000000e+05, -5.4392147635509277e-03, 7.0000000000000000e+05, -5.4176157877641471e-03
8.0000000000000000e+05, -5.3938961015706187e-03, 9.0000000000000000e+05, -5.3681461175342426e-03, 1.0000000000000000e+06, -5.3404088025872506e-03
*Amplitude, name=N027_U2, definition=TABULAR, time=TOTAL TIME
0.0000000000000000e+00, 0.0000000000000000e+00, 1.0000000000000000e+05, 7.1131069107473778e-03, 2.0000000000000000e+05, 7.1220108125408131e-03, 3.0000000000000000e+05, 7.1558428083615408e-03
4.0000000000000000e+05, 7.1847705505833481e-03, 5.0000000000000000e+05, 7.2168385890346246e-03, 6.0000000000000000e+05, 7.2513386370762064e-03, 7.0000000000000000e+05, 7.2879210507779549e-03
8.0000000000000000e+05, 7.3263560823650237e-03, 9.0000000000000000e+05, 7.3665371796749592e-03, 1.0000000000000000e+06, 7.4084052999057928e-03
*Amplitude, name=N027_U3, definition=TABULAR, time=TOTAL TIME
0.0000000000000000e+00, 0.0000000000000000e+00, 1.0000000000000000e+05, -3.9382038050468256e-03, 2.0000000000000000e+05, -3.9328231615675764e-03, 3.0000000000000000e+05, -3.9290383090070241e-03
4.0000000000000000e+05, -3.9190608406434206e-03, 5.0000000000000000e+05, -3.9068757403945041e-03, 6.0000000000000000e+05, -3.8930190680067540e-03, 7.0000000000000000e+05, -3.8777605806257689e-03
8.0000000000000000e+05, -3.8612877792063580e-03, 9.0000000000000000e+05, -3.8436880224191820e-03, 1.0000000000000000e+06, -3.8250182997784550e-03
*Amplitude, name=N027_T, definition=TABULAR, time=TOTAL TIME
0.0000000000000000e+00, 3.0000000000000000e+02, 1.0000000000000000e+05, 2.9883844077628078e+02, 2.0000000000000000e+05, 3.0018740628354641e+02, 3.0000000000000000e+05, 3.0302498894708322e+02
4.0000000000000000e+05, 3.0675136220824049e+02, 5.0000000000000000e+05, 3.1108251853900708e+02, 6.0000000000000000e+05, 3.1587972964261189e+02, 7.0000000000000000e+05, 3.2107819660770701e+02
8.0000000000000000e+05, 3.2663617185697990e+02, 9.0000000000000000e+05, 3.3253598714034268e+02, 1.0000000000000000e+06, 3.3876842036644189e+02
*Amplitude, name=N028_U1, definition=TABULAR, time=TOTAL TIME
0.0000000000000000e+00, 0.0000000000000000e+00, 1.0000000000000000e+05, -5.1530629951455457e-03, 2.0000000000000000e+05, -5.0823894586088606e-03, 3.0000000000000000e+05, -5.0063611801713023e-03
4.0000000000000000e+05, -4.8936465395597803e-03, 5.0000000000000000e+05, -4.7650385537577732e-03, 6.0000000000000000e+05, -4.6240203486352287e-03, 7.0000000000000000e+05, -4.4722690483815766e-03
8.0000000000000000e+05, -4.3109710490721277e-03, 9.0000000000000000e+05, -4.1406096376728797e-03, 1.0000000000000000e+06, -3.9614626277684854e-03
*Amplitude, name=N028_U2, definition=TABULAR, time=TOTAL TIME
0.0000000000000000e+00, 0.0000000000000000e+00, 1.0000000000000000e+05, 2.5866668816285729e-02, 2.0000000000000000e+05, 2.5893286852053100e-02, 3.0000000000000000e+05, 2.5992214974060079e-02
4.0000000000000000e+05, 2.6067959959128011e-02, 5.0000000000000000e+05, 2.6148880320064710e-02, 6.0000000000000000e+05, 2.6233767993761960e-02, 7.0000000000000000e+05, 2.6322011055683572e-02
8.0000000000000000e+05, 2.6413157430696520e-02, 9.0000000000000000e+05, 2.6506965836816731e-02, 1.0000000000000000e+06, 2.6603265171923740e-02
*Amplitude, name=N028_U3, definition=TABULAR, time=TOTAL TIME
0.0000000000000000e+00, 0.0000000000000000e+00, 1.0000000000000000e+05, -1.2944159078556649e-02, 2.0000000000000000e+05, -1.2940122225181811e-02, 3.0000000000000000e+05, -1.2943596234659941e-02
4.0000000000000000e+05, -1.2941770898330389e-02, 5.0000000000000000e+05, -1.2939942586127080e-02, 6.0000000000000000e+05, -1.2938456328710331e-02, 7.0000000000000000e+05, -1.2937545265983241e-02
8.0000000000000000e+05, -1.2937477877677820e-02, 9.0000000000000000e+05, -1.2938459775137270e-02, 1.0000000000000000e+06, -1.2940718048697239e-02
*Amplitude, name=N028_T, definition=TABULAR, time=TOTAL TIME
0.0000000000000000e+00, 3.0000000000000000e+02, 1.0000000000000000e+05, 3.0165135308589299e+02, 2.0000000000000000e+05, 3.0774719554819461e+02, 3.0000000000000000e+05, 3.1639169104586091e+02
4.0000000000000000e+05, 3.2656907353682408e+02, 5.0000000000000000e+05, 3.3780472906786162e+02, 6.0000000000000000e+05, 3.4986574305603591e+02, 7.0000000000000000e+05, 3.6264203188170370e+02
8.0000000000000000e+05, 3.7604337975119529e+02, 9.0000000000000000e+05, 3.9002973070444119e+02, 1.0000000000000000e+06, 4.0457027958854229e+02
*Amplitude, name=N029_U1, definition=TABULAR, time=TOTAL TIME
0.0000000000000000e+00, 0.0000000000000000e+00, 1.0000000000000000e+05, -2.3219543843750932e-03, 2.0000000000000000e+05, -2.1099308566401168e-03, 3.0000000000000000e+05, -1.8868367800454111e-03
4.0000000000000000e+05, -1.5956594917461110e-03, 5.0000000000000000e+05, -1.2751176324585409e-03, 6.0000000000000000e+05, -9.3148061833395060e-04, 7.0000000000000000e+05, -5.6772857885917130e-04
8.0000000000000000e+05, -1.8610691719442781e-04, 9.0000000000000000e+05, 2.1249083382046311e-04, 1.0000000000000000e+06, 6.2751620771932129e-04
*Amplitude, name=N029_U2, definition=TABULAR, time=TOTAL TIME
0.0000000000000000e+00, 0.0000000000000000e+00, 1.0000000000000000e+05, 4.3670642387267797e-02, 2.0000000000000000e+05, 4.3749791726525503e-02, 3.0000000000000000e+05, 4.3970807331624603e-02
4.0000000000000000e+05, 4.4135803836736362e-02, 5.0000000000000000e+05, 4.4306342898216423e-02, 6.0000000000000000e+05, 4.4481123791735910e-02, 7.0000000000000000e+05, 4.4659475011749647e-02
8.0000000000000000e+05, 4.4840861962735970e-02, 9.0000000000000000e+05, 4.5024970093622323e-02, 1.0000000000000000e+06, 4.5211553679907611e-02
*Amplitude, name=N029_U3, definition=TABULAR, time=TOTAL TIME
0.0000000000000000e+00, 0.0000000000000000e+00, 1.0000000000000000e+05, -2.5368991442786801e-02, 2.0000000000000000e+05, -2.5359914957360369e-02, 3.0000000000000000e+05, -2.5366969909549751e-02
4.0000000000000000e+05, -2.5382109158860650e-02, 5.0000000000000000e+05, -2.5406400788232818e-02, 6.0000000000000000e+05, -2.5439005598454141e-02, 7.0000000000000000e+05, -2.5479757828457121e-02
8.0000000000000000e+05, -2.5528795202307990e-02, 9.0000000000000000e+05, -2.5586510036549971e-02, 1.0000000000000000e+06, -2.5653461418213841e-02
*Amplitude, name=N029_T, definition=TABULAR, time=TOTAL TIME
0.0000000000000000e+00, 3.0000000000000000e+02, 1.0000000000000000e+05, 3.1033671672995382e+02, 2.0000000000000000e+05, 3.2654567567885101e+02, 3.0000000000000000e+05, 3.4552139538917982e+02
4.0000000000000000e+05, 3.6607153803449160e+02, 5.0000000000000000e+05, 3.8772055185566683e+02, 6.0000000000000000e+05, 4.1024149962172038e+02, 7.0000000000000000e+05, 4.3351608131574790e+02
8.0000000000000000e+05, 4.5744233604155158e+02, 9.0000000000000000e+05, 4.8196290154450628e+02, 1.0000000000000000e+06, 5.0702927648926971e+02
*Amplitude, name=N030_U1, definition=TABULAR, time=TOTAL TIME
0.0000000000000000e+00, 0.0000000000000000e+00, 1.0000000000000000e+05, -5.9993036805787046e-03, 2.0000000000000000e+05, -5.5207598759711360e-03, 3.0000000000000000e+05, -5.0087310520704909e-03
4.0000000000000000e+05, -4.4223181296714183e-03, 5.0000000000000000e+05, -3.7997316212803728e-03, 6.0000000000000000e+05, -3.1484137366291562e-03, 7.0000000000000000e+05, -2.4718329285292199e-03
8.0000000000000000e+05, -1.7725926153918060e-03, 9.0000000000000000e+05, -1.0516134811649289e-03, 1.0000000000000000e+06, -3.0936917367607470e-04
*Amplitude, name=N030_U2, definition=TABULAR, time=TOTAL TIME
0.0000000000000000e+00, 0.0000000000000000e+00, 1.0000000000000000e+05, 6.5067432998679245e-02, 2.0000000000000000e+05, 6.5253876214347986e-02, 3.0000000000000000e+05, 6.5640779455967732e-02
4.0000000000000000e+05, 6.5926443799596099e-02, 5.0000000000000000e+05, 6.6211876141075460e-02, 6.0000000000000000e+05, 6.6497138919560120e-02, 7.0000000000000000e+05, 6.6782231268567513e-02
8.0000000000000000e+05, 6.7067205688150194e-02, 9.0000000000000000e+05, 6.7352006624347260e-02, 1.0000000000000000e+06, 6.7636598852808719e-02
*Amplitude, name=N030_U3, definition=TABULAR, time=TOTAL TIME
0.0000000000000000e+00, 0.0000000000000000e+00, 1.0000000000000000e+05, -3.7752136979803272e-02, 2.0000000000000000e+05, -3.7726047558802711e-02, 3.0000000000000000e+05, -3.7738131800428350e-02
4.0000000000000000e+05, -3.7784201822944889e-02, 5.0000000000000000e+05, -3.7856689590350129e-02, 6.0000000000000000e+05, -3.7952561899267490e-02, 7.0000000000000000e+05, -3.8070952286956512e-02
8.0000000000000000e+05, -3.8211665019243370e-02, 9.0000000000000000e+05, -3.8375470001499087e-02, 1.0000000000000000e+06, -3.8563584399474153e-02
*Amplitude, name=N030_T, definition=TABULAR, time=TOTAL TIME
0.0000000000000000e+00, 3.0000000000000000e+02, 1.0000000000000000e+05, 3.4000000000000011e+02, 2.0000000000000000e+05, 3.8000000000000011e+02, 3.0000000000000000e+05, 4.2000000000000000e+02
4.0000000000000000e+05, 4.6000000000000000e+02, 5.0000000000000000e+05, 5.0000000000000000e+02, 6.0000000000000000e+05, 5.4000000000000000e+02, 7.0000000000000000e+05, 5.8000000000000000e+02
8.0000000000000000e+05, 6.2000000000000000e+02, 9.0000000000000000e+05, 6.6000000000000000e+02, 1.0000000000000000e+06, 7.0000000000000000e+02
*Step, name=PATH, nlgeom=YES, inc=10
*Coupled Temperature-Displacement, deltmx=1000.0
1.0e5, 1.0e6, 1.0e5, 1.0e5
*Boundary, amplitude=N001_U1
1, 1, 1, 1.0
*Boundary, amplitude=N001_U2
1, 2, 2, 1.0
*Boundary, amplitude=N001_U3
1, 3, 3, 1.0
*Boundary, amplitude=N001_T
1, 11, 11, 1.0
*Boundary, amplitude=N002_U1
2, 1, 1, 1.0
*Boundary, amplitude=N002_U2
2, 2, 2, 1.0
*Boundary, amplitude=N002_U3
2, 3, 3, 1.0
*Boundary, amplitude=N002_T
2, 11, 11, 1.0
*Boundary, amplitude=N003_U1
3, 1, 1, 1.0
*Boundary, amplitude=N003_U2
3, 2, 2, 1.0
*Boundary, amplitude=N003_U3
3, 3, 3, 1.0
*Boundary, amplitude=N003_T
3, 11, 11, 1.0
*Boundary, amplitude=N004_U1
4, 1, 1, 1.0
*Boundary, amplitude=N004_U2
4, 2, 2, 1.0
*Boundary, amplitude=N004_U3
4, 3, 3, 1.0
*Boundary, amplitude=N004_T
4, 11, 11, 1.0
*Boundary, amplitude=N005_U1
5, 1, 1, 1.0
*Boundary, amplitude=N005_U2
5, 2, 2, 1.0
*Boundary, amplitude=N005_U3
5, 3, 3, 1.0
*Boundary, amplitude=N005_T
5, 11, 11, 1.0
*Boundary, amplitude=N006_U1
6, 1, 1, 1.0
*Boundary, amplitude=N006_U2
6, 2, 2, 1.0
*Boundary, amplitude=N006_U3
6, 3, 3, 1.0
*Boundary, amplitude=N006_T
6, 11, 11, 1.0
*Boundary, amplitude=N007_U1
7, 1, 1, 1.0
*Boundary, amplitude=N007_U2
7, 2, 2, 1.0
*Boundary, amplitude=N007_U3
7, 3, 3, 1.0
*Boundary, amplitude=N007_T
7, 11, 11, 1.0
*Boundary, amplitude=N008_U1
8, 1, 1, 1.0
*Boundary, amplitude=N008_U2
8, 2, 2, 1.0
*Boundary, amplitude=N008_U3
8, 3, 3, 1.0
*Boundary, amplitude=N008_T
8, 11, 11, 1.0
*Boundary, amplitude=N009_U1
9, 1, 1, 1.0
*Boundary, amplitude=N009_U2
9, 2, 2, 1.0
*Boundary, amplitude=N009_U3
9, 3, 3, 1.0
*Boundary, amplitude=N009_T
9, 11, 11, 1.0
*Boundary, amplitude=N010_U1
10, 1, 1, 1.0
*Boundary, amplitude=N010_U2
10, 2, 2, 1.0
*Boundary, amplitude=N010_U3
10, 3, 3, 1.0
*Boundary, amplitude=N010_T
10, 11, 11, 1.0
*Boundary, amplitude=N011_U1
11, 1, 1, 1.0
*Boundary, amplitude=N011_U2
11, 2, 2, 1.0
*Boundary, amplitude=N011_U3
11, 3, 3, 1.0
*Boundary, amplitude=N011_T
11, 11, 11, 1.0
*Boundary, amplitude=N012_U1
12, 1, 1, 1.0
*Boundary, amplitude=N012_U2
12, 2, 2, 1.0
*Boundary, amplitude=N012_U3
12, 3, 3, 1.0
*Boundary, amplitude=N012_T
12, 11, 11, 1.0
*Boundary, amplitude=N013_U1
13, 1, 1, 1.0
*Boundary, amplitude=N013_U2
13, 2, 2, 1.0
*Boundary, amplitude=N013_U3
13, 3, 3, 1.0
*Boundary, amplitude=N013_T
13, 11, 11, 1.0
*Boundary, amplitude=N014_U1
14, 1, 1, 1.0
*Boundary, amplitude=N014_U2
14, 2, 2, 1.0
*Boundary, amplitude=N014_U3
14, 3, 3, 1.0
*Boundary, amplitude=N014_T
14, 11, 11, 1.0
*Boundary, amplitude=N015_U1
15, 1, 1, 1.0
*Boundary, amplitude=N015_U2
15, 2, 2, 1.0
*Boundary, amplitude=N015_U3
15, 3, 3, 1.0
*Boundary, amplitude=N015_T
15, 11, 11, 1.0
*Boundary, amplitude=N016_U1
16, 1, 1, 1.0
*Boundary, amplitude=N016_U2
16, 2, 2, 1.0
*Boundary, amplitude=N016_U3
16, 3, 3, 1.0
*Boundary, amplitude=N016_T
16, 11, 11, 1.0
*Boundary, amplitude=N017_U1
17, 1, 1, 1.0
*Boundary, amplitude=N017_U2
17, 2, 2, 1.0
*Boundary, amplitude=N017_U3
17, 3, 3, 1.0
*Boundary, amplitude=N017_T
17, 11, 11, 1.0
*Boundary, amplitude=N018_U1
18, 1, 1, 1.0
*Boundary, amplitude=N018_U2
18, 2, 2, 1.0
*Boundary, amplitude=N018_U3
18, 3, 3, 1.0
*Boundary, amplitude=N018_T
18, 11, 11, 1.0
*Boundary, amplitude=N019_U1
19, 1, 1, 1.0
*Boundary, amplitude=N019_U2
19, 2, 2, 1.0
*Boundary, amplitude=N019_U3
19, 3, 3, 1.0
*Boundary, amplitude=N019_T
19, 11, 11, 1.0
*Boundary, amplitude=N020_U1
20, 1, 1, 1.0
*Boundary, amplitude=N020_U2
20, 2, 2, 1.0
*Boundary, amplitude=N020_U3
20, 3, 3, 1.0
*Boundary, amplitude=N020_T
20, 11, 11, 1.0
*Boundary, amplitude=N021_U1
21, 1, 1, 1.0
*Boundary, amplitude=N021_U2
21, 2, 2, 1.0
*Boundary, amplitude=N021_U3
21, 3, 3, 1.0
*Boundary, amplitude=N021_T
21, 11, 11, 1.0
*Boundary, amplitude=N022_U1
22, 1, 1, 1.0
*Boundary, amplitude=N022_U2
22, 2, 2, 1.0
*Boundary, amplitude=N022_U3
22, 3, 3, 1.0
*Boundary, amplitude=N022_T
22, 11, 11, 1.0
*Boundary, amplitude=N023_U1
23, 1, 1, 1.0
*Boundary, amplitude=N023_U2
23, 2, 2, 1.0
*Boundary, amplitude=N023_U3
23, 3, 3, 1.0
*Boundary, amplitude=N023_T
23, 11, 11, 1.0
*Boundary, amplitude=N024_U1
24, 1, 1, 1.0
*Boundary, amplitude=N024_U2
24, 2, 2, 1.0
*Boundary, amplitude=N024_U3
24, 3, 3, 1.0
*Boundary, amplitude=N024_T
24, 11, 11, 1.0
*Boundary, amplitude=N025_U1
25, 1, 1, 1.0
*Boundary, amplitude=N025_U2
25, 2, 2, 1.0
*Boundary, amplitude=N025_U3
25, 3, 3, 1.0
*Boundary, amplitude=N025_T
25, 11, 11, 1.0
*Boundary, amplitude=N026_U1
26, 1, 1, 1.0
*Boundary, amplitude=N026_U2
26, 2, 2, 1.0
*Boundary, amplitude=N026_U3
26, 3, 3, 1.0
*Boundary, amplitude=N026_T
26, 11, 11, 1.0
*Boundary, amplitude=N027_U1
27, 1, 1, 1.0
*Boundary, amplitude=N027_U2
27, 2, 2, 1.0
*Boundary, amplitude=N027_U3
27, 3, 3, 1.0
*Boundary, amplitude=N027_T
27, 11, 11, 1.0
*Boundary, amplitude=N028_U1
28, 1, 1, 1.0
*Boundary, amplitude=N028_U2
28, 2, 2, 1.0
*Boundary, amplitude=N028_U3
28, 3, 3, 1.0
*Boundary, amplitude=N028_T
28, 11, 11, 1.0
*Boundary, amplitude=N029_U1
29, 1, 1, 1.0
*Boundary, amplitude=N029_U2
29, 2, 2, 1.0
*Boundary, amplitude=N029_U3
29, 3, 3, 1.0
*Boundary, amplitude=N029_T
29, 11, 11, 1.0
*Boundary, amplitude=N030_U1
30, 1, 1, 1.0
*Boundary, amplitude=N030_U2
30, 2, 2, 1.0
*Boundary, amplitude=N030_U3
30, 3, 3, 1.0
*Boundary, amplitude=N030_T
30, 11, 11, 1.0
*Output, field, frequency=1
*Node Output
COORD, NT, RFL, RF, U
*Element Output, directions=YES
CE, CEEQ, COORD, EE, HFL, IVOL, LE, PE, PEEQ, S, TEMP
*Output, history, frequency=1
*Energy Output
ALLAE, ALLCD, ALLFD, ALLIE, ALLPD, ALLSE, ALLWK
*End Step
