*Heading
** Finite CAX8RT curved geometry, independent midside displacement and corner temperature.
*Preprint, echo=NO, model=NO, history=NO, contact=NO
*Node
1, 1, 0
2, 2.1, 0.1
3, 1.9, 1.2
4, 0.9, 1
5, 1.55, 0.03
6, 2.02, 0.65
7, 1.4, 1.12
8, 0.93, 0.5
*Element, type=CAX8RT, elset=SOLID
1, 1, 2, 3, 4, 5, 6, 7, 8
*Nset, nset=ALL
1, 2, 3, 4, 5, 6, 7, 8
*Material, name=SOLID
*Elastic
1e6, 0.25
*Expansion, zero=600
1e-5
*Conductivity
10
*Density
1000
*Specific Heat
100
*Solid Section, elset=SOLID, material=SOLID
,
*Initial Conditions, type=TEMPERATURE
ALL, 600
*Step, name=PROBE, nlgeom=YES, inc=1
*Coupled Temperature-Displacement
0.1, 0.1, 0.1, 0.1
*Boundary
1, 1, 1, 0.01
1, 2, 2, 0.02
2, 1, 1, 0.03
2, 2, 2, -0.01
3, 1, 1, 0.06
3, 2, 2, 0.07
4, 1, 1, -0.02
4, 2, 2, 0.05
5, 1, 1, 0.025
5, 2, 2, 0.003
6, 1, 1, 0.038
6, 2, 2, 0.034
7, 1, 1, 0.022
7, 2, 2, 0.065
8, 1, 1, -0.002
8, 2, 2, 0.032
1, 11, 11, 600
2, 11, 11, 620
3, 11, 11, 590
4, 11, 11, 610
*Dflux
SOLID, BF, 1e6
*Output, field, frequency=1
*Node Output
NT, U, RF, RFL
*Element Output
S, EE, COORD, IVOL, HFL
*Output, history, frequency=0
*End Step
