*Heading
** B3.4: two deformable C3D8 blocks with small-sliding STS Coulomb friction.
*Preprint, echo=NO, model=NO, history=NO, contact=YES
*Node
1, 0., -2.1e-5, 0.
2, 1.e-2, -2.1e-5, 0.
3, 1.e-2, 1.0021e-2, 0.
4, 0., 1.0021e-2, 0.
5, 0., -2.1e-5, 1.e-2
6, 1.e-2, -2.1e-5, 1.e-2
7, 1.e-2, 1.0021e-2, 1.e-2
8, 0., 1.0021e-2, 1.e-2
9, 1.e-2, 0., 0.
10, 2.e-2, 0., 0.
11, 2.e-2, 1.e-2, 0.
12, 1.e-2, 1.e-2, 0.
13, 1.e-2, 0., 1.e-2
14, 2.e-2, 0., 1.e-2
15, 2.e-2, 1.e-2, 1.e-2
16, 1.e-2, 1.e-2, 1.e-2
*Element, type=C3D8, elset=PRIMARY
1, 1, 2, 3, 4, 5, 6, 7, 8
*Element, type=C3D8, elset=SECONDARY
2, 9, 10, 11, 12, 13, 14, 15, 16
*Nset, nset=ALL_NODES
1, 2, 3, 4, 5, 6, 7, 8, 9, 10, 11, 12, 13, 14, 15, 16
*Nset, nset=PRIMARY_LEFT
1, 4, 5, 8
*Nset, nset=SECONDARY_RIGHT
10, 11, 14, 15
*Nset, nset=SECONDARY_CONTACT_NODES
9, 12, 13, 16
*Surface, type=ELEMENT, name=PRIMARY_CONTACT
PRIMARY, S4
*Surface, type=ELEMENT, name=SECONDARY_CONTACT
SECONDARY, S6
*Material, name=ELASTIC
*Elastic
1.e9, 0.
*Solid Section, elset=PRIMARY, material=ELASTIC
,
*Solid Section, elset=SECONDARY, material=ELASTIC
,
*Surface Interaction, name=PENALTY_CONTACT
*Surface Behavior, penalty=LINEAR
1.e13,
*Friction, slip tolerance=1.e-8
1.e-3,
*Contact Pair, interaction=PENALTY_CONTACT, type=SURFACE TO SURFACE, small sliding, adjust=0.
SECONDARY_CONTACT, PRIMARY_CONTACT
*Step, name=LOAD, nlgeom=NO, inc=100
*Static
1., 1., 1.e-8, 1.
*Boundary
PRIMARY_LEFT, 1, 3, 0.
SECONDARY_RIGHT, 1, 1, -2.e-5
SECONDARY_RIGHT, 2, 2, 2.e-6
SECONDARY_RIGHT, 3, 3, 0.
*Output, field, frequency=1
*Node Output
COORD, RF, U
*Contact Output
CSTRESS, CDISP, CFORCE
*End Step
