*Heading
** B3.9: nonmatching C3D8 small-sliding surface-to-surface contact.
*Preprint, echo=NO, model=NO, history=NO, contact=YES
*Node
1, 0, 0, 0
2, 1, 0, 0
3, 1, 0.5, 0
4, 0, 0.5, 0
5, 0, 0, 0.5
6, 1, 0, 0.5
7, 1, 0.5, 0.5
8, 0, 0.5, 0.5
9, 1, 1, 0
10, 0, 1, 0
11, 1, 1, 0.5
12, 0, 1, 0.5
13, 0, 0, 1
14, 1, 0, 1
15, 1, 0.5, 1
16, 0, 0.5, 1
17, 1, 1, 1
18, 0, 1, 1
19, 1, 0, 0
20, 2, 0, 0
21, 2, 0.28, 0
22, 1, 0.28, 0
23, 1, 0, 0.43
24, 2, 0, 0.43
25, 2, 0.28, 0.43
26, 1, 0.28, 0.43
27, 2, 0.67, 0
28, 1, 0.67, 0
29, 2, 0.67, 0.43
30, 1, 0.67, 0.43
31, 2, 1, 0
32, 1, 1, 0
33, 2, 1, 0.43
34, 1, 1, 0.43
35, 1, 0, 1
36, 2, 0, 1
37, 2, 0.28, 1
38, 1, 0.28, 1
39, 2, 0.67, 1
40, 1, 0.67, 1
41, 2, 1, 1
42, 1, 1, 1
*Element, type=C3D8, elset=PRIMARY
1, 1, 2, 3, 4, 5, 6, 7, 8
2, 4, 3, 9, 10, 8, 7, 11, 12
3, 5, 6, 7, 8, 13, 14, 15, 16
4, 8, 7, 11, 12, 16, 15, 17, 18
*Element, type=C3D8, elset=SECONDARY
5, 19, 20, 21, 22, 23, 24, 25, 26
6, 22, 21, 27, 28, 26, 25, 29, 30
7, 28, 27, 31, 32, 30, 29, 33, 34
8, 23, 24, 25, 26, 35, 36, 37, 38
9, 26, 25, 29, 30, 38, 37, 39, 40
10, 30, 29, 33, 34, 40, 39, 41, 42
*Nset, nset=PRIMARY_OUTER
1, 4, 5, 8, 10, 12, 13, 16, 18
*Nset, nset=SECONDARY_OUTER
20, 21, 24, 25, 27, 29, 31, 33, 36, 37, 39, 41
*Nset, nset=SECONDARY_CONTACT_NODES
19, 22, 23, 26, 28, 30, 32, 34, 35, 38, 40, 42
*Surface, type=ELEMENT, name=PRIMARY_CONTACT
PRIMARY, S4
*Surface, type=ELEMENT, name=SECONDARY_CONTACT
SECONDARY, S6
*Material, name=PRIMARY_MATERIAL
*Elastic
1000000000, 0.0
*Material, name=SECONDARY_MATERIAL
*Elastic
1000000000, 0.0
*Solid Section, elset=PRIMARY, material=PRIMARY_MATERIAL
,
*Solid Section, elset=SECONDARY, material=SECONDARY_MATERIAL
,
*Surface Interaction, name=PENALTY_CONTACT
*Surface Behavior, penalty=LINEAR
100000000000,
*Contact Pair, interaction=PENALTY_CONTACT, type=SURFACE TO SURFACE, small sliding, adjust=0.
SECONDARY_CONTACT, PRIMARY_CONTACT
*Step, name=LOAD, nlgeom=NO, inc=100
*Static
0.1, 1., 1.e-8, 0.1
*Boundary
PRIMARY_OUTER, 1, 3, 0.
SECONDARY_OUTER, 1, 1, -1e-05
SECONDARY_OUTER, 2, 2, -0
SECONDARY_OUTER, 3, 3, 0.
*Output, field, frequency=1
*Node Output
COORD, RF, U
*Contact Output
CSTRESS, CDISP, CFORCE
*End Step
