*Heading
** B3.9: tilted_gap C3D8 small-sliding surface-to-surface contact.
*Preprint, echo=NO, model=NO, history=NO, contact=YES
*Node
1, 0, 0, 0
2, 0.9063077870366499, 0.4226182617406994, 0
3, 0.7668437606622192, 0.7216998314627939, 0
4, -0.1394640263744308, 0.2990815697220945, 0
5, 0, 0, 0.38
6, 0.9063077870366499, 0.4226182617406994, 0.38
7, 0.7668437606622192, 0.7216998314627939, 0.38
8, -0.1394640263744308, 0.2990815697220945, 0.38
9, 0.6104750038181603, 1.057033712666354, 0
10, -0.2958327832184896, 0.6344154509256549, 0
11, 0.6104750038181603, 1.057033712666354, 0.38
12, -0.2958327832184896, 0.6344154509256549, 0.38
13, 0.4836895252959505, 1.328926048777349, 0
14, -0.4226182617406994, 0.9063077870366499, 0
15, 0.4836895252959505, 1.328926048777349, 0.38
16, -0.4226182617406994, 0.9063077870366499, 0.38
17, 0, 0, 1
18, 0.9063077870366499, 0.4226182617406994, 1
19, 0.7668437606622192, 0.7216998314627939, 1
20, -0.1394640263744308, 0.2990815697220945, 1
21, 0.6104750038181603, 1.057033712666354, 1
22, -0.2958327832184896, 0.6344154509256549, 1
23, 0.4836895252959505, 1.328926048777349, 1
24, -0.4226182617406994, 0.9063077870366499, 1
25, 0.906309599652224, 0.4226191069772229, 0
26, 1.812617386688874, 0.8452373687179223, 0
27, 1.609760621053338, 1.280265106495514, 0
28, 0.7034528340166883, 0.8576468447548149, 0
29, 0.906309599652224, 0.4226191069772229, 0.22
30, 1.812617386688874, 0.8452373687179223, 0.22
31, 1.609760621053338, 1.280265106495514, 0.22
32, 0.7034528340166883, 0.8576468447548149, 0.22
33, 1.389999124948174, 1.751545155754572, 0
34, 0.4836913379115246, 1.328926894013873, 0
35, 1.389999124948174, 1.751545155754572, 0.22
36, 0.4836913379115246, 1.328926894013873, 0.22
37, 0.906309599652224, 0.4226191069772229, 0.63
38, 1.812617386688874, 0.8452373687179223, 0.63
39, 1.609760621053338, 1.280265106495514, 0.63
40, 0.7034528340166883, 0.8576468447548149, 0.63
41, 1.389999124948174, 1.751545155754572, 0.63
42, 0.4836913379115246, 1.328926894013873, 0.63
43, 0.906309599652224, 0.4226191069772229, 1
44, 1.812617386688874, 0.8452373687179223, 1
45, 1.609760621053338, 1.280265106495514, 1
46, 0.7034528340166883, 0.8576468447548149, 1
47, 1.389999124948174, 1.751545155754572, 1
48, 0.4836913379115246, 1.328926894013873, 1
*Element, type=C3D8, elset=PRIMARY
1, 1, 2, 3, 4, 5, 6, 7, 8
2, 4, 3, 9, 10, 8, 7, 11, 12
3, 10, 9, 13, 14, 12, 11, 15, 16
4, 5, 6, 7, 8, 17, 18, 19, 20
5, 8, 7, 11, 12, 20, 19, 21, 22
6, 12, 11, 15, 16, 22, 21, 23, 24
*Element, type=C3D8, elset=SECONDARY
7, 25, 26, 27, 28, 29, 30, 31, 32
8, 28, 27, 33, 34, 32, 31, 35, 36
9, 29, 30, 31, 32, 37, 38, 39, 40
10, 32, 31, 35, 36, 40, 39, 41, 42
11, 37, 38, 39, 40, 43, 44, 45, 46
12, 40, 39, 41, 42, 46, 45, 47, 48
*Nset, nset=PRIMARY_OUTER
1, 4, 5, 8, 10, 12, 14, 16, 17, 20, 22, 24
*Nset, nset=SECONDARY_OUTER
26, 27, 30, 31, 33, 35, 38, 39, 41, 44, 45, 47
*Nset, nset=SECONDARY_CONTACT_NODES
25, 28, 29, 32, 34, 36, 37, 40, 42, 43, 46, 48
*Surface, type=ELEMENT, name=PRIMARY_CONTACT
PRIMARY, S4
*Surface, type=ELEMENT, name=SECONDARY_CONTACT
SECONDARY, S6
*Material, name=PRIMARY_MATERIAL
*Elastic
1400000000, 0.0
*Material, name=SECONDARY_MATERIAL
*Elastic
800000000, 0.0
*Solid Section, elset=PRIMARY, material=PRIMARY_MATERIAL
,
*Solid Section, elset=SECONDARY, material=SECONDARY_MATERIAL
,
*Surface Interaction, name=PENALTY_CONTACT
*Surface Behavior, penalty=LINEAR
50000000000,
*Contact Pair, interaction=PENALTY_CONTACT, type=SURFACE TO SURFACE, small sliding, adjust=0.
SECONDARY_CONTACT, PRIMARY_CONTACT
*Step, name=LOAD, nlgeom=NO, inc=100
*Static
0.1, 1., 1.e-8, 0.1
*Boundary
PRIMARY_OUTER, 1, 3, 0.
SECONDARY_OUTER, 1, 1, -1.08756934444398e-05
SECONDARY_OUTER, 2, 2, -5.071419140888393e-06
SECONDARY_OUTER, 3, 3, 0.
*Output, field, frequency=1
*Node Output
COORD, RF, U
*Contact Output
CSTRESS, CDISP, CFORCE
*End Step
