*Heading
** B4.2 C3D8 finite-sliding friction objectivity and resticking.
*Preprint, echo=NO, model=NO, history=NO, contact=YES
*Node
1, 0, 0, 0
2, 1, 0, 0
3, 1, 1, 0
4, 0, 1, 0
5, 0, 0, 1
6, 1, 0, 1
7, 1, 1, 1
8, 0, 1, 1
9, 1, 0, 0
10, 2, 0, 0
11, 2, 1, 0
12, 1, 1, 0
13, 1, 0, 1
14, 2, 0, 1
15, 2, 1, 1
16, 1, 1, 1
*Element, type=C3D8, elset=PRIMARY
1, 1, 2, 3, 4, 5, 6, 7, 8
*Element, type=C3D8, elset=SECONDARY
2, 9, 10, 11, 12, 13, 14, 15, 16
*Nset, nset=PRIMARY_ALL
1, 2, 3, 4, 5, 6, 7, 8
*Nset, nset=SECONDARY_ALL
9, 10, 11, 12, 13, 14, 15, 16
*Nset, nset=SECONDARY_CONTACT_NODES
9, 12, 13, 16
*Surface, type=ELEMENT, name=PRIMARY_CONTACT
PRIMARY, S4
*Surface, type=ELEMENT, name=SECONDARY_CONTACT
SECONDARY, S6
*Material, name=ELASTIC
*Elastic
1.e9, 0.25
*Solid Section, elset=PRIMARY, material=ELASTIC
,
*Solid Section, elset=SECONDARY, material=ELASTIC
,
*Surface Interaction, name=CONTACT
*Surface Behavior, pressure-overclosure=LINEAR
1.e5,
*Friction, slip tolerance=1.e-4
0.5,
*Contact Pair, interaction=CONTACT, type=SURFACE TO SURFACE, adjust=0.
SECONDARY_CONTACT, PRIMARY_CONTACT
*Step, name=STICK, nlgeom=YES, inc=1
*Static
1., 1., 1., 1.
*Boundary, op=NEW
1, 1, 1, 0
1, 2, 2, 0
1, 3, 3, 0
2, 1, 1, 0
2, 2, 2, 0
2, 3, 3, 0
3, 1, 1, 0
3, 2, 2, 0
3, 3, 3, 0
4, 1, 1, 0
4, 2, 2, 0
4, 3, 3, 0
5, 1, 1, 0
5, 2, 2, 0
5, 3, 3, 0
6, 1, 1, 0
6, 2, 2, 0
6, 3, 3, 0
7, 1, 1, 0
7, 2, 2, 0
7, 3, 3, 0
8, 1, 1, 0
8, 2, 2, 0
8, 3, 3, 0
9, 1, 1, -0.01000000000000001
9, 2, 2, 3e-05
9, 3, 3, 4e-05
10, 1, 1, -0.01000000000000001
10, 2, 2, 3e-05
10, 3, 3, 4e-05
11, 1, 1, -0.01000000000000001
11, 2, 2, 2.999999999997449e-05
11, 3, 3, 4e-05
12, 1, 1, -0.01000000000000001
12, 2, 2, 2.999999999997449e-05
12, 3, 3, 4e-05
13, 1, 1, -0.01000000000000001
13, 2, 2, 3e-05
13, 3, 3, 4.000000000004e-05
14, 1, 1, -0.01000000000000001
14, 2, 2, 3e-05
14, 3, 3, 4.000000000004e-05
15, 1, 1, -0.01000000000000001
15, 2, 2, 2.999999999997449e-05
15, 3, 3, 4.000000000004e-05
16, 1, 1, -0.01000000000000001
16, 2, 2, 2.999999999997449e-05
16, 3, 3, 4.000000000004e-05
*Output, field, frequency=1
*Node Output
COORD, RF, U
*Contact Output
CSTRESS, CDISP, CFORCE
*End Step
*Step, name=SLIDE, nlgeom=YES, inc=1
*Static
1., 1., 1., 1.
*Boundary, op=NEW
1, 1, 1, 0
1, 2, 2, 0
1, 3, 3, 0
2, 1, 1, 0
2, 2, 2, 0
2, 3, 3, 0
3, 1, 1, 0
3, 2, 2, 0
3, 3, 3, 0
4, 1, 1, 0
4, 2, 2, 0
4, 3, 3, 0
5, 1, 1, 0
5, 2, 2, 0
5, 3, 3, 0
6, 1, 1, 0
6, 2, 2, 0
6, 3, 3, 0
7, 1, 1, 0
7, 2, 2, 0
7, 3, 3, 0
8, 1, 1, 0
8, 2, 2, 0
8, 3, 3, 0
9, 1, 1, -0.01000000000000001
9, 2, 2, 0.0012
9, 3, 3, 0.0016
10, 1, 1, -0.01000000000000001
10, 2, 2, 0.0012
10, 3, 3, 0.0016
11, 1, 1, -0.01000000000000001
11, 2, 2, 0.00120000000000009
11, 3, 3, 0.0016
12, 1, 1, -0.01000000000000001
12, 2, 2, 0.00120000000000009
12, 3, 3, 0.0016
13, 1, 1, -0.01000000000000001
13, 2, 2, 0.0012
13, 3, 3, 0.001600000000000046
14, 1, 1, -0.01000000000000001
14, 2, 2, 0.0012
14, 3, 3, 0.001600000000000046
15, 1, 1, -0.01000000000000001
15, 2, 2, 0.00120000000000009
15, 3, 3, 0.001600000000000046
16, 1, 1, -0.01000000000000001
16, 2, 2, 0.00120000000000009
16, 3, 3, 0.001600000000000046
*Output, field, frequency=1
*Node Output
COORD, RF, U
*Contact Output
CSTRESS, CDISP, CFORCE
*End Step
*Step, name=ROTATE_01, nlgeom=YES, inc=1
*Static
1., 1., 1., 1.
*Boundary, op=NEW
1, 1, 1, 0
1, 2, 2, 0
1, 3, 3, 0
2, 1, 1, -0.0001531210921622561
2, 2, 2, 0.0174991067845108
2, 3, 3, 0
3, 1, 1, -0.01765222787667309
3, 2, 2, 0.01734598569234858
3, 3, 3, 0
4, 1, 1, -0.0174991067845108
4, 2, 2, -0.0001531210921622561
4, 3, 3, 0
5, 1, 1, 0
5, 2, 2, 0
5, 3, 3, 0
6, 1, 1, -0.0001531210921622561
6, 2, 2, 0.0174991067845108
6, 3, 3, 0
7, 1, 1, -0.01765222787667309
7, 2, 2, 0.01734598569234858
7, 3, 3, 0
8, 1, 1, -0.0174991067845108
8, 2, 2, -0.0001531210921622561
8, 3, 3, 0
9, 1, 1, -0.0101725888093821
9, 2, 2, 0.0185239319713551
9, 3, 3, 0.0016
10, 1, 1, -0.01032570990154436
10, 2, 2, 0.0360230387558659
10, 3, 3, 0.0016
11, 1, 1, -0.02782481668605508
11, 2, 2, 0.03586991766370362
11, 3, 3, 0.0016
12, 1, 1, -0.02767169559389282
12, 2, 2, 0.0183708108791929
12, 3, 3, 0.0016
13, 1, 1, -0.0101725888093821
13, 2, 2, 0.0185239319713551
13, 3, 3, 0.001600000000000046
14, 1, 1, -0.01032570990154436
14, 2, 2, 0.0360230387558659
14, 3, 3, 0.001600000000000046
15, 1, 1, -0.02782481668605508
15, 2, 2, 0.03586991766370362
15, 3, 3, 0.001600000000000046
16, 1, 1, -0.02767169559389282
16, 2, 2, 0.0183708108791929
16, 3, 3, 0.001600000000000046
*Output, field, frequency=1
*Node Output
COORD, RF, U
*Contact Output
CSTRESS, CDISP, CFORCE
*End Step
*Step, name=ROTATE_02, nlgeom=YES, inc=1
*Static
1., 1., 1., 1.
*Boundary, op=NEW
1, 1, 1, 0
1, 2, 2, 0
1, 3, 3, 0
2, 1, 1, -0.0006124374765114071
2, 2, 2, 0.03499285460433619
2, 3, 3, 0
3, 1, 1, -0.03560529208084762
3, 2, 2, 0.0343804171278248
3, 3, 3, 0
4, 1, 1, -0.03499285460433619
4, 2, 2, -0.0006124374765114071
4, 3, 3, 0
5, 1, 1, 0
5, 2, 2, 0
5, 3, 3, 0
6, 1, 1, -0.0006124374765114071
6, 2, 2, 0.03499285460433619
6, 3, 3, 0
7, 1, 1, -0.03560529208084762
7, 2, 2, 0.0343804171278248
7, 3, 3, 0
8, 1, 1, -0.03499285460433619
8, 2, 2, -0.0006124374765114071
8, 3, 3, 0
9, 1, 1, -0.0106483045272715
9, 2, 2, 0.03584219113332101
9, 3, 3, 0.0016
10, 1, 1, -0.01126074200378291
10, 2, 2, 0.0708350457376572
10, 3, 3, 0.0016
11, 1, 1, -0.04625359660811901
11, 2, 2, 0.0702226082611459
11, 3, 3, 0.0016
12, 1, 1, -0.04564115913160771
12, 2, 2, 0.03522975365680958
12, 3, 3, 0.0016
13, 1, 1, -0.0106483045272715
13, 2, 2, 0.03584219113332101
13, 3, 3, 0.001600000000000046
14, 1, 1, -0.01126074200378291
14, 2, 2, 0.0708350457376572
14, 3, 3, 0.001600000000000046
15, 1, 1, -0.04625359660811901
15, 2, 2, 0.0702226082611459
15, 3, 3, 0.001600000000000046
16, 1, 1, -0.04564115913160771
16, 2, 2, 0.03522975365680958
16, 3, 3, 0.001600000000000046
*Output, field, frequency=1
*Node Output
COORD, RF, U
*Contact Output
CSTRESS, CDISP, CFORCE
*End Step
*Step, name=ROTATE_03, nlgeom=YES, inc=1
*Static
1., 1., 1., 1.
*Boundary, op=NEW
1, 1, 1, 0
1, 2, 2, 0
1, 3, 3, 0
2, 1, 1, -0.001377808490994559
2, 2, 2, 0.05247588613593179
2, 3, 3, 0
3, 1, 1, -0.05385369462692635
3, 2, 2, 0.05109807764493723
3, 3, 3, 0
4, 1, 1, -0.05247588613593179
4, 2, 2, -0.001377808490994559
4, 3, 3, 0
5, 1, 1, 0
5, 2, 2, 0
5, 3, 3, 0
6, 1, 1, -0.001377808490994559
6, 2, 2, 0.05247588613593179
6, 3, 3, 0
7, 1, 1, -0.05385369462692635
7, 2, 2, 0.05109807764493723
7, 3, 3, 0
8, 1, 1, -0.05247588613593179
8, 2, 2, -0.001377808490994559
8, 3, 3, 0
9, 1, 1, -0.01142700146944775
9, 2, 2, 0.05314947390438327
9, 3, 3, 0.0016
10, 1, 1, -0.01280480996044231
10, 2, 2, 0.1056253600403151
10, 3, 3, 0.0016
11, 1, 1, -0.0652806960963741
11, 2, 2, 0.1042475515493206
11, 3, 3, 0.0016
12, 1, 1, -0.06390288760537954
12, 2, 2, 0.05177166541338885
12, 3, 3, 0.0016
13, 1, 1, -0.01142700146944775
13, 2, 2, 0.05314947390438327
13, 3, 3, 0.001600000000000046
14, 1, 1, -0.01280480996044231
14, 2, 2, 0.1056253600403151
14, 3, 3, 0.001600000000000046
15, 1, 1, -0.0652806960963741
15, 2, 2, 0.1042475515493206
15, 3, 3, 0.001600000000000046
16, 1, 1, -0.06390288760537954
16, 2, 2, 0.05177166541338885
16, 3, 3, 0.001600000000000046
*Output, field, frequency=1
*Node Output
COORD, RF, U
*Contact Output
CSTRESS, CDISP, CFORCE
*End Step
*Step, name=ROTATE_04, nlgeom=YES, inc=1
*Static
1., 1., 1., 1.
*Boundary, op=NEW
1, 1, 1, 0
1, 2, 2, 0
1, 3, 3, 0
2, 1, 1, -0.002448999746720415
2, 2, 2, 0.06994284733753275
2, 3, 3, 0
3, 1, 1, -0.07239184708425317
3, 2, 2, 0.06749384759081245
3, 3, 3, 0
4, 1, 1, -0.06994284733753275
4, 2, 2, -0.002448999746720415
4, 3, 3, 0
5, 1, 1, 0
5, 2, 2, 0
5, 3, 3, 0
6, 1, 1, -0.002448999746720415
6, 2, 2, 0.06994284733753275
6, 3, 3, 0
7, 1, 1, -0.07239184708425317
7, 2, 2, 0.06749384759081245
7, 3, 3, 0
8, 1, 1, -0.06994284733753275
8, 2, 2, -0.002448999746720415
8, 3, 3, 0
9, 1, 1, -0.01250844116605832
9, 2, 2, 0.07044048006446137
9, 3, 3, 0.0016
10, 1, 1, -0.01495744091277862
10, 2, 2, 0.1403833274019941
10, 3, 3, 0.0016
11, 1, 1, -0.08490028825031137
11, 2, 2, 0.1379343276552738
11, 3, 3, 0.0016
12, 1, 1, -0.08245128850359107
12, 2, 2, 0.06799148031774105
12, 3, 3, 0.0016
13, 1, 1, -0.01250844116605832
13, 2, 2, 0.07044048006446137
13, 3, 3, 0.001600000000000046
14, 1, 1, -0.01495744091277862
14, 2, 2, 0.1403833274019941
14, 3, 3, 0.001600000000000046
15, 1, 1, -0.08490028825031137
15, 2, 2, 0.1379343276552738
15, 3, 3, 0.001600000000000046
16, 1, 1, -0.08245128850359107
16, 2, 2, 0.06799148031774105
16, 3, 3, 0.001600000000000046
*Output, field, frequency=1
*Node Output
COORD, RF, U
*Contact Output
CSTRESS, CDISP, CFORCE
*End Step
*Step, name=ROTATE_05, nlgeom=YES, inc=1
*Static
1., 1., 1., 1.
*Boundary, op=NEW
1, 1, 1, 0
1, 2, 2, 0
1, 3, 3, 0
2, 1, 1, -0.003825683199738972
2, 2, 2, 0.0873883890887872
2, 3, 3, 0
3, 1, 1, -0.09121407228852618
3, 2, 2, 0.08356270588904824
3, 3, 3, 0
4, 1, 1, -0.0873883890887872
4, 2, 2, -0.003825683199738972
4, 3, 3, 0
5, 1, 1, 0
5, 2, 2, 0
5, 3, 3, 0
6, 1, 1, -0.003825683199738972
6, 2, 2, 0.0873883890887872
6, 3, 3, 0
7, 1, 1, -0.09121407228852618
7, 2, 2, 0.08356270588904824
7, 3, 3, 0
8, 1, 1, -0.0873883890887872
8, 2, 2, -0.003825683199738972
8, 3, 3, 0
9, 1, 1, -0.01389229243464807
9, 2, 2, 0.08770991437805964
9, 3, 3, 0.0016
10, 1, 1, -0.01771797563438704
10, 2, 2, 0.1750983034668468
10, 3, 3, 0.0016
11, 1, 1, -0.1051063647231743
11, 2, 2, 0.171272620267108
11, 3, 3, 0.0016
12, 1, 1, -0.1012806815234353
12, 2, 2, 0.08388423117832078
12, 3, 3, 0.0016
13, 1, 1, -0.01389229243464807
13, 2, 2, 0.08770991437805964
13, 3, 3, 0.001600000000000046
14, 1, 1, -0.01771797563438704
14, 2, 2, 0.1750983034668468
14, 3, 3, 0.001600000000000046
15, 1, 1, -0.1051063647231743
15, 2, 2, 0.171272620267108
15, 3, 3, 0.001600000000000046
16, 1, 1, -0.1012806815234353
16, 2, 2, 0.08388423117832078
16, 3, 3, 0.001600000000000046
*Output, field, frequency=1
*Node Output
COORD, RF, U
*Contact Output
CSTRESS, CDISP, CFORCE
*End Step
*Step, name=ROTATE_06, nlgeom=YES, inc=1
*Static
1., 1., 1., 1.
*Boundary, op=NEW
1, 1, 1, 0
1, 2, 2, 0
1, 3, 3, 0
2, 1, 1, -0.0055074372515026
2, 2, 2, 0.1048071688288825
2, 3, 3, 0
3, 1, 1, -0.110314606080385
3, 2, 2, 0.09929973157737981
3, 3, 3, 0
4, 1, 1, -0.1048071688288825
4, 2, 2, -0.0055074372515026
4, 3, 3, 0
5, 1, 1, 0
5, 2, 2, 0
5, 3, 3, 0
6, 1, 1, -0.0055074372515026
6, 2, 2, 0.1048071688288825
6, 3, 3, 0
7, 1, 1, -0.110314606080385
7, 2, 2, 0.09929973157737981
7, 3, 3, 0
8, 1, 1, -0.1048071688288825
8, 2, 2, -0.0055074372515026
8, 3, 3, 0
9, 1, 1, -0.01557813148158216
9, 2, 2, 0.1049524882158918
9, 3, 3, 0.0016
10, 1, 1, -0.02108556873308487
10, 2, 2, 0.2097596570447743
10, 3, 3, 0.0016
11, 1, 1, -0.1258927375619674
11, 2, 2, 0.2042522197932717
11, 3, 3, 0.0016
12, 1, 1, -0.1203853003104647
12, 2, 2, 0.09944505096438938
12, 3, 3, 0.0016
13, 1, 1, -0.01557813148158216
13, 2, 2, 0.1049524882158918
13, 3, 3, 0.001600000000000046
14, 1, 1, -0.02108556873308487
14, 2, 2, 0.2097596570447743
14, 3, 3, 0.001600000000000046
15, 1, 1, -0.1258927375619674
15, 2, 2, 0.2042522197932717
15, 3, 3, 0.001600000000000046
16, 1, 1, -0.1203853003104647
16, 2, 2, 0.09944505096438938
16, 3, 3, 0.001600000000000046
*Output, field, frequency=1
*Node Output
COORD, RF, U
*Contact Output
CSTRESS, CDISP, CFORCE
*End Step
*Step, name=ROTATE_07, nlgeom=YES, inc=1
*Static
1., 1., 1., 1.
*Boundary, op=NEW
1, 1, 1, 0
1, 2, 2, 0
1, 3, 3, 0
2, 1, 1, -0.00749374687797677
2, 2, 2, 0.1221938521926627
2, 3, 3, 0
3, 1, 1, -0.1296875990706395
3, 2, 2, 0.1147001053146859
3, 3, 3, 0
4, 1, 1, -0.1221938521926627
4, 2, 2, -0.00749374687797677
4, 3, 3, 0
5, 1, 1, 0
5, 2, 2, 0
5, 3, 3, 0
6, 1, 1, -0.00749374687797677
6, 2, 2, 0.1221938521926627
6, 3, 3, 0
7, 1, 1, -0.1296875990706395
7, 2, 2, 0.1147001053146859
7, 3, 3, 0
8, 1, 1, -0.1221938521926627
8, 2, 2, -0.00749374687797677
8, 3, 3, 0
9, 1, 1, -0.01756544203182819
9, 2, 2, 0.1221629211744825
9, 3, 3, 0.0016
10, 1, 1, -0.02505918890980485
10, 2, 2, 0.2443567733671453
10, 3, 3, 0.0016
11, 1, 1, -0.1472530411024677
11, 2, 2, 0.2368630264891687
11, 3, 3, 0.0016
12, 1, 1, -0.139759294224491
12, 2, 2, 0.1146691742965058
12, 3, 3, 0.0016
13, 1, 1, -0.01756544203182819
13, 2, 2, 0.1221629211744825
13, 3, 3, 0.001600000000000046
14, 1, 1, -0.02505918890980485
14, 2, 2, 0.2443567733671453
14, 3, 3, 0.001600000000000046
15, 1, 1, -0.1472530411024677
15, 2, 2, 0.2368630264891687
15, 3, 3, 0.001600000000000046
16, 1, 1, -0.139759294224491
16, 2, 2, 0.1146691742965058
16, 3, 3, 0.001600000000000046
*Output, field, frequency=1
*Node Output
COORD, RF, U
*Contact Output
CSTRESS, CDISP, CFORCE
*End Step
*Step, name=ROTATE_08, nlgeom=YES, inc=1
*Static
1., 1., 1., 1.
*Boundary, op=NEW
1, 1, 1, 0
1, 2, 2, 0
1, 3, 3, 0
2, 1, 1, -0.009784003787362772
2, 2, 2, 0.1395431146442365
2, 3, 3, 0
3, 1, 1, -0.1493271184315992
3, 2, 2, 0.1297591108568736
3, 3, 3, 0
4, 1, 1, -0.1395431146442365
4, 2, 2, -0.009784003787362772
4, 3, 3, 0
5, 1, 1, 0
5, 2, 2, 0
5, 3, 3, 0
6, 1, 1, -0.009784003787362772
6, 2, 2, 0.1395431146442365
6, 3, 3, 0
7, 1, 1, -0.1493271184315992
7, 2, 2, 0.1297591108568736
7, 3, 3, 0
8, 1, 1, -0.1395431146442365
8, 2, 2, -0.009784003787362772
8, 3, 3, 0
9, 1, 1, -0.01985361548706222
9, 2, 2, 0.1393359426932493
9, 3, 3, 0.0016
10, 1, 1, -0.02963761927442499
10, 2, 2, 0.2788790573374857
10, 3, 3, 0.0016
11, 1, 1, -0.1691807339186613
11, 2, 2, 0.2690950535501231
11, 3, 3, 0.0016
12, 1, 1, -0.1593967301312987
12, 2, 2, 0.1295519389058866
12, 3, 3, 0.0016
13, 1, 1, -0.01985361548706222
13, 2, 2, 0.1393359426932493
13, 3, 3, 0.001600000000000046
14, 1, 1, -0.02963761927442499
14, 2, 2, 0.2788790573374857
14, 3, 3, 0.001600000000000046
15, 1, 1, -0.1691807339186613
15, 2, 2, 0.2690950535501231
15, 3, 3, 0.001600000000000046
16, 1, 1, -0.1593967301312987
16, 2, 2, 0.1295519389058866
16, 3, 3, 0.001600000000000046
*Output, field, frequency=1
*Node Output
COORD, RF, U
*Contact Output
CSTRESS, CDISP, CFORCE
*End Step
*Step, name=ROTATE_09, nlgeom=YES, inc=1
*Static
1., 1., 1., 1.
*Boundary, op=NEW
1, 1, 1, 0
1, 2, 2, 0
1, 3, 3, 0
2, 1, 1, -0.01237750660638215
2, 2, 2, 0.1568496431075741
2, 3, 3, 0
3, 1, 1, -0.1692271497139562
3, 2, 2, 0.1444721365011921
3, 3, 3, 0
4, 1, 1, -0.1568496431075741
4, 2, 2, -0.01237750660638215
4, 3, 3, 0
5, 1, 1, 0
5, 2, 2, 0
5, 3, 3, 0
6, 1, 1, -0.01237750660638215
6, 2, 2, 0.1568496431075741
6, 3, 3, 0
7, 1, 1, -0.1692271497139562
7, 2, 2, 0.1444721365011921
7, 3, 3, 0
8, 1, 1, -0.1568496431075741
8, 2, 2, -0.01237750660638215
8, 3, 3, 0
9, 1, 1, -0.02244195111204739
9, 2, 2, 0.1564662936685707
9, 3, 3, 0.0016
10, 1, 1, -0.03481945771842954
10, 2, 2, 0.3133159367761448
10, 3, 3, 0.0016
11, 1, 1, -0.1916691008260036
11, 2, 2, 0.3009384301697628
11, 3, 3, 0.0016
12, 1, 1, -0.1792915942196215
12, 2, 2, 0.1440887870621888
12, 3, 3, 0.0016
13, 1, 1, -0.02244195111204739
13, 2, 2, 0.1564662936685707
13, 3, 3, 0.001600000000000046
14, 1, 1, -0.03481945771842954
14, 2, 2, 0.3133159367761448
14, 3, 3, 0.001600000000000046
15, 1, 1, -0.1916691008260036
15, 2, 2, 0.3009384301697628
15, 3, 3, 0.001600000000000046
16, 1, 1, -0.1792915942196215
16, 2, 2, 0.1440887870621888
16, 3, 3, 0.001600000000000046
*Output, field, frequency=1
*Node Output
COORD, RF, U
*Contact Output
CSTRESS, CDISP, CFORCE
*End Step
*Step, name=ROTATE_10, nlgeom=YES, inc=1
*Static
1., 1., 1., 1.
*Boundary, op=NEW
1, 1, 1, 0
1, 2, 2, 0
1, 3, 3, 0
2, 1, 1, -0.01527346109506655
2, 2, 2, 0.1741081375935959
2, 3, 3, 0
3, 1, 1, -0.1893815986886624
3, 2, 2, 0.1588346764985293
3, 3, 3, 0
4, 1, 1, -0.1741081375935959
4, 2, 2, -0.01527346109506655
4, 3, 3, 0
5, 1, 1, 0
5, 2, 2, 0
5, 3, 3, 0
6, 1, 1, -0.01527346109506655
6, 2, 2, 0.1741081375935959
6, 3, 3, 0
7, 1, 1, -0.1893815986886624
7, 2, 2, 0.1588346764985293
7, 3, 3, 0
8, 1, 1, -0.1741081375935959
8, 2, 2, -0.01527346109506655
8, 3, 3, 0
9, 1, 1, -0.02532965624922823
9, 2, 2, 0.1735487280643459
9, 3, 3, 0.0016
10, 1, 1, -0.04060311734429467
10, 2, 2, 0.3476568656579418
10, 3, 3, 0.0016
11, 1, 1, -0.2147112549378907
11, 2, 2, 0.3323834045628753
11, 3, 3, 0.0016
12, 1, 1, -0.1994377938428242
12, 2, 2, 0.1582752669692795
12, 3, 3, 0.0016
13, 1, 1, -0.02532965624922823
13, 2, 2, 0.1735487280643459
13, 3, 3, 0.001600000000000046
14, 1, 1, -0.04060311734429467
14, 2, 2, 0.3476568656579418
14, 3, 3, 0.001600000000000046
15, 1, 1, -0.2147112549378907
15, 2, 2, 0.3323834045628753
15, 3, 3, 0.001600000000000046
16, 1, 1, -0.1994377938428242
16, 2, 2, 0.1582752669692795
16, 3, 3, 0.001600000000000046
*Output, field, frequency=1
*Node Output
COORD, RF, U
*Contact Output
CSTRESS, CDISP, CFORCE
*End Step
*Step, name=ROTATE_11, nlgeom=YES, inc=1
*Static
1., 1., 1., 1.
*Boundary, op=NEW
1, 1, 1, 0
1, 2, 2, 0
1, 3, 3, 0
2, 1, 1, -0.01847098038998751
2, 2, 2, 0.1913133128232524
2, 3, 3, 0
3, 1, 1, -0.2097842932132399
3, 2, 2, 0.1728423324332649
3, 3, 3, 0
4, 1, 1, -0.1913133128232524
4, 2, 2, -0.01847098038998751
4, 3, 3, 0
5, 1, 1, 0
5, 2, 2, 0
5, 3, 3, 0
6, 1, 1, -0.01847098038998751
6, 2, 2, 0.1913133128232524
6, 3, 3, 0
7, 1, 1, -0.2097842932132399
7, 2, 2, 0.1728423324332649
7, 3, 3, 0
8, 1, 1, -0.1913133128232524
8, 2, 2, -0.01847098038998751
8, 3, 3, 0
9, 1, 1, -0.02851584656147554
9, 2, 2, 0.1905780145185519
9, 3, 3, 0.0016
10, 1, 1, -0.04698682695146306
10, 2, 2, 0.3818913273418043
10, 3, 3, 0.0016
11, 1, 1, -0.2383001397747155
11, 2, 2, 0.3634203469518169
11, 3, 3, 0.0016
12, 1, 1, -0.219829159384728
12, 2, 2, 0.1721070341285644
12, 3, 3, 0.0016
13, 1, 1, -0.02851584656147554
13, 2, 2, 0.1905780145185519
13, 3, 3, 0.001600000000000046
14, 1, 1, -0.04698682695146306
14, 2, 2, 0.3818913273418043
14, 3, 3, 0.001600000000000046
15, 1, 1, -0.2383001397747155
15, 2, 2, 0.3634203469518169
15, 3, 3, 0.001600000000000046
16, 1, 1, -0.219829159384728
16, 2, 2, 0.1721070341285644
16, 3, 3, 0.001600000000000046
*Output, field, frequency=1
*Node Output
COORD, RF, U
*Contact Output
CSTRESS, CDISP, CFORCE
*End Step
*Step, name=ROTATE_12, nlgeom=YES, inc=1
*Static
1., 1., 1., 1.
*Boundary, op=NEW
1, 1, 1, 0
1, 2, 2, 0
1, 3, 3, 0
2, 1, 1, -0.02196908527585173
2, 2, 2, 0.2084598998460995
2, 3, 3, 0
3, 1, 1, -0.2304289851219512
3, 2, 2, 0.1864908145702477
3, 3, 3, 0
4, 1, 1, -0.2084598998460995
4, 2, 2, -0.02196908527585173
4, 3, 3, 0
5, 1, 1, 0
5, 2, 2, 0
5, 3, 3, 0
6, 1, 1, -0.02196908527585173
6, 2, 2, 0.2084598998460995
6, 3, 3, 0
7, 1, 1, -0.2304289851219512
7, 2, 2, 0.1864908145702477
7, 3, 3, 0
8, 1, 1, -0.2084598998460995
8, 2, 2, -0.02196908527585173
8, 3, 3, 0
9, 1, 1, -0.03199954630290858
9, 2, 2, 0.2075489379453075
9, 3, 3, 0.0016
10, 1, 1, -0.0539686315787602
10, 2, 2, 0.4160088377914071
10, 3, 3, 0.0016
11, 1, 1, -0.2624285314248598
11, 2, 2, 0.3940397525155555
11, 3, 3, 0.0016
12, 1, 1, -0.240459446149008
12, 2, 2, 0.1855798526694559
12, 3, 3, 0.0016
13, 1, 1, -0.03199954630290858
13, 2, 2, 0.2075489379453075
13, 3, 3, 0.001600000000000046
14, 1, 1, -0.0539686315787602
14, 2, 2, 0.4160088377914071
14, 3, 3, 0.001600000000000046
15, 1, 1, -0.2624285314248598
15, 2, 2, 0.3940397525155555
15, 3, 3, 0.001600000000000046
16, 1, 1, -0.240459446149008
16, 2, 2, 0.1855798526694559
16, 3, 3, 0.001600000000000046
*Output, field, frequency=1
*Node Output
COORD, RF, U
*Contact Output
CSTRESS, CDISP, CFORCE
*End Step
*Step, name=ROTATE_13, nlgeom=YES, inc=1
*Static
1., 1., 1., 1.
*Boundary, op=NEW
1, 1, 1, 0
1, 2, 2, 0
1, 3, 3, 0
2, 1, 1, -0.0257667044853781
2, 2, 2, 0.2255426476538737
2, 3, 3, 0
3, 1, 1, -0.2513093521392518
3, 2, 2, 0.1997759431684956
3, 3, 3, 0
4, 1, 1, -0.2255426476538737
4, 2, 2, -0.0257667044853781
4, 3, 3, 0
5, 1, 1, 0
5, 2, 2, 0
5, 3, 3, 0
6, 1, 1, -0.0257667044853781
6, 2, 2, 0.2255426476538737
6, 3, 3, 0
7, 1, 1, -0.2513093521392518
7, 2, 2, 0.1997759431684956
7, 3, 3, 0
8, 1, 1, -0.2255426476538737
8, 2, 2, -0.0257667044853781
8, 3, 3, 0
9, 1, 1, -0.03577968861770897
9, 2, 2, 0.2244563011319525
9, 3, 3, 0.0016
10, 1, 1, -0.06154639310308707
10, 2, 2, 0.4499989487858262
10, 3, 3, 0.0016
11, 1, 1, -0.2870890407569608
11, 2, 2, 0.4242322443004483
11, 3, 3, 0.0016
12, 1, 1, -0.2613223362715827
12, 2, 2, 0.1986895966465745
12, 3, 3, 0.0016
13, 1, 1, -0.03577968861770897
13, 2, 2, 0.2244563011319525
13, 3, 3, 0.001600000000000046
14, 1, 1, -0.06154639310308707
14, 2, 2, 0.4499989487858262
14, 3, 3, 0.001600000000000046
15, 1, 1, -0.2870890407569608
15, 2, 2, 0.4242322443004483
15, 3, 3, 0.001600000000000046
16, 1, 1, -0.2613223362715827
16, 2, 2, 0.1986895966465745
16, 3, 3, 0.001600000000000046
*Output, field, frequency=1
*Node Output
COORD, RF, U
*Contact Output
CSTRESS, CDISP, CFORCE
*End Step
*Step, name=ROTATE_14, nlgeom=YES, inc=1
*Static
1., 1., 1., 1.
*Boundary, op=NEW
1, 1, 1, 0
1, 2, 2, 0
1, 3, 3, 0
2, 1, 1, -0.02986267502736462
2, 2, 2, 0.242556324788572
2, 3, 3, 0
3, 1, 1, -0.2724189998159366
3, 2, 2, 0.2126936497612073
3, 3, 3, 0
4, 1, 1, -0.242556324788572
4, 2, 2, -0.02986267502736462
4, 3, 3, 0
5, 1, 1, 0
5, 2, 2, 0
5, 3, 3, 0
6, 1, 1, -0.02986267502736462
6, 2, 2, 0.242556324788572
6, 3, 3, 0
7, 1, 1, -0.2724189998159366
7, 2, 2, 0.2126936497612073
7, 3, 3, 0
8, 1, 1, -0.242556324788572
8, 2, 2, -0.02986267502736462
8, 3, 3, 0
9, 1, 1, -0.03985511586683721
9, 2, 2, 0.2412949263306535
9, 3, 3, 0.0016
10, 1, 1, -0.06971779089420194
10, 2, 2, 0.4838512511192255
10, 3, 3, 0.0016
11, 1, 1, -0.312274115682774
11, 2, 2, 0.4539885760918609
11, 3, 3, 0.0016
12, 1, 1, -0.2824114406554092
12, 2, 2, 0.2114322513032889
12, 3, 3, 0.0016
13, 1, 1, -0.03985511586683721
13, 2, 2, 0.2412949263306535
13, 3, 3, 0.001600000000000046
14, 1, 1, -0.06971779089420194
14, 2, 2, 0.4838512511192255
14, 3, 3, 0.001600000000000046
15, 1, 1, -0.312274115682774
15, 2, 2, 0.4539885760918609
15, 3, 3, 0.001600000000000046
16, 1, 1, -0.2824114406554092
16, 2, 2, 0.2114322513032889
16, 3, 3, 0.001600000000000046
*Output, field, frequency=1
*Node Output
COORD, RF, U
*Contact Output
CSTRESS, CDISP, CFORCE
*End Step
*Step, name=ROTATE_15, nlgeom=YES, inc=1
*Static
1., 1., 1., 1.
*Boundary, op=NEW
1, 1, 1, 0
1, 2, 2, 0
1, 3, 3, 0
2, 1, 1, -0.03425574254284558
2, 2, 2, 0.2594957209445454
2, 3, 3, 0
3, 1, 1, -0.293751463487391
3, 2, 2, 0.2252399784016998
3, 3, 3, 0
4, 1, 1, -0.2594957209445454
4, 2, 2, -0.03425574254284558
4, 3, 3, 0
5, 1, 1, 0
5, 2, 2, 0
5, 3, 3, 0
6, 1, 1, -0.03425574254284558
6, 2, 2, 0.2594957209445454
6, 3, 3, 0
7, 1, 1, -0.293751463487391
7, 2, 2, 0.2252399784016998
7, 3, 3, 0
8, 1, 1, -0.2594957209445454
8, 2, 2, -0.03425574254284558
8, 3, 3, 0
9, 1, 1, -0.04422457998255058
9, 2, 2, 0.2580596568440485
9, 3, 3, 0.0016
10, 1, 1, -0.07848032252539605
10, 2, 2, 0.5175553777885938
10, 3, 3, 0.0016
11, 1, 1, -0.3379760434699415
11, 2, 2, 0.4832996352457484
11, 3, 3, 0.0016
12, 1, 1, -0.303720300927096
12, 2, 2, 0.2238039143012029
12, 3, 3, 0.0016
13, 1, 1, -0.04422457998255058
13, 2, 2, 0.2580596568440485
13, 3, 3, 0.001600000000000046
14, 1, 1, -0.07848032252539605
14, 2, 2, 0.5175553777885938
14, 3, 3, 0.001600000000000046
15, 1, 1, -0.3379760434699415
15, 2, 2, 0.4832996352457484
15, 3, 3, 0.001600000000000046
16, 1, 1, -0.303720300927096
16, 2, 2, 0.2238039143012029
16, 3, 3, 0.001600000000000046
*Output, field, frequency=1
*Node Output
COORD, RF, U
*Contact Output
CSTRESS, CDISP, CFORCE
*End Step
*Step, name=ROTATE_16, nlgeom=YES, inc=1
*Static
1., 1., 1., 1.
*Boundary, op=NEW
1, 1, 1, 0
1, 2, 2, 0
1, 3, 3, 0
2, 1, 1, -0.038944561689229
2, 2, 2, 0.2763556485641137
2, 3, 3, 0
3, 1, 1, -0.3153002102533426
3, 2, 2, 0.2374110868748847
3, 3, 3, 0
4, 1, 1, -0.2763556485641137
4, 2, 2, -0.038944561689229
4, 3, 3, 0
5, 1, 1, 0
5, 2, 2, 0
5, 3, 3, 0
6, 1, 1, -0.038944561689229
6, 2, 2, 0.2763556485641137
6, 3, 3, 0
7, 1, 1, -0.3153002102533426
7, 2, 2, 0.2374110868748847
7, 3, 3, 0
8, 1, 1, -0.2763556485641137
8, 2, 2, -0.038944561689229
8, 3, 3, 0
9, 1, 1, -0.04888674285061367
9, 2, 2, 0.2747453586044455
9, 3, 3, 0.0016
10, 1, 1, -0.08783130453984267
10, 2, 2, 0.5511010071685591
10, 3, 3, 0.0016
11, 1, 1, -0.3641869531039563
11, 2, 2, 0.5121564454793304
11, 3, 3, 0.0016
12, 1, 1, -0.3252423914147274
12, 2, 2, 0.2358007969152167
12, 3, 3, 0.0016
13, 1, 1, -0.04888674285061367
13, 2, 2, 0.2747453586044455
13, 3, 3, 0.001600000000000046
14, 1, 1, -0.08783130453984267
14, 2, 2, 0.5511010071685591
14, 3, 3, 0.001600000000000046
15, 1, 1, -0.3641869531039563
15, 2, 2, 0.5121564454793304
15, 3, 3, 0.001600000000000046
16, 1, 1, -0.3252423914147274
16, 2, 2, 0.2358007969152167
16, 3, 3, 0.001600000000000046
*Output, field, frequency=1
*Node Output
COORD, RF, U
*Contact Output
CSTRESS, CDISP, CFORCE
*End Step
*Step, name=ROTATE_17, nlgeom=YES, inc=1
*Static
1., 1., 1., 1.
*Boundary, op=NEW
1, 1, 1, 0
1, 2, 2, 0
1, 3, 3, 0
2, 1, 1, -0.04392769655229789
2, 2, 2, 0.2931309444262154
2, 3, 3, 0
3, 1, 1, -0.3370586409785132
3, 2, 2, 0.2492032478739175
3, 3, 3, 0
4, 1, 1, -0.2931309444262154
4, 2, 2, -0.04392769655229789
4, 3, 3, 0
5, 1, 1, 0
5, 2, 2, 0
5, 3, 3, 0
6, 1, 1, -0.04392769655229789
6, 2, 2, 0.2931309444262154
6, 3, 3, 0
7, 1, 1, -0.3370586409785132
7, 2, 2, 0.2492032478739175
7, 3, 3, 0
8, 1, 1, -0.2931309444262154
8, 2, 2, -0.04392769655229789
8, 3, 3, 0
9, 1, 1, -0.05384017672008645
9, 2, 2, 0.2913469217460904
9, 3, 3, 0.0016
10, 1, 1, -0.09776787327238412
10, 2, 2, 0.5844778661723059
10, 3, 3, 0.0016
11, 1, 1, -0.3908988176985997
11, 2, 2, 0.5405501696200081
11, 3, 3, 0.0016
12, 1, 1, -0.3469711211463018
12, 2, 2, 0.2474192251937928
12, 3, 3, 0.0016
13, 1, 1, -0.05384017672008645
13, 2, 2, 0.2913469217460904
13, 3, 3, 0.001600000000000046
14, 1, 1, -0.09776787327238412
14, 2, 2, 0.5844778661723059
14, 3, 3, 0.001600000000000046
15, 1, 1, -0.3908988176985997
15, 2, 2, 0.5405501696200081
15, 3, 3, 0.001600000000000046
16, 1, 1, -0.3469711211463018
16, 2, 2, 0.2474192251937928
16, 3, 3, 0.001600000000000046
*Output, field, frequency=1
*Node Output
COORD, RF, U
*Contact Output
CSTRESS, CDISP, CFORCE
*End Step
*Step, name=ROTATE_18, nlgeom=YES, inc=1
*Static
1., 1., 1., 1.
*Boundary, op=NEW
1, 1, 1, 0
1, 2, 2, 0
1, 3, 3, 0
2, 1, 1, -0.04920362108594678
2, 2, 2, 0.3098164712276029
2, 3, 3, 0
3, 1, 1, -0.3590200923135496
3, 2, 2, 0.260612850141656
3, 3, 3, 0
4, 1, 1, -0.3098164712276029
4, 2, 2, -0.04920362108594678
4, 3, 3, 0
5, 1, 1, 0
5, 2, 2, 0
5, 3, 3, 0
6, 1, 1, -0.04920362108594678
6, 2, 2, 0.3098164712276029
6, 3, 3, 0
7, 1, 1, -0.3590200923135496
7, 2, 2, 0.260612850141656
7, 3, 3, 0
8, 1, 1, -0.3098164712276029
8, 2, 2, -0.04920362108594678
8, 3, 3, 0
9, 1, 1, -0.05908336464056041
9, 2, 2, 0.3078592621700237
9, 3, 3, 0.0016
10, 1, 1, -0.1082869857265074
10, 2, 2, 0.6176757333976265
10, 3, 3, 0.0016
11, 1, 1, -0.4181034569541102
11, 2, 2, 0.5684721123116798
11, 3, 3, 0.0016
12, 1, 1, -0.3688998358681633
12, 2, 2, 0.258655641084077
12, 3, 3, 0.0016
13, 1, 1, -0.05908336464056041
13, 2, 2, 0.3078592621700237
13, 3, 3, 0.001600000000000046
14, 1, 1, -0.1082869857265074
14, 2, 2, 0.6176757333976265
14, 3, 3, 0.001600000000000046
15, 1, 1, -0.4181034569541102
15, 2, 2, 0.5684721123116798
15, 3, 3, 0.001600000000000046
16, 1, 1, -0.3688998358681633
16, 2, 2, 0.258655641084077
16, 3, 3, 0.001600000000000046
*Output, field, frequency=1
*Node Output
COORD, RF, U
*Contact Output
CSTRESS, CDISP, CFORCE
*End Step
*Step, name=ROTATE_19, nlgeom=YES, inc=1
*Static
1., 1., 1., 1.
*Boundary, op=NEW
1, 1, 1, 0
1, 2, 2, 0
1, 3, 3, 0
2, 1, 1, -0.05477071957952218
2, 2, 2, 0.3264071191561018
2, 3, 3, 0
3, 1, 1, -0.3811778387356239
3, 2, 2, 0.2716363995765796
3, 3, 3, 0
4, 1, 1, -0.3264071191561018
4, 2, 2, -0.05477071957952218
4, 3, 3, 0
5, 1, 1, 0
5, 2, 2, 0
5, 3, 3, 0
6, 1, 1, -0.05477071957952218
6, 2, 2, 0.3264071191561018
6, 3, 3, 0
7, 1, 1, -0.3811778387356239
7, 2, 2, 0.2716363995765796
7, 3, 3, 0
8, 1, 1, -0.3264071191561018
8, 2, 2, -0.05477071957952218
8, 3, 3, 0
9, 1, 1, -0.06461470092671429
9, 2, 2, 0.3242773231010453
9, 3, 3, 0.0016
10, 1, 1, -0.1193854205062364
10, 2, 2, 0.6506844422571471
10, 3, 3, 0.0016
11, 1, 1, -0.4457925396623381
11, 2, 2, 0.595913722677625
11, 3, 3, 0.0016
12, 1, 1, -0.3910218200828162
12, 2, 2, 0.2695066035215232
12, 3, 3, 0.0016
13, 1, 1, -0.06461470092671429
13, 2, 2, 0.3242773231010453
13, 3, 3, 0.001600000000000046
14, 1, 1, -0.1193854205062364
14, 2, 2, 0.6506844422571471
14, 3, 3, 0.001600000000000046
15, 1, 1, -0.4457925396623381
15, 2, 2, 0.595913722677625
15, 3, 3, 0.001600000000000046
16, 1, 1, -0.3910218200828162
16, 2, 2, 0.2695066035215232
16, 3, 3, 0.001600000000000046
*Output, field, frequency=1
*Node Output
COORD, RF, U
*Contact Output
CSTRESS, CDISP, CFORCE
*End Step
*Step, name=ROTATE_20, nlgeom=YES, inc=1
*Static
1., 1., 1., 1.
*Boundary, op=NEW
1, 1, 1, 0
1, 2, 2, 0
1, 3, 3, 0
2, 1, 1, -0.06062728715262111
2, 2, 2, 0.3428978074554513
2, 3, 3, 0
3, 1, 1, -0.4035250946080724
3, 2, 2, 0.2822705203028302
3, 3, 3, 0
4, 1, 1, -0.3428978074554513
4, 2, 2, -0.06062728715262111
4, 3, 3, 0
5, 1, 1, 0
5, 2, 2, 0
5, 3, 3, 0
6, 1, 1, -0.06062728715262111
6, 2, 2, 0.3428978074554513
6, 3, 3, 0
7, 1, 1, -0.4035250946080724
7, 2, 2, 0.2822705203028302
7, 3, 3, 0
8, 1, 1, -0.3428978074554513
8, 2, 2, -0.06062728715262111
8, 3, 3, 0
9, 1, 1, -0.0704324916500414
9, 2, 2, 0.3405960766363137
9, 3, 3, 0.0016
10, 1, 1, -0.1310597788026626
10, 2, 2, 0.683493884091765
10, 3, 3, 0.0016
11, 1, 1, -0.473957586258114
11, 2, 2, 0.622866596939144
11, 3, 3, 0.0016
12, 1, 1, -0.4133302991054928
12, 2, 2, 0.2799687894836926
12, 3, 3, 0.0016
13, 1, 1, -0.0704324916500414
13, 2, 2, 0.3405960766363137
13, 3, 3, 0.001600000000000046
14, 1, 1, -0.1310597788026626
14, 2, 2, 0.683493884091765
14, 3, 3, 0.001600000000000046
15, 1, 1, -0.473957586258114
15, 2, 2, 0.622866596939144
15, 3, 3, 0.001600000000000046
16, 1, 1, -0.4133302991054928
16, 2, 2, 0.2799687894836926
16, 3, 3, 0.001600000000000046
*Output, field, frequency=1
*Node Output
COORD, RF, U
*Contact Output
CSTRESS, CDISP, CFORCE
*End Step
*Step, name=RESTICK, nlgeom=YES, inc=1
*Static
1., 1., 1., 1.
*Boundary, op=NEW
1, 1, 1, 0
1, 2, 2, 0
1, 3, 3, 0
2, 1, 1, -0.06062728715262111
2, 2, 2, 0.3428978074554513
2, 3, 3, 0
3, 1, 1, -0.4035250946080724
3, 2, 2, 0.2822705203028302
3, 3, 3, 0
4, 1, 1, -0.3428978074554513
4, 2, 2, -0.06062728715262111
4, 3, 3, 0
5, 1, 1, 0
5, 2, 2, 0
5, 3, 3, 0
6, 1, 1, -0.06062728715262111
6, 2, 2, 0.3428978074554513
6, 3, 3, 0
7, 1, 1, -0.4035250946080724
7, 2, 2, 0.2822705203028302
7, 3, 3, 0
8, 1, 1, -0.3428978074554513
8, 2, 2, -0.06062728715262111
8, 3, 3, 0
9, 1, 1, -0.07042220471581773
9, 2, 2, 0.3405678954549283
9, 3, 3, 0.00156
10, 1, 1, -0.1310494918684391
10, 2, 2, 0.6834657029103796
10, 3, 3, 0.00156
11, 1, 1, -0.4739472993238902
11, 2, 2, 0.6228384157577582
11, 3, 3, 0.00156
12, 1, 1, -0.413320012171269
12, 2, 2, 0.279940608302307
12, 3, 3, 0.00156
13, 1, 1, -0.07042220471581773
13, 2, 2, 0.3405678954549283
13, 3, 3, 0.001560000000000006
14, 1, 1, -0.1310494918684391
14, 2, 2, 0.6834657029103796
14, 3, 3, 0.001560000000000006
15, 1, 1, -0.4739472993238902
15, 2, 2, 0.6228384157577582
15, 3, 3, 0.001560000000000006
16, 1, 1, -0.413320012171269
16, 2, 2, 0.279940608302307
16, 3, 3, 0.001560000000000006
*Output, field, frequency=1
*Node Output
COORD, RF, U
*Contact Output
CSTRESS, CDISP, CFORCE
*End Step
