*Heading
** B4.5 faceted_cylinder C3D8 nonplanar finite-sliding contact probe.
*Preprint, echo=NO, model=NO, history=NO, contact=YES
*Node
1, 0.8, 0, 0
2, 1, 0, 0
3, 0.8660254037844387, 0.4999999999999999, 0
4, 0.692820323027551, 0.4, 0
5, 0.8, 0, 1
6, 1, 0, 1
7, 0.8660254037844387, 0.4999999999999999, 1
8, 0.692820323027551, 0.4, 1
9, 0.5000000000000001, 0.8660254037844386, 0
10, 0.4000000000000001, 0.6928203230275509, 0
11, 0.5000000000000001, 0.8660254037844386, 1
12, 0.4000000000000001, 0.6928203230275509, 1
13, 6.123233995736766e-17, 1, 0
14, 4.898587196589413e-17, 0.8, 0
15, 6.123233995736766e-17, 1, 1
16, 4.898587196589413e-17, 0.8, 1
17, 1.005, 0, 0
18, 1.2, 0, 0
19, 1.039230484541326, 0.5999999999999999, 0
20, 0.8703555308033608, 0.5024999999999998, 0
21, 1.005, 0, 1
22, 1.2, 0, 1
23, 1.039230484541326, 0.5999999999999999, 1
24, 0.8703555308033608, 0.5024999999999998, 1
25, 0.6000000000000001, 1.039230484541326, 0
26, 0.5025000000000001, 0.8703555308033607, 0
27, 0.6000000000000001, 1.039230484541326, 1
28, 0.5025000000000001, 0.8703555308033607, 1
29, 7.347880794884119e-17, 1.2, 0
30, 6.153850165715449e-17, 1.005, 0
31, 7.347880794884119e-17, 1.2, 1
32, 6.153850165715449e-17, 1.005, 1
*Element, type=C3D8, elset=PRIMARY
1, 1, 2, 3, 4, 5, 6, 7, 8
2, 4, 3, 9, 10, 8, 7, 11, 12
3, 10, 9, 13, 14, 12, 11, 15, 16
*Element, type=C3D8, elset=SECONDARY
4, 17, 18, 19, 20, 21, 22, 23, 24
5, 20, 19, 25, 26, 24, 23, 27, 28
6, 26, 25, 29, 30, 28, 27, 31, 32
*Nset, nset=primary_all
1, 2, 3, 4, 5, 6, 7, 8, 9, 10, 11, 12, 13, 14, 15, 16
*Nset, nset=secondary_all
17, 18, 19, 20, 21, 22, 23, 24, 25, 26, 27, 28, 29, 30, 31, 32
*Nset, nset=primary_contact_nodes
2, 3, 6, 7, 9, 11, 13, 15
*Nset, nset=secondary_contact_nodes
17, 20, 21, 24, 26, 28, 30, 32
*Surface, type=ELEMENT, name=PRIMARY_CONTACT
PRIMARY, S4
*Surface, type=ELEMENT, name=SECONDARY_CONTACT
SECONDARY, S6
*Material, name=ELASTIC
*Elastic
1.e9, 0.0
*Solid Section, elset=PRIMARY, material=ELASTIC
,
*Solid Section, elset=SECONDARY, material=ELASTIC
,
*Surface Interaction, name=CONTACT
*Surface Behavior, pressure-overclosure=LINEAR
1.e7,
*Contact Pair, interaction=CONTACT, type=SURFACE TO SURFACE, adjust=0.
SECONDARY_CONTACT, PRIMARY_CONTACT
*Step, name=LOAD, nlgeom=YES, inc=1
*Static
1., 1., 1., 1.
*Boundary, op=NEW
1, 1, 1, 0
1, 2, 2, 0
1, 3, 3, 0
2, 1, 1, 0
2, 2, 2, 0
2, 3, 3, 0
3, 1, 1, 0
3, 2, 2, 0
3, 3, 3, 0
4, 1, 1, 0
4, 2, 2, 0
4, 3, 3, 0
5, 1, 1, 0
5, 2, 2, 0
5, 3, 3, 0
6, 1, 1, 0
6, 2, 2, 0
6, 3, 3, 0
7, 1, 1, 0
7, 2, 2, 0
7, 3, 3, 0
8, 1, 1, 0
8, 2, 2, 0
8, 3, 3, 0
9, 1, 1, 0
9, 2, 2, 0
9, 3, 3, 0
10, 1, 1, 0
10, 2, 2, 0
10, 3, 3, 0
11, 1, 1, 0
11, 2, 2, 0
11, 3, 3, 0
12, 1, 1, 0
12, 2, 2, 0
12, 3, 3, 0
13, 1, 1, 0
13, 2, 2, 0
13, 3, 3, 0
14, 1, 1, 0
14, 2, 2, 0
14, 3, 3, 0
15, 1, 1, 0
15, 2, 2, 0
15, 3, 3, 0
16, 1, 1, 0
16, 2, 2, 0
16, 3, 3, 0
17, 1, 1, -0.015
17, 2, 2, -0
17, 3, 3, 0
18, 1, 1, -0.015
18, 2, 2, -0
18, 3, 3, 0
19, 1, 1, -0.01299038105676658
19, 2, 2, -0.007499999999999998
19, 3, 3, 0
20, 1, 1, -0.01299038105676658
20, 2, 2, -0.007499999999999998
20, 3, 3, 0
21, 1, 1, -0.015
21, 2, 2, -0
21, 3, 3, 0
22, 1, 1, -0.015
22, 2, 2, -0
22, 3, 3, 0
23, 1, 1, -0.01299038105676658
23, 2, 2, -0.007499999999999998
23, 3, 3, 0
24, 1, 1, -0.01299038105676658
24, 2, 2, -0.007499999999999998
24, 3, 3, 0
25, 1, 1, -0.007500000000000001
25, 2, 2, -0.01299038105676658
25, 3, 3, 0
26, 1, 1, -0.007500000000000001
26, 2, 2, -0.01299038105676658
26, 3, 3, 0
27, 1, 1, -0.007500000000000001
27, 2, 2, -0.01299038105676658
27, 3, 3, 0
28, 1, 1, -0.007500000000000001
28, 2, 2, -0.01299038105676658
28, 3, 3, 0
29, 1, 1, -9.184850993605148e-19
29, 2, 2, -0.015
29, 3, 3, 0
30, 1, 1, -9.184850993605148e-19
30, 2, 2, -0.015
30, 3, 3, 0
31, 1, 1, -9.184850993605148e-19
31, 2, 2, -0.015
31, 3, 3, 0
32, 1, 1, -9.184850993605148e-19
32, 2, 2, -0.015
32, 3, 3, 0
*Output, field, frequency=1
*Node Output
COORD, RF, U
*Contact Output
CSTRESS, CDISP, CFORCE
*End Step
