*Heading
** B4.7 unit C3D8 scale and friction-parameter probe.
*Preprint, echo=NO, model=NO, history=NO, contact=YES
*Node
1, 0, 0, 0
2, 1, 0, 0
3, 1, 1, 0
4, 0, 1, 0
5, 0, 0, 1
6, 1, 0, 1
7, 1, 1, 1
8, 0, 1, 1
9, 1, 0, 0
10, 2, 0, 0
11, 2, 1, 0
12, 1, 1, 0
13, 1, 0, 1
14, 2, 0, 1
15, 2, 1, 1
16, 1, 1, 1
*Element, type=C3D8, elset=PRIMARY
1, 1, 2, 3, 4, 5, 6, 7, 8
*Element, type=C3D8, elset=SECONDARY
2, 9, 10, 11, 12, 13, 14, 15, 16
*Nset, nset=PRIMARY_ALL
1, 2, 3, 4, 5, 6, 7, 8
*Nset, nset=SECONDARY_ALL
9, 10, 11, 12, 13, 14, 15, 16
*Nset, nset=SECONDARY_CONTACT_NODES
9, 12, 13, 16
*Surface, type=ELEMENT, name=PRIMARY_CONTACT
PRIMARY, S4
*Surface, type=ELEMENT, name=SECONDARY_CONTACT
SECONDARY, S6
*Material, name=PRIMARY_MATERIAL
*Elastic
1000000000, 0.0
*Material, name=SECONDARY_MATERIAL
*Elastic
1000000000, 0.0
*Solid Section, elset=PRIMARY, material=PRIMARY_MATERIAL
,
*Solid Section, elset=SECONDARY, material=SECONDARY_MATERIAL
,
*Surface Interaction, name=CONTACT
*Surface Behavior, penalty=LINEAR
100000000,
*Friction, slip tolerance=1e-05
0.3,
*Contact Pair, interaction=CONTACT, type=SURFACE TO SURFACE, small sliding, adjust=0.
SECONDARY_CONTACT, PRIMARY_CONTACT
*Step, name=STICK_LOW, nlgeom=NO, inc=100
*Static
1., 1., 1.e-8, 1.
*Boundary
PRIMARY_ALL, 1, 3, 0.
SECONDARY_ALL, 1, 1, -0.0001
SECONDARY_ALL, 2, 2, 1.5e-06
SECONDARY_ALL, 3, 3, 2e-06
*Output, field, frequency=1
*Node Output
RF, U
*Contact Output
CSTRESS, CDISP, CFORCE
*End Step
*Step, name=STICK_HIGH, nlgeom=NO, inc=100
*Static
1., 1., 1.e-8, 1.
*Boundary
PRIMARY_ALL, 1, 3, 0.
SECONDARY_ALL, 1, 1, -0.0001
SECONDARY_ALL, 2, 2, 4.5e-06
SECONDARY_ALL, 3, 3, 6.000000000000001e-06
*Output, field, frequency=1
*Node Output
RF, U
*Contact Output
CSTRESS, CDISP, CFORCE
*End Step
*Step, name=SLIDE, nlgeom=NO, inc=100
*Static
1., 1., 1.e-8, 1.
*Boundary
PRIMARY_ALL, 1, 3, 0.
SECONDARY_ALL, 1, 1, -0.0001
SECONDARY_ALL, 2, 2, 9e-06
SECONDARY_ALL, 3, 3, 1.2e-05
*Output, field, frequency=1
*Node Output
RF, U
*Contact Output
CSTRESS, CDISP, CFORCE
*End Step
