*Heading
** B4.8 C3D8 two-pair finite-sliding surface-to-surface friction path.
*Preprint, echo=NO, model=NO, history=NO, contact=YES
*Node
1, 0, 0, -1
2, 1, 0, -1
3, 1, 1, -1
4, 0, 1, -1
5, 0, 0, 2
6, 1, 0, 2
7, 1, 1, 2
8, 0, 1, 2
9, 1, 2, -1
10, 0, 2, -1
11, 1, 2, 2
12, 0, 2, 2
13, 1, 0.1, 0.1
14, 2, 0.1, 0.1
15, 2, 0.9, 0.1
16, 1, 0.9, 0.1
17, 1, 0.1, 0.9
18, 2, 0.1, 0.9
19, 2, 0.9, 0.9
20, 1, 0.9, 0.9
21, 3, -1, 0
22, 4, -1, 0
23, 4, 2, 0
24, 3, 2, 0
25, 3, -1, 1
26, 4, -1, 1
27, 4, 2, 1
28, 3, 2, 1
29, 3, -1, 2
30, 4, -1, 2
31, 4, 2, 2
32, 3, 2, 2
33, 4, 0.1, 0.1
34, 5, 0.1, 0.1
35, 5, 0.9, 0.1
36, 4, 0.9, 0.1
37, 4, 0.1, 0.9
38, 5, 0.1, 0.9
39, 5, 0.9, 0.9
40, 4, 0.9, 0.9
*Element, type=C3D8, elset=PRIMARY_A
1, 1, 2, 3, 4, 5, 6, 7, 8
2, 4, 3, 9, 10, 8, 7, 11, 12
*Element, type=C3D8, elset=SECONDARY_A
3, 13, 14, 15, 16, 17, 18, 19, 20
*Element, type=C3D8, elset=PRIMARY_B
4, 21, 22, 23, 24, 25, 26, 27, 28
5, 25, 26, 27, 28, 29, 30, 31, 32
*Element, type=C3D8, elset=SECONDARY_B
6, 33, 34, 35, 36, 37, 38, 39, 40
*Nset, nset=primary_a_all
1, 2, 3, 4, 5, 6, 7, 8, 9, 10, 11, 12
*Nset, nset=secondary_a_all
13, 14, 15, 16, 17, 18, 19, 20
*Nset, nset=secondary_a_contact_nodes
13, 16, 17, 20
*Nset, nset=primary_b_all
21, 22, 23, 24, 25, 26, 27, 28, 29, 30, 31, 32
*Nset, nset=secondary_b_all
33, 34, 35, 36, 37, 38, 39, 40
*Nset, nset=secondary_b_contact_nodes
33, 36, 37, 40
*Surface, type=ELEMENT, name=PRIMARY_A_CONTACT
PRIMARY_A, S4
*Surface, type=ELEMENT, name=SECONDARY_A_CONTACT
SECONDARY_A, S6
*Surface, type=ELEMENT, name=PRIMARY_B_CONTACT
PRIMARY_B, S4
*Surface, type=ELEMENT, name=SECONDARY_B_CONTACT
SECONDARY_B, S6
*Material, name=ELASTIC
*Elastic
1.e9, 0.25
*Solid Section, elset=PRIMARY_A, material=ELASTIC
,
*Solid Section, elset=SECONDARY_A, material=ELASTIC
,
*Solid Section, elset=PRIMARY_B, material=ELASTIC
,
*Solid Section, elset=SECONDARY_B, material=ELASTIC
,
*Surface Interaction, name=PAIR_A_INTERACTION
*Surface Behavior, pressure-overclosure=LINEAR
1.e5,
*Friction, slip tolerance=0.025
0.3,
*Surface Interaction, name=PAIR_B_INTERACTION
*Surface Behavior, pressure-overclosure=LINEAR
1.e5,
*Friction, slip tolerance=0.025
0.5,
*Contact Pair, interaction=PAIR_A_INTERACTION, type=SURFACE TO SURFACE, adjust=0.
SECONDARY_A_CONTACT, PRIMARY_A_CONTACT
*Contact Pair, interaction=PAIR_B_INTERACTION, type=SURFACE TO SURFACE, adjust=0.
SECONDARY_B_CONTACT, PRIMARY_B_CONTACT
*Step, name=STICK, nlgeom=YES, inc=100
*Static
0.1, 1., 1.e-8, 0.1
*Boundary
primary_a_all, 1, 3, 0.
primary_b_all, 1, 3, 0.
secondary_a_all, 1, 1, -0.01
secondary_b_all, 1, 1, -0.01
secondary_a_all, 2, 2, 0.012
secondary_b_all, 2, 2, -0.012
secondary_a_all, 3, 3, 0.014
secondary_b_all, 3, 3, 0.014
*Output, field, frequency=1
*Node Output
COORD, RF, U
*Contact Output
CSTRESS, CDISP, CFORCE
*Output, history, frequency=1
*Energy Output
ALLFD
*End Step
*Step, name=CROSS, nlgeom=YES, inc=100
*Static
0.1, 1., 1.e-8, 0.1
*Boundary, op=MOD
secondary_a_all, 1, 1, -0.01
secondary_b_all, 1, 1, -0.01
secondary_a_all, 2, 2, 0.36
secondary_b_all, 2, 2, -0.36
secondary_a_all, 3, 3, 0.42
secondary_b_all, 3, 3, 0.42
*Output, field, frequency=1
*Node Output
COORD, RF, U
*Contact Output
CSTRESS, CDISP, CFORCE
*Output, history, frequency=1
*Energy Output
ALLFD
*End Step
*Step, name=FORWARD, nlgeom=YES, inc=100
*Static
0.1, 1., 1.e-8, 0.1
*Boundary, op=MOD
secondary_a_all, 1, 1, -0.01
secondary_b_all, 1, 1, -0.01
secondary_a_all, 2, 2, 0.54
secondary_b_all, 2, 2, -0.54
secondary_a_all, 3, 3, 0.63
secondary_b_all, 3, 3, 0.63
*Output, field, frequency=1
*Node Output
COORD, RF, U
*Contact Output
CSTRESS, CDISP, CFORCE
*Output, history, frequency=1
*Energy Output
ALLFD
*End Step
*Step, name=FAR_SLIDE, nlgeom=YES, inc=100
*Static
0.1, 1., 1.e-8, 0.1
*Boundary, op=MOD
secondary_a_all, 1, 1, -0.01
secondary_b_all, 1, 1, -0.01
secondary_a_all, 2, 2, 0.72
secondary_b_all, 2, 2, -0.72
secondary_a_all, 3, 3, 0.84
secondary_b_all, 3, 3, 0.84
*Output, field, frequency=1
*Node Output
COORD, RF, U
*Contact Output
CSTRESS, CDISP, CFORCE
*Output, history, frequency=1
*Energy Output
ALLFD
*End Step
