*Heading
** B5.13 Abaqus/Standard small-strain noncoaxial coupled plastic-creep C3D8T probe.
** Inelastic dissipation heat generation is intentionally disabled.
*Preprint, echo=NO, model=NO, history=NO, contact=NO
*Node
1, 0.0, 0.0, 0.0
2, 1.0, 0.0, 0.0
3, 1.0, 1.0, 0.0
4, 0.0, 1.0, 0.0
5, 0.0, 0.0, 1.0
6, 1.0, 0.0, 1.0
7, 1.0, 1.0, 1.0
8, 0.0, 1.0, 1.0
*Element, type=C3D8T, elset=VOLUME
1, 1, 2, 3, 4, 5, 6, 7, 8
*Nset, nset=ALL_NODES, generate
1, 8, 1
*Nset, nset=LEFT
1, 4, 5, 8
*Nset, nset=RIGHT
2, 3, 6, 7
*Nset, nset=Z0, generate
1, 4, 1
*Material, name=NONCOAXIAL_MATERIAL
*Elastic
2.0000000000000000e11, 3.0000000000000000e-1
*Plastic
2.0000000000000000e8, 0.0
2.2000000000000000e9, 1.0000000000000000e0
*Creep, law=TIME
1.0000000000000001e-29, 3.0000000000000000e0, 0.0
*Conductivity
1.0
*Density
1.0
*Specific Heat
1.0
*Solid Section, elset=VOLUME, material=NONCOAXIAL_MATERIAL
,
*Initial Conditions, type=TEMPERATURE
ALL_NODES, 6.0000000000000000e2
*Step, name=STEP1, nlgeom=NO, inc=32
*Coupled Temperature-Displacement
1.0000000000000000e-3, 1.0000000000000000e-3, 1.0000000000000000e-3, 1.0000000000000000e-3
*Controls, parameters=FIELD, field=DISPLACEMENT
1.0000000000000000e-12, 1.0000000000000000e-12, , , , 1.0000000000000000e-12
*Boundary, op=NEW
ALL_NODES, 11, 11, 6.0000000000000000e2
LEFT, 1, 2, 0.0
RIGHT, 1, 1, 1.2000000000000001e-03
RIGHT, 2, 2, 0.0000000000000000e+00
Z0, 3, 3, 0.0
*Output, field, frequency=1
*Node Output
NT, RFL, RF, U
*Element Output, directions=YES
CE, CEEQ, COORD, E, EE, IVOL, PE, PEEQ, S, TEMP
*Output, history, frequency=1
*Energy Output
ALLCD, ALLIE, ALLPD, ALLWK
*End Step
*Step, name=STEP2, nlgeom=NO, inc=32
*Coupled Temperature-Displacement
1.0000000000000000e-3, 1.0000000000000000e-3, 1.0000000000000000e-3, 1.0000000000000000e-3
*Controls, parameters=FIELD, field=DISPLACEMENT
1.0000000000000000e-12, 1.0000000000000000e-12, , , , 1.0000000000000000e-12
*Boundary, op=NEW
ALL_NODES, 11, 11, 6.0000000000000000e2
LEFT, 1, 2, 0.0
RIGHT, 1, 1, 1.6500000000000000e-03
RIGHT, 2, 2, 0.0000000000000000e+00
Z0, 3, 3, 0.0
*Output, field, frequency=1
*Node Output
NT, RFL, RF, U
*Element Output, directions=YES
CE, CEEQ, COORD, E, EE, IVOL, PE, PEEQ, S, TEMP
*Output, history, frequency=1
*Energy Output
ALLCD, ALLIE, ALLPD, ALLWK
*End Step
*Step, name=STEP3, nlgeom=NO, inc=32
*Coupled Temperature-Displacement
1.0000000000000000e-3, 1.0000000000000000e-3, 1.0000000000000000e-3, 1.0000000000000000e-3
*Controls, parameters=FIELD, field=DISPLACEMENT
1.0000000000000000e-12, 1.0000000000000000e-12, , , , 1.0000000000000000e-12
*Boundary, op=NEW
ALL_NODES, 11, 11, 6.0000000000000000e2
LEFT, 1, 2, 0.0
RIGHT, 1, 1, 2.1000000000000003e-03
RIGHT, 2, 2, 0.0000000000000000e+00
Z0, 3, 3, 0.0
*Output, field, frequency=1
*Node Output
NT, RFL, RF, U
*Element Output, directions=YES
CE, CEEQ, COORD, E, EE, IVOL, PE, PEEQ, S, TEMP
*Output, history, frequency=1
*Energy Output
ALLCD, ALLIE, ALLPD, ALLWK
*End Step
*Step, name=STEP4, nlgeom=NO, inc=32
*Coupled Temperature-Displacement
1.0000000000000000e-3, 1.0000000000000000e-3, 1.0000000000000000e-3, 1.0000000000000000e-3
*Controls, parameters=FIELD, field=DISPLACEMENT
1.0000000000000000e-12, 1.0000000000000000e-12, , , , 1.0000000000000000e-12
*Boundary, op=NEW
ALL_NODES, 11, 11, 6.0000000000000000e2
LEFT, 1, 2, 0.0
RIGHT, 1, 1, 2.5500000000000002e-03
RIGHT, 2, 2, 0.0000000000000000e+00
Z0, 3, 3, 0.0
*Output, field, frequency=1
*Node Output
NT, RFL, RF, U
*Element Output, directions=YES
CE, CEEQ, COORD, E, EE, IVOL, PE, PEEQ, S, TEMP
*Output, history, frequency=1
*Energy Output
ALLCD, ALLIE, ALLPD, ALLWK
*End Step
*Step, name=STEP5, nlgeom=NO, inc=32
*Coupled Temperature-Displacement
1.0000000000000000e-3, 1.0000000000000000e-3, 1.0000000000000000e-3, 1.0000000000000000e-3
*Controls, parameters=FIELD, field=DISPLACEMENT
1.0000000000000000e-12, 1.0000000000000000e-12, , , , 1.0000000000000000e-12
*Boundary, op=NEW
ALL_NODES, 11, 11, 6.0000000000000000e2
LEFT, 1, 2, 0.0
RIGHT, 1, 1, 3.0000000000000001e-03
RIGHT, 2, 2, 0.0000000000000000e+00
Z0, 3, 3, 0.0
*Output, field, frequency=1
*Node Output
NT, RFL, RF, U
*Element Output, directions=YES
CE, CEEQ, COORD, E, EE, IVOL, PE, PEEQ, S, TEMP
*Output, history, frequency=1
*Energy Output
ALLCD, ALLIE, ALLPD, ALLWK
*End Step
*Step, name=STEP6, nlgeom=NO, inc=32
*Coupled Temperature-Displacement
1.0000000000000000e-3, 1.0000000000000000e-3, 1.0000000000000000e-3, 1.0000000000000000e-3
*Controls, parameters=FIELD, field=DISPLACEMENT
1.0000000000000000e-12, 1.0000000000000000e-12, , , , 1.0000000000000000e-12
*Boundary, op=NEW
ALL_NODES, 11, 11, 6.0000000000000000e2
LEFT, 1, 2, 0.0
RIGHT, 1, 1, 3.0000000000000001e-03
RIGHT, 2, 2, 8.0000000000000004e-04
Z0, 3, 3, 0.0
*Output, field, frequency=1
*Node Output
NT, RFL, RF, U
*Element Output, directions=YES
CE, CEEQ, COORD, E, EE, IVOL, PE, PEEQ, S, TEMP
*Output, history, frequency=1
*Energy Output
ALLCD, ALLIE, ALLPD, ALLWK
*End Step
*Step, name=STEP7, nlgeom=NO, inc=32
*Coupled Temperature-Displacement
1.0000000000000000e-3, 1.0000000000000000e-3, 1.0000000000000000e-3, 1.0000000000000000e-3
*Controls, parameters=FIELD, field=DISPLACEMENT
1.0000000000000000e-12, 1.0000000000000000e-12, , , , 1.0000000000000000e-12
*Boundary, op=NEW
ALL_NODES, 11, 11, 6.0000000000000000e2
LEFT, 1, 2, 0.0
RIGHT, 1, 1, 3.0000000000000001e-03
RIGHT, 2, 2, 1.6000000000000001e-03
Z0, 3, 3, 0.0
*Output, field, frequency=1
*Node Output
NT, RFL, RF, U
*Element Output, directions=YES
CE, CEEQ, COORD, E, EE, IVOL, PE, PEEQ, S, TEMP
*Output, history, frequency=1
*Energy Output
ALLCD, ALLIE, ALLPD, ALLWK
*End Step
*Step, name=STEP8, nlgeom=NO, inc=32
*Coupled Temperature-Displacement
1.0000000000000000e-3, 1.0000000000000000e-3, 1.0000000000000000e-3, 1.0000000000000000e-3
*Controls, parameters=FIELD, field=DISPLACEMENT
1.0000000000000000e-12, 1.0000000000000000e-12, , , , 1.0000000000000000e-12
*Boundary, op=NEW
ALL_NODES, 11, 11, 6.0000000000000000e2
LEFT, 1, 2, 0.0
RIGHT, 1, 1, 3.0000000000000001e-03
RIGHT, 2, 2, 2.4000000000000002e-03
Z0, 3, 3, 0.0
*Output, field, frequency=1
*Node Output
NT, RFL, RF, U
*Element Output, directions=YES
CE, CEEQ, COORD, E, EE, IVOL, PE, PEEQ, S, TEMP
*Output, history, frequency=1
*Energy Output
ALLCD, ALLIE, ALLPD, ALLWK
*End Step
*Step, name=STEP9, nlgeom=NO, inc=32
*Coupled Temperature-Displacement
1.0000000000000000e-3, 1.0000000000000000e-3, 1.0000000000000000e-3, 1.0000000000000000e-3
*Controls, parameters=FIELD, field=DISPLACEMENT
1.0000000000000000e-12, 1.0000000000000000e-12, , , , 1.0000000000000000e-12
*Boundary, op=NEW
ALL_NODES, 11, 11, 6.0000000000000000e2
LEFT, 1, 2, 0.0
RIGHT, 1, 1, 3.0000000000000001e-03
RIGHT, 2, 2, 3.2000000000000002e-03
Z0, 3, 3, 0.0
*Output, field, frequency=1
*Node Output
NT, RFL, RF, U
*Element Output, directions=YES
CE, CEEQ, COORD, E, EE, IVOL, PE, PEEQ, S, TEMP
*Output, history, frequency=1
*Energy Output
ALLCD, ALLIE, ALLPD, ALLWK
*End Step
*Step, name=STEP10, nlgeom=NO, inc=32
*Coupled Temperature-Displacement
1.0000000000000000e-3, 1.0000000000000000e-3, 1.0000000000000000e-3, 1.0000000000000000e-3
*Controls, parameters=FIELD, field=DISPLACEMENT
1.0000000000000000e-12, 1.0000000000000000e-12, , , , 1.0000000000000000e-12
*Boundary, op=NEW
ALL_NODES, 11, 11, 6.0000000000000000e2
LEFT, 1, 2, 0.0
RIGHT, 1, 1, 3.0000000000000001e-03
RIGHT, 2, 2, 4.0000000000000001e-03
Z0, 3, 3, 0.0
*Output, field, frequency=1
*Node Output
NT, RFL, RF, U
*Element Output, directions=YES
CE, CEEQ, COORD, E, EE, IVOL, PE, PEEQ, S, TEMP
*Output, history, frequency=1
*Energy Output
ALLCD, ALLIE, ALLPD, ALLWK
*End Step
*Step, name=STEP11, nlgeom=NO, inc=32
*Coupled Temperature-Displacement
1.0000000000000000e-3, 1.0000000000000000e-3, 1.0000000000000000e-3, 1.0000000000000000e-3
*Controls, parameters=FIELD, field=DISPLACEMENT
1.0000000000000000e-12, 1.0000000000000000e-12, , , , 1.0000000000000000e-12
*Boundary, op=NEW
ALL_NODES, 11, 11, 6.0000000000000000e2
LEFT, 1, 2, 0.0
RIGHT, 1, 1, 2.0000000000000000e-03
RIGHT, 2, 2, 4.0000000000000001e-03
Z0, 3, 3, 0.0
*Output, field, frequency=1
*Node Output
NT, RFL, RF, U
*Element Output, directions=YES
CE, CEEQ, COORD, E, EE, IVOL, PE, PEEQ, S, TEMP
*Output, history, frequency=1
*Energy Output
ALLCD, ALLIE, ALLPD, ALLWK
*End Step
*Step, name=STEP12, nlgeom=NO, inc=32
*Coupled Temperature-Displacement
1.0000000000000000e-3, 1.0000000000000000e-3, 1.0000000000000000e-3, 1.0000000000000000e-3
*Controls, parameters=FIELD, field=DISPLACEMENT
1.0000000000000000e-12, 1.0000000000000000e-12, , , , 1.0000000000000000e-12
*Boundary, op=NEW
ALL_NODES, 11, 11, 6.0000000000000000e2
LEFT, 1, 2, 0.0
RIGHT, 1, 1, 1.0000000000000000e-03
RIGHT, 2, 2, 4.0000000000000001e-03
Z0, 3, 3, 0.0
*Output, field, frequency=1
*Node Output
NT, RFL, RF, U
*Element Output, directions=YES
CE, CEEQ, COORD, E, EE, IVOL, PE, PEEQ, S, TEMP
*Output, history, frequency=1
*Energy Output
ALLCD, ALLIE, ALLPD, ALLWK
*End Step
*Step, name=STEP13, nlgeom=NO, inc=32
*Coupled Temperature-Displacement
1.0000000000000000e-3, 1.0000000000000000e-3, 1.0000000000000000e-3, 1.0000000000000000e-3
*Controls, parameters=FIELD, field=DISPLACEMENT
1.0000000000000000e-12, 1.0000000000000000e-12, , , , 1.0000000000000000e-12
*Boundary, op=NEW
ALL_NODES, 11, 11, 6.0000000000000000e2
LEFT, 1, 2, 0.0
RIGHT, 1, 1, 0.0000000000000000e+00
RIGHT, 2, 2, 4.0000000000000001e-03
Z0, 3, 3, 0.0
*Output, field, frequency=1
*Node Output
NT, RFL, RF, U
*Element Output, directions=YES
CE, CEEQ, COORD, E, EE, IVOL, PE, PEEQ, S, TEMP
*Output, history, frequency=1
*Energy Output
ALLCD, ALLIE, ALLPD, ALLWK
*End Step
*Step, name=STEP14, nlgeom=NO, inc=32
*Coupled Temperature-Displacement
1.0000000000000000e-3, 1.0000000000000000e-3, 1.0000000000000000e-3, 1.0000000000000000e-3
*Controls, parameters=FIELD, field=DISPLACEMENT
1.0000000000000000e-12, 1.0000000000000000e-12, , , , 1.0000000000000000e-12
*Boundary, op=NEW
ALL_NODES, 11, 11, 6.0000000000000000e2
LEFT, 1, 2, 0.0
RIGHT, 1, 1, -1.0000000000000000e-03
RIGHT, 2, 2, 4.0000000000000001e-03
Z0, 3, 3, 0.0
*Output, field, frequency=1
*Node Output
NT, RFL, RF, U
*Element Output, directions=YES
CE, CEEQ, COORD, E, EE, IVOL, PE, PEEQ, S, TEMP
*Output, history, frequency=1
*Energy Output
ALLCD, ALLIE, ALLPD, ALLWK
*End Step
*Step, name=STEP15, nlgeom=NO, inc=32
*Coupled Temperature-Displacement
1.0000000000000000e-3, 1.0000000000000000e-3, 1.0000000000000000e-3, 1.0000000000000000e-3
*Controls, parameters=FIELD, field=DISPLACEMENT
1.0000000000000000e-12, 1.0000000000000000e-12, , , , 1.0000000000000000e-12
*Boundary, op=NEW
ALL_NODES, 11, 11, 6.0000000000000000e2
LEFT, 1, 2, 0.0
RIGHT, 1, 1, -2.0000000000000000e-03
RIGHT, 2, 2, 4.0000000000000001e-03
Z0, 3, 3, 0.0
*Output, field, frequency=1
*Node Output
NT, RFL, RF, U
*Element Output, directions=YES
CE, CEEQ, COORD, E, EE, IVOL, PE, PEEQ, S, TEMP
*Output, history, frequency=1
*Energy Output
ALLCD, ALLIE, ALLPD, ALLWK
*End Step
*Step, name=STEP16, nlgeom=NO, inc=32
*Coupled Temperature-Displacement
1.0000000000000000e-3, 1.0000000000000000e-3, 1.0000000000000000e-3, 1.0000000000000000e-3
*Controls, parameters=FIELD, field=DISPLACEMENT
1.0000000000000000e-12, 1.0000000000000000e-12, , , , 1.0000000000000000e-12
*Boundary, op=NEW
ALL_NODES, 11, 11, 6.0000000000000000e2
LEFT, 1, 2, 0.0
RIGHT, 1, 1, -2.0000000000000000e-03
RIGHT, 2, 2, 2.4000000000000002e-03
Z0, 3, 3, 0.0
*Output, field, frequency=1
*Node Output
NT, RFL, RF, U
*Element Output, directions=YES
CE, CEEQ, COORD, E, EE, IVOL, PE, PEEQ, S, TEMP
*Output, history, frequency=1
*Energy Output
ALLCD, ALLIE, ALLPD, ALLWK
*End Step
*Step, name=STEP17, nlgeom=NO, inc=32
*Coupled Temperature-Displacement
1.0000000000000000e-3, 1.0000000000000000e-3, 1.0000000000000000e-3, 1.0000000000000000e-3
*Controls, parameters=FIELD, field=DISPLACEMENT
1.0000000000000000e-12, 1.0000000000000000e-12, , , , 1.0000000000000000e-12
*Boundary, op=NEW
ALL_NODES, 11, 11, 6.0000000000000000e2
LEFT, 1, 2, 0.0
RIGHT, 1, 1, -2.0000000000000000e-03
RIGHT, 2, 2, 7.9999999999999993e-04
Z0, 3, 3, 0.0
*Output, field, frequency=1
*Node Output
NT, RFL, RF, U
*Element Output, directions=YES
CE, CEEQ, COORD, E, EE, IVOL, PE, PEEQ, S, TEMP
*Output, history, frequency=1
*Energy Output
ALLCD, ALLIE, ALLPD, ALLWK
*End Step
*Step, name=STEP18, nlgeom=NO, inc=32
*Coupled Temperature-Displacement
1.0000000000000000e-3, 1.0000000000000000e-3, 1.0000000000000000e-3, 1.0000000000000000e-3
*Controls, parameters=FIELD, field=DISPLACEMENT
1.0000000000000000e-12, 1.0000000000000000e-12, , , , 1.0000000000000000e-12
*Boundary, op=NEW
ALL_NODES, 11, 11, 6.0000000000000000e2
LEFT, 1, 2, 0.0
RIGHT, 1, 1, -2.0000000000000000e-03
RIGHT, 2, 2, -8.0000000000000036e-04
Z0, 3, 3, 0.0
*Output, field, frequency=1
*Node Output
NT, RFL, RF, U
*Element Output, directions=YES
CE, CEEQ, COORD, E, EE, IVOL, PE, PEEQ, S, TEMP
*Output, history, frequency=1
*Energy Output
ALLCD, ALLIE, ALLPD, ALLWK
*End Step
*Step, name=STEP19, nlgeom=NO, inc=32
*Coupled Temperature-Displacement
1.0000000000000000e-3, 1.0000000000000000e-3, 1.0000000000000000e-3, 1.0000000000000000e-3
*Controls, parameters=FIELD, field=DISPLACEMENT
1.0000000000000000e-12, 1.0000000000000000e-12, , , , 1.0000000000000000e-12
*Boundary, op=NEW
ALL_NODES, 11, 11, 6.0000000000000000e2
LEFT, 1, 2, 0.0
RIGHT, 1, 1, -2.0000000000000000e-03
RIGHT, 2, 2, -2.4000000000000002e-03
Z0, 3, 3, 0.0
*Output, field, frequency=1
*Node Output
NT, RFL, RF, U
*Element Output, directions=YES
CE, CEEQ, COORD, E, EE, IVOL, PE, PEEQ, S, TEMP
*Output, history, frequency=1
*Energy Output
ALLCD, ALLIE, ALLPD, ALLWK
*End Step
*Step, name=STEP20, nlgeom=NO, inc=32
*Coupled Temperature-Displacement
1.0000000000000000e-3, 1.0000000000000000e-3, 1.0000000000000000e-3, 1.0000000000000000e-3
*Controls, parameters=FIELD, field=DISPLACEMENT
1.0000000000000000e-12, 1.0000000000000000e-12, , , , 1.0000000000000000e-12
*Boundary, op=NEW
ALL_NODES, 11, 11, 6.0000000000000000e2
LEFT, 1, 2, 0.0
RIGHT, 1, 1, -2.0000000000000000e-03
RIGHT, 2, 2, -4.0000000000000001e-03
Z0, 3, 3, 0.0
*Output, field, frequency=1
*Node Output
NT, RFL, RF, U
*Element Output, directions=YES
CE, CEEQ, COORD, E, EE, IVOL, PE, PEEQ, S, TEMP
*Output, history, frequency=1
*Energy Output
ALLCD, ALLIE, ALLPD, ALLWK
*End Step
