*Heading
** B5.20 Abaqus/Standard C3D8T clearance- and temperature-dependent gap conductance.
** SI units: metre, second, kelvin, watt, pascal.
*Preprint, echo=NO, model=NO, history=NO, contact=NO
*Node
1, 0.0000000000000000e+00, 0.0000000000000000e+00, 0.0000000000000000e+00
2, 1.0000000000000000e+00, 0.0000000000000000e+00, 0.0000000000000000e+00
3, 1.0000000000000000e+00, 1.0000000000000000e+00, 0.0000000000000000e+00
4, 0.0000000000000000e+00, 1.0000000000000000e+00, 0.0000000000000000e+00
5, 0.0000000000000000e+00, 0.0000000000000000e+00, 1.0000000000000000e+00
6, 1.0000000000000000e+00, 0.0000000000000000e+00, 1.0000000000000000e+00
7, 1.0000000000000000e+00, 1.0000000000000000e+00, 1.0000000000000000e+00
8, 0.0000000000000000e+00, 1.0000000000000000e+00, 1.0000000000000000e+00
9, 1.1000000000000001e+00, 0.0000000000000000e+00, 0.0000000000000000e+00
10, 2.1000000000000001e+00, 0.0000000000000000e+00, 0.0000000000000000e+00
11, 2.1000000000000001e+00, 1.0000000000000000e+00, 0.0000000000000000e+00
12, 1.1000000000000001e+00, 1.0000000000000000e+00, 0.0000000000000000e+00
13, 1.1000000000000001e+00, 0.0000000000000000e+00, 1.0000000000000000e+00
14, 2.1000000000000001e+00, 0.0000000000000000e+00, 1.0000000000000000e+00
15, 2.1000000000000001e+00, 1.0000000000000000e+00, 1.0000000000000000e+00
16, 1.1000000000000001e+00, 1.0000000000000000e+00, 1.0000000000000000e+00
*Element, type=C3D8T, elset=BLOCKS
1, 1, 2, 3, 4, 5, 6, 7, 8
2, 9, 10, 11, 12, 13, 14, 15, 16
*Nset, nset=ALL_NODES, generate
1, 16, 1
*Nset, nset=SECONDARY, generate
1, 8, 1
*Nset, nset=PRIMARY, generate
9, 16, 1
*Surface, type=ELEMENT, name=SECONDARY_CONTACT
1, S4
*Surface, type=ELEMENT, name=PRIMARY_CONTACT
2, S6
*Material, name=THERMAL
*Elastic
2.0000000000000000e11, 2.5000000000000000e-1
*Conductivity
4.0000000000000000e0
*Density
2.0000000000000000e3
*Specific Heat
3.0000000000000000e3
*Solid Section, elset=BLOCKS, material=THERMAL
,
*Surface Interaction, name=THERMAL_GAP
*Gap Conductance
9.9000000000000000e1, 0.0000000000000000e0, 3.4000000000000000e2
3.9000000000000000e1, 5.9999999999999998e-2, 3.4000000000000000e2
1.0100000000000000e2, 0.0000000000000000e0, 3.6000000000000000e2
4.1000000000000000e1, 5.9999999999999998e-2, 3.6000000000000000e2
*Contact Pair, interaction=THERMAL_GAP, type=SURFACE TO SURFACE, small sliding, adjust=0.
SECONDARY_CONTACT, PRIMARY_CONTACT
*Initial Conditions, type=TEMPERATURE
ALL_NODES, 3.5000000000000000e2
*Step, name=BASE, nlgeom=YES, inc=40
*Coupled Temperature-Displacement, steady state
1.0, 1.0, 1.0e-8, 1.0
*Boundary, op=NEW
SECONDARY, 1, 1, 5.0000000000000003e-02
SECONDARY, 2, 3, 0.0
PRIMARY, 1, 3, 0.0
SECONDARY, 11, 11, 4.0000000000000000e+02
PRIMARY, 11, 11, 3.0000000000000000e+02
*Output, field, frequency=1
*Node Output
COORD, NT, RF, RFL, U
*End Step
*Step, name=GAP_PLUS, nlgeom=YES, inc=40
*Coupled Temperature-Displacement, steady state
1.0, 1.0, 1.0e-8, 1.0
*Boundary, op=NEW
SECONDARY, 1, 1, 4.9990000000000000e-02
SECONDARY, 2, 3, 0.0
PRIMARY, 1, 3, 0.0
SECONDARY, 11, 11, 4.0000000000000000e+02
PRIMARY, 11, 11, 3.0000000000000000e+02
*Output, field, frequency=1
*Node Output
COORD, NT, RF, RFL, U
*End Step
*Step, name=GAP_MINUS, nlgeom=YES, inc=40
*Coupled Temperature-Displacement, steady state
1.0, 1.0, 1.0e-8, 1.0
*Boundary, op=NEW
SECONDARY, 1, 1, 5.0010000000000006e-02
SECONDARY, 2, 3, 0.0
PRIMARY, 1, 3, 0.0
SECONDARY, 11, 11, 4.0000000000000000e+02
PRIMARY, 11, 11, 3.0000000000000000e+02
*Output, field, frequency=1
*Node Output
COORD, NT, RF, RFL, U
*End Step
*Step, name=SECONDARY_PLUS, nlgeom=YES, inc=40
*Coupled Temperature-Displacement, steady state
1.0, 1.0, 1.0e-8, 1.0
*Boundary, op=NEW
SECONDARY, 1, 1, 5.0000000000000003e-02
SECONDARY, 2, 3, 0.0
PRIMARY, 1, 3, 0.0
SECONDARY, 11, 11, 4.0100000000000000e+02
PRIMARY, 11, 11, 3.0000000000000000e+02
*Output, field, frequency=1
*Node Output
COORD, NT, RF, RFL, U
*End Step
*Step, name=SECONDARY_MINUS, nlgeom=YES, inc=40
*Coupled Temperature-Displacement, steady state
1.0, 1.0, 1.0e-8, 1.0
*Boundary, op=NEW
SECONDARY, 1, 1, 5.0000000000000003e-02
SECONDARY, 2, 3, 0.0
PRIMARY, 1, 3, 0.0
SECONDARY, 11, 11, 3.9900000000000000e+02
PRIMARY, 11, 11, 3.0000000000000000e+02
*Output, field, frequency=1
*Node Output
COORD, NT, RF, RFL, U
*End Step
*Step, name=PRIMARY_PLUS, nlgeom=YES, inc=40
*Coupled Temperature-Displacement, steady state
1.0, 1.0, 1.0e-8, 1.0
*Boundary, op=NEW
SECONDARY, 1, 1, 5.0000000000000003e-02
SECONDARY, 2, 3, 0.0
PRIMARY, 1, 3, 0.0
SECONDARY, 11, 11, 4.0000000000000000e+02
PRIMARY, 11, 11, 3.0100000000000000e+02
*Output, field, frequency=1
*Node Output
COORD, NT, RF, RFL, U
*End Step
*Step, name=PRIMARY_MINUS, nlgeom=YES, inc=40
*Coupled Temperature-Displacement, steady state
1.0, 1.0, 1.0e-8, 1.0
*Boundary, op=NEW
SECONDARY, 1, 1, 5.0000000000000003e-02
SECONDARY, 2, 3, 0.0
PRIMARY, 1, 3, 0.0
SECONDARY, 11, 11, 4.0000000000000000e+02
PRIMARY, 11, 11, 2.9900000000000000e+02
*Output, field, frequency=1
*Node Output
COORD, NT, RF, RFL, U
*End Step
