*Heading
** B5.22 faceted-cylinder C3D8T pressure-dependent thermal contact.
*Preprint, echo=NO, model=NO, history=NO, contact=YES
*Node
1, 2.9999999999999999e-01, 0.0000000000000000e+00, 0.0000000000000000e+00
2, 5.0000000000000000e-01, 0.0000000000000000e+00, 0.0000000000000000e+00
3, 4.3301270189221935e-01, 2.4999999999999997e-01, 0.0000000000000000e+00
4, 2.5980762113533162e-01, 1.4999999999999997e-01, 0.0000000000000000e+00
5, 2.9999999999999999e-01, 0.0000000000000000e+00, 1.0000000000000000e+00
6, 5.0000000000000000e-01, 0.0000000000000000e+00, 1.0000000000000000e+00
7, 4.3301270189221935e-01, 2.4999999999999997e-01, 1.0000000000000000e+00
8, 2.5980762113533162e-01, 1.4999999999999997e-01, 1.0000000000000000e+00
9, 2.5000000000000006e-01, 4.3301270189221930e-01, 0.0000000000000000e+00
10, 1.5000000000000002e-01, 2.5980762113533157e-01, 0.0000000000000000e+00
11, 2.5000000000000006e-01, 4.3301270189221930e-01, 1.0000000000000000e+00
12, 1.5000000000000002e-01, 2.5980762113533157e-01, 1.0000000000000000e+00
13, 3.0616169978683830e-17, 5.0000000000000000e-01, 0.0000000000000000e+00
14, 1.8369701987210297e-17, 2.9999999999999999e-01, 0.0000000000000000e+00
15, 3.0616169978683830e-17, 5.0000000000000000e-01, 1.0000000000000000e+00
16, 1.8369701987210297e-17, 2.9999999999999999e-01, 1.0000000000000000e+00
17, 5.0500000000000000e-01, 0.0000000000000000e+00, 0.0000000000000000e+00
18, 6.9999999999999996e-01, 0.0000000000000000e+00, 0.0000000000000000e+00
19, 6.0621778264910708e-01, 3.4999999999999992e-01, 0.0000000000000000e+00
20, 4.3734282891114157e-01, 2.5249999999999995e-01, 0.0000000000000000e+00
21, 5.0500000000000000e-01, 0.0000000000000000e+00, 1.0000000000000000e+00
22, 6.9999999999999996e-01, 0.0000000000000000e+00, 1.0000000000000000e+00
23, 6.0621778264910708e-01, 3.4999999999999992e-01, 1.0000000000000000e+00
24, 4.3734282891114157e-01, 2.5249999999999995e-01, 1.0000000000000000e+00
25, 3.5000000000000003e-01, 6.0621778264910697e-01, 0.0000000000000000e+00
26, 2.5250000000000006e-01, 4.3734282891114151e-01, 0.0000000000000000e+00
27, 3.5000000000000003e-01, 6.0621778264910697e-01, 1.0000000000000000e+00
28, 2.5250000000000006e-01, 4.3734282891114151e-01, 1.0000000000000000e+00
29, 4.2862637970157360e-17, 6.9999999999999996e-01, 0.0000000000000000e+00
30, 3.0922331678470668e-17, 5.0500000000000000e-01, 0.0000000000000000e+00
31, 4.2862637970157360e-17, 6.9999999999999996e-01, 1.0000000000000000e+00
32, 3.0922331678470668e-17, 5.0500000000000000e-01, 1.0000000000000000e+00
*Element, type=C3D8T, elset=PRIMARY
1, 1, 2, 3, 4, 5, 6, 7, 8
2, 4, 3, 9, 10, 8, 7, 11, 12
3, 10, 9, 13, 14, 12, 11, 15, 16
*Element, type=C3D8T, elset=SECONDARY
4, 17, 18, 19, 20, 21, 22, 23, 24
5, 20, 19, 25, 26, 24, 23, 27, 28
6, 26, 25, 29, 30, 28, 27, 31, 32
*Nset, nset=ALL_NODES, generate
1, 32, 1
*Nset, nset=PRIMARY_ALL, generate
1, 16, 1
*Nset, nset=SECONDARY_ALL, generate
17, 32, 1
*Surface, type=ELEMENT, name=PRIMARY_CONTACT
PRIMARY, S4
*Surface, type=ELEMENT, name=SECONDARY_CONTACT
SECONDARY, S6
*Material, name=THERMOELASTIC
*Elastic
1.0000000000000000e9, 0.0
*Expansion, zero=3.0000000000000000e2
0.0
*Conductivity
1.0000000000000000e1
*Density
1.0
*Specific Heat
1.0
*Solid Section, elset=PRIMARY, material=THERMOELASTIC
,
*Solid Section, elset=SECONDARY, material=THERMOELASTIC
,
*Surface Interaction, name=CONTACT
*Surface Behavior, pressure-overclosure=LINEAR
1.0000000000000000e7
*Friction
1.0000000000000001e-1
*Gap Conductance, pressure
0.0000000000000000e0, 0.0000000000000000e0
2.0000000000000000e2, 2.0000000000000000e5
*Contact Pair, interaction=CONTACT, type=SURFACE TO SURFACE, adjust=0.
SECONDARY_CONTACT, PRIMARY_CONTACT
*Initial Conditions, type=TEMPERATURE
PRIMARY_ALL, 3.0000000000000000e2
SECONDARY_ALL, 4.0000000000000000e2
*Step, name=LOAD, nlgeom=YES, inc=20
*Coupled Temperature-Displacement, steady state
1.0, 1.0, 1.0e-8, 1.0
*Boundary, op=NEW
1, 1, 3, 0.0
1, 11, 11, 3.0000000000000000e2
2, 1, 3, 0.0
2, 11, 11, 3.0000000000000000e2
3, 1, 3, 0.0
3, 11, 11, 3.0000000000000000e2
4, 1, 3, 0.0
4, 11, 11, 3.0000000000000000e2
5, 1, 3, 0.0
5, 11, 11, 3.0000000000000000e2
6, 1, 3, 0.0
6, 11, 11, 3.0000000000000000e2
7, 1, 3, 0.0
7, 11, 11, 3.0000000000000000e2
8, 1, 3, 0.0
8, 11, 11, 3.0000000000000000e2
9, 1, 3, 0.0
9, 11, 11, 3.0000000000000000e2
10, 1, 3, 0.0
10, 11, 11, 3.0000000000000000e2
11, 1, 3, 0.0
11, 11, 11, 3.0000000000000000e2
12, 1, 3, 0.0
12, 11, 11, 3.0000000000000000e2
13, 1, 3, 0.0
13, 11, 11, 3.0000000000000000e2
14, 1, 3, 0.0
14, 11, 11, 3.0000000000000000e2
15, 1, 3, 0.0
15, 11, 11, 3.0000000000000000e2
16, 1, 3, 0.0
16, 11, 11, 3.0000000000000000e2
17, 1, 1, -1.4999999999999999e-02
17, 2, 2, -0.0000000000000000e+00
17, 3, 3, 0.0000000000000000e+00
17, 11, 11, 4.0000000000000000e2
18, 1, 1, -1.4999999999999999e-02
18, 2, 2, -0.0000000000000000e+00
18, 3, 3, 0.0000000000000000e+00
18, 11, 11, 4.0000000000000000e2
19, 1, 1, -1.2990381056766582e-02
19, 2, 2, -7.4999999999999989e-03
19, 3, 3, 0.0000000000000000e+00
19, 11, 11, 4.0000000000000000e2
20, 1, 1, -1.2990381056766582e-02
20, 2, 2, -7.4999999999999980e-03
20, 3, 3, 0.0000000000000000e+00
20, 11, 11, 4.0000000000000000e2
21, 1, 1, -1.4999999999999999e-02
21, 2, 2, -0.0000000000000000e+00
21, 3, 3, 0.0000000000000000e+00
21, 11, 11, 4.0000000000000000e2
22, 1, 1, -1.4999999999999999e-02
22, 2, 2, -0.0000000000000000e+00
22, 3, 3, 0.0000000000000000e+00
22, 11, 11, 4.0000000000000000e2
23, 1, 1, -1.2990381056766582e-02
23, 2, 2, -7.4999999999999989e-03
23, 3, 3, 0.0000000000000000e+00
23, 11, 11, 4.0000000000000000e2
24, 1, 1, -1.2990381056766582e-02
24, 2, 2, -7.4999999999999980e-03
24, 3, 3, 0.0000000000000000e+00
24, 11, 11, 4.0000000000000000e2
25, 1, 1, -7.5000000000000006e-03
25, 2, 2, -1.2990381056766578e-02
25, 3, 3, 0.0000000000000000e+00
25, 11, 11, 4.0000000000000000e2
26, 1, 1, -7.5000000000000015e-03
26, 2, 2, -1.2990381056766580e-02
26, 3, 3, 0.0000000000000000e+00
26, 11, 11, 4.0000000000000000e2
27, 1, 1, -7.5000000000000006e-03
27, 2, 2, -1.2990381056766578e-02
27, 3, 3, 0.0000000000000000e+00
27, 11, 11, 4.0000000000000000e2
28, 1, 1, -7.5000000000000015e-03
28, 2, 2, -1.2990381056766580e-02
28, 3, 3, 0.0000000000000000e+00
28, 11, 11, 4.0000000000000000e2
29, 1, 1, -9.1848509936051480e-19
29, 2, 2, -1.4999999999999999e-02
29, 3, 3, 0.0000000000000000e+00
29, 11, 11, 4.0000000000000000e2
30, 1, 1, -9.1848509936051480e-19
30, 2, 2, -1.4999999999999999e-02
30, 3, 3, 0.0000000000000000e+00
30, 11, 11, 4.0000000000000000e2
31, 1, 1, -9.1848509936051480e-19
31, 2, 2, -1.4999999999999999e-02
31, 3, 3, 0.0000000000000000e+00
31, 11, 11, 4.0000000000000000e2
32, 1, 1, -9.1848509936051480e-19
32, 2, 2, -1.4999999999999999e-02
32, 3, 3, 0.0000000000000000e+00
32, 11, 11, 4.0000000000000000e2
*Output, field, frequency=1
*Node Output
COORD, NT, RF, RFL, U
*Contact Output
CSTRESS, CDISP, CFORCE, HFL
*End Step
