*Heading
** B5.22 faceted-cylinder C3D8T pressure-dependent thermal contact.
*Preprint, echo=NO, model=NO, history=NO, contact=YES
*Node
1, 8.0000000000000004e-01, 0.0000000000000000e+00, 0.0000000000000000e+00
2, 1.0000000000000000e+00, 0.0000000000000000e+00, 0.0000000000000000e+00
3, 9.9144486137381038e-01, 1.3052619222005157e-01, 0.0000000000000000e+00
4, 7.9315588909904833e-01, 1.0442095377604127e-01, 0.0000000000000000e+00
5, 8.0000000000000004e-01, 0.0000000000000000e+00, 1.0000000000000000e+00
6, 1.0000000000000000e+00, 0.0000000000000000e+00, 1.0000000000000000e+00
7, 9.9144486137381038e-01, 1.3052619222005157e-01, 1.0000000000000000e+00
8, 7.9315588909904833e-01, 1.0442095377604127e-01, 1.0000000000000000e+00
9, 9.6592582628906831e-01, 2.5881904510252074e-01, 0.0000000000000000e+00
10, 7.7274066103125472e-01, 2.0705523608201659e-01, 0.0000000000000000e+00
11, 9.6592582628906831e-01, 2.5881904510252074e-01, 1.0000000000000000e+00
12, 7.7274066103125472e-01, 2.0705523608201659e-01, 1.0000000000000000e+00
13, 9.2387953251128674e-01, 3.8268343236508978e-01, 0.0000000000000000e+00
14, 7.3910362600902946e-01, 3.0614674589207186e-01, 0.0000000000000000e+00
15, 9.2387953251128674e-01, 3.8268343236508978e-01, 1.0000000000000000e+00
16, 7.3910362600902946e-01, 3.0614674589207186e-01, 1.0000000000000000e+00
17, 8.6602540378443871e-01, 4.9999999999999994e-01, 0.0000000000000000e+00
18, 6.9282032302755103e-01, 3.9999999999999997e-01, 0.0000000000000000e+00
19, 8.6602540378443871e-01, 4.9999999999999994e-01, 1.0000000000000000e+00
20, 6.9282032302755103e-01, 3.9999999999999997e-01, 1.0000000000000000e+00
21, 7.9335334029123517e-01, 6.0876142900872066e-01, 0.0000000000000000e+00
22, 6.3468267223298813e-01, 4.8700914320697652e-01, 0.0000000000000000e+00
23, 7.9335334029123517e-01, 6.0876142900872066e-01, 1.0000000000000000e+00
24, 6.3468267223298813e-01, 4.8700914320697652e-01, 1.0000000000000000e+00
25, 7.0710678118654757e-01, 7.0710678118654746e-01, 0.0000000000000000e+00
26, 5.6568542494923812e-01, 5.6568542494923801e-01, 0.0000000000000000e+00
27, 7.0710678118654757e-01, 7.0710678118654746e-01, 1.0000000000000000e+00
28, 5.6568542494923812e-01, 5.6568542494923801e-01, 1.0000000000000000e+00
29, 6.0876142900872066e-01, 7.9335334029123517e-01, 0.0000000000000000e+00
30, 4.8700914320697652e-01, 6.3468267223298813e-01, 0.0000000000000000e+00
31, 6.0876142900872066e-01, 7.9335334029123517e-01, 1.0000000000000000e+00
32, 4.8700914320697652e-01, 6.3468267223298813e-01, 1.0000000000000000e+00
33, 5.0000000000000011e-01, 8.6602540378443860e-01, 0.0000000000000000e+00
34, 4.0000000000000013e-01, 6.9282032302755092e-01, 0.0000000000000000e+00
35, 5.0000000000000011e-01, 8.6602540378443860e-01, 1.0000000000000000e+00
36, 4.0000000000000013e-01, 6.9282032302755092e-01, 1.0000000000000000e+00
37, 3.8268343236508984e-01, 9.2387953251128674e-01, 0.0000000000000000e+00
38, 3.0614674589207191e-01, 7.3910362600902946e-01, 0.0000000000000000e+00
39, 3.8268343236508984e-01, 9.2387953251128674e-01, 1.0000000000000000e+00
40, 3.0614674589207191e-01, 7.3910362600902946e-01, 1.0000000000000000e+00
41, 2.5881904510252074e-01, 9.6592582628906831e-01, 0.0000000000000000e+00
42, 2.0705523608201659e-01, 7.7274066103125472e-01, 0.0000000000000000e+00
43, 2.5881904510252074e-01, 9.6592582628906831e-01, 1.0000000000000000e+00
44, 2.0705523608201659e-01, 7.7274066103125472e-01, 1.0000000000000000e+00
45, 1.3052619222005171e-01, 9.9144486137381038e-01, 0.0000000000000000e+00
46, 1.0442095377604138e-01, 7.9315588909904833e-01, 0.0000000000000000e+00
47, 1.3052619222005171e-01, 9.9144486137381038e-01, 1.0000000000000000e+00
48, 1.0442095377604138e-01, 7.9315588909904833e-01, 1.0000000000000000e+00
49, 6.1232339957367660e-17, 1.0000000000000000e+00, 0.0000000000000000e+00
50, 4.8985871965894131e-17, 8.0000000000000004e-01, 0.0000000000000000e+00
51, 6.1232339957367660e-17, 1.0000000000000000e+00, 1.0000000000000000e+00
52, 4.8985871965894131e-17, 8.0000000000000004e-01, 1.0000000000000000e+00
53, 1.0049999999999999e+00, 0.0000000000000000e+00, 0.0000000000000000e+00
54, 1.2000000000000000e+00, 0.0000000000000000e+00, 0.0000000000000000e+00
55, 1.1897338336485723e+00, 1.5663143066406188e-01, 0.0000000000000000e+00
56, 9.9640208568067934e-01, 1.3117882318115182e-01, 0.0000000000000000e+00
57, 1.0049999999999999e+00, 0.0000000000000000e+00, 1.0000000000000000e+00
58, 1.2000000000000000e+00, 0.0000000000000000e+00, 1.0000000000000000e+00
59, 1.1897338336485723e+00, 1.5663143066406188e-01, 1.0000000000000000e+00
60, 9.9640208568067934e-01, 1.3117882318115182e-01, 1.0000000000000000e+00
61, 1.1591109915468820e+00, 3.1058285412302489e-01, 0.0000000000000000e+00
62, 9.7075545542051356e-01, 2.6011314032803334e-01, 0.0000000000000000e+00
63, 1.1591109915468820e+00, 3.1058285412302489e-01, 1.0000000000000000e+00
64, 9.7075545542051356e-01, 2.6011314032803334e-01, 1.0000000000000000e+00
65, 1.1086554390135441e+00, 4.5922011883810770e-01, 0.0000000000000000e+00
66, 9.2849893017384311e-01, 3.8459684952691520e-01, 0.0000000000000000e+00
67, 1.1086554390135441e+00, 4.5922011883810770e-01, 1.0000000000000000e+00
68, 9.2849893017384311e-01, 3.8459684952691520e-01, 1.0000000000000000e+00
69, 1.0392304845413265e+00, 5.9999999999999987e-01, 0.0000000000000000e+00
70, 8.7035553080336081e-01, 5.0249999999999984e-01, 0.0000000000000000e+00
71, 1.0392304845413265e+00, 5.9999999999999987e-01, 1.0000000000000000e+00
72, 8.7035553080336081e-01, 5.0249999999999984e-01, 1.0000000000000000e+00
73, 9.5202400834948220e-01, 7.3051371481046479e-01, 0.0000000000000000e+00
74, 7.9732010699269129e-01, 6.1180523615376414e-01, 0.0000000000000000e+00
75, 9.5202400834948220e-01, 7.3051371481046479e-01, 1.0000000000000000e+00
76, 7.9732010699269129e-01, 6.1180523615376414e-01, 1.0000000000000000e+00
77, 8.4852813742385702e-01, 8.4852813742385691e-01, 0.0000000000000000e+00
78, 7.1064231509248021e-01, 7.1064231509248010e-01, 0.0000000000000000e+00
79, 8.4852813742385702e-01, 8.4852813742385691e-01, 1.0000000000000000e+00
80, 7.1064231509248021e-01, 7.1064231509248010e-01, 1.0000000000000000e+00
81, 7.3051371481046479e-01, 9.5202400834948220e-01, 0.0000000000000000e+00
82, 6.1180523615376414e-01, 7.9732010699269129e-01, 0.0000000000000000e+00
83, 7.3051371481046479e-01, 9.5202400834948220e-01, 1.0000000000000000e+00
84, 6.1180523615376414e-01, 7.9732010699269129e-01, 1.0000000000000000e+00
85, 6.0000000000000009e-01, 1.0392304845413263e+00, 0.0000000000000000e+00
86, 5.0250000000000006e-01, 8.7035553080336070e-01, 0.0000000000000000e+00
87, 6.0000000000000009e-01, 1.0392304845413263e+00, 1.0000000000000000e+00
88, 5.0250000000000006e-01, 8.7035553080336070e-01, 1.0000000000000000e+00
89, 4.5922011883810776e-01, 1.1086554390135441e+00, 0.0000000000000000e+00
90, 3.8459684952691525e-01, 9.2849893017384311e-01, 0.0000000000000000e+00
91, 4.5922011883810776e-01, 1.1086554390135441e+00, 1.0000000000000000e+00
92, 3.8459684952691525e-01, 9.2849893017384311e-01, 1.0000000000000000e+00
93, 3.1058285412302489e-01, 1.1591109915468820e+00, 0.0000000000000000e+00
94, 2.6011314032803334e-01, 9.7075545542051356e-01, 0.0000000000000000e+00
95, 3.1058285412302489e-01, 1.1591109915468820e+00, 1.0000000000000000e+00
96, 2.6011314032803334e-01, 9.7075545542051356e-01, 1.0000000000000000e+00
97, 1.5663143066406204e-01, 1.1897338336485723e+00, 0.0000000000000000e+00
98, 1.3117882318115195e-01, 9.9640208568067934e-01, 0.0000000000000000e+00
99, 1.5663143066406204e-01, 1.1897338336485723e+00, 1.0000000000000000e+00
100, 1.3117882318115195e-01, 9.9640208568067934e-01, 1.0000000000000000e+00
101, 7.3478807948841190e-17, 1.2000000000000000e+00, 0.0000000000000000e+00
102, 6.1538501657154492e-17, 1.0049999999999999e+00, 0.0000000000000000e+00
103, 7.3478807948841190e-17, 1.2000000000000000e+00, 1.0000000000000000e+00
104, 6.1538501657154492e-17, 1.0049999999999999e+00, 1.0000000000000000e+00
*Element, type=C3D8T, elset=PRIMARY
1, 1, 2, 3, 4, 5, 6, 7, 8
2, 4, 3, 9, 10, 8, 7, 11, 12
3, 10, 9, 13, 14, 12, 11, 15, 16
4, 14, 13, 17, 18, 16, 15, 19, 20
5, 18, 17, 21, 22, 20, 19, 23, 24
6, 22, 21, 25, 26, 24, 23, 27, 28
7, 26, 25, 29, 30, 28, 27, 31, 32
8, 30, 29, 33, 34, 32, 31, 35, 36
9, 34, 33, 37, 38, 36, 35, 39, 40
10, 38, 37, 41, 42, 40, 39, 43, 44
11, 42, 41, 45, 46, 44, 43, 47, 48
12, 46, 45, 49, 50, 48, 47, 51, 52
*Element, type=C3D8T, elset=SECONDARY
13, 53, 54, 55, 56, 57, 58, 59, 60
14, 56, 55, 61, 62, 60, 59, 63, 64
15, 62, 61, 65, 66, 64, 63, 67, 68
16, 66, 65, 69, 70, 68, 67, 71, 72
17, 70, 69, 73, 74, 72, 71, 75, 76
18, 74, 73, 77, 78, 76, 75, 79, 80
19, 78, 77, 81, 82, 80, 79, 83, 84
20, 82, 81, 85, 86, 84, 83, 87, 88
21, 86, 85, 89, 90, 88, 87, 91, 92
22, 90, 89, 93, 94, 92, 91, 95, 96
23, 94, 93, 97, 98, 96, 95, 99, 100
24, 98, 97, 101, 102, 100, 99, 103, 104
*Nset, nset=ALL_NODES, generate
1, 104, 1
*Nset, nset=PRIMARY_ALL, generate
1, 52, 1
*Nset, nset=SECONDARY_ALL, generate
53, 104, 1
*Surface, type=ELEMENT, name=PRIMARY_CONTACT
PRIMARY, S4
*Surface, type=ELEMENT, name=SECONDARY_CONTACT
SECONDARY, S6
*Material, name=THERMOELASTIC
*Elastic
1.0000000000000000e9, 0.0
*Expansion, zero=3.0000000000000000e2
0.0
*Conductivity
1.0000000000000000e1
*Density
1.0
*Specific Heat
1.0
*Solid Section, elset=PRIMARY, material=THERMOELASTIC
,
*Solid Section, elset=SECONDARY, material=THERMOELASTIC
,
*Surface Interaction, name=CONTACT
*Surface Behavior, pressure-overclosure=LINEAR
1.0000000000000000e7
*Friction
1.0000000000000001e-1
*Gap Conductance, pressure
0.0000000000000000e0, 0.0000000000000000e0
2.0000000000000000e2, 2.0000000000000000e5
*Contact Pair, interaction=CONTACT, type=SURFACE TO SURFACE, adjust=0.
SECONDARY_CONTACT, PRIMARY_CONTACT
*Initial Conditions, type=TEMPERATURE
PRIMARY_ALL, 3.0000000000000000e2
SECONDARY_ALL, 4.0000000000000000e2
*Step, name=LOAD, nlgeom=YES, inc=20
*Coupled Temperature-Displacement, steady state
1.0, 1.0, 1.0e-8, 1.0
*Boundary, op=NEW
1, 1, 3, 0.0
1, 11, 11, 3.0000000000000000e2
2, 1, 3, 0.0
2, 11, 11, 3.0000000000000000e2
3, 1, 3, 0.0
3, 11, 11, 3.0000000000000000e2
4, 1, 3, 0.0
4, 11, 11, 3.0000000000000000e2
5, 1, 3, 0.0
5, 11, 11, 3.0000000000000000e2
6, 1, 3, 0.0
6, 11, 11, 3.0000000000000000e2
7, 1, 3, 0.0
7, 11, 11, 3.0000000000000000e2
8, 1, 3, 0.0
8, 11, 11, 3.0000000000000000e2
9, 1, 3, 0.0
9, 11, 11, 3.0000000000000000e2
10, 1, 3, 0.0
10, 11, 11, 3.0000000000000000e2
11, 1, 3, 0.0
11, 11, 11, 3.0000000000000000e2
12, 1, 3, 0.0
12, 11, 11, 3.0000000000000000e2
13, 1, 3, 0.0
13, 11, 11, 3.0000000000000000e2
14, 1, 3, 0.0
14, 11, 11, 3.0000000000000000e2
15, 1, 3, 0.0
15, 11, 11, 3.0000000000000000e2
16, 1, 3, 0.0
16, 11, 11, 3.0000000000000000e2
17, 1, 3, 0.0
17, 11, 11, 3.0000000000000000e2
18, 1, 3, 0.0
18, 11, 11, 3.0000000000000000e2
19, 1, 3, 0.0
19, 11, 11, 3.0000000000000000e2
20, 1, 3, 0.0
20, 11, 11, 3.0000000000000000e2
21, 1, 3, 0.0
21, 11, 11, 3.0000000000000000e2
22, 1, 3, 0.0
22, 11, 11, 3.0000000000000000e2
23, 1, 3, 0.0
23, 11, 11, 3.0000000000000000e2
24, 1, 3, 0.0
24, 11, 11, 3.0000000000000000e2
25, 1, 3, 0.0
25, 11, 11, 3.0000000000000000e2
26, 1, 3, 0.0
26, 11, 11, 3.0000000000000000e2
27, 1, 3, 0.0
27, 11, 11, 3.0000000000000000e2
28, 1, 3, 0.0
28, 11, 11, 3.0000000000000000e2
29, 1, 3, 0.0
29, 11, 11, 3.0000000000000000e2
30, 1, 3, 0.0
30, 11, 11, 3.0000000000000000e2
31, 1, 3, 0.0
31, 11, 11, 3.0000000000000000e2
32, 1, 3, 0.0
32, 11, 11, 3.0000000000000000e2
33, 1, 3, 0.0
33, 11, 11, 3.0000000000000000e2
34, 1, 3, 0.0
34, 11, 11, 3.0000000000000000e2
35, 1, 3, 0.0
35, 11, 11, 3.0000000000000000e2
36, 1, 3, 0.0
36, 11, 11, 3.0000000000000000e2
37, 1, 3, 0.0
37, 11, 11, 3.0000000000000000e2
38, 1, 3, 0.0
38, 11, 11, 3.0000000000000000e2
39, 1, 3, 0.0
39, 11, 11, 3.0000000000000000e2
40, 1, 3, 0.0
40, 11, 11, 3.0000000000000000e2
41, 1, 3, 0.0
41, 11, 11, 3.0000000000000000e2
42, 1, 3, 0.0
42, 11, 11, 3.0000000000000000e2
43, 1, 3, 0.0
43, 11, 11, 3.0000000000000000e2
44, 1, 3, 0.0
44, 11, 11, 3.0000000000000000e2
45, 1, 3, 0.0
45, 11, 11, 3.0000000000000000e2
46, 1, 3, 0.0
46, 11, 11, 3.0000000000000000e2
47, 1, 3, 0.0
47, 11, 11, 3.0000000000000000e2
48, 1, 3, 0.0
48, 11, 11, 3.0000000000000000e2
49, 1, 3, 0.0
49, 11, 11, 3.0000000000000000e2
50, 1, 3, 0.0
50, 11, 11, 3.0000000000000000e2
51, 1, 3, 0.0
51, 11, 11, 3.0000000000000000e2
52, 1, 3, 0.0
52, 11, 11, 3.0000000000000000e2
53, 1, 1, -1.4999999999999999e-02
53, 2, 2, -0.0000000000000000e+00
53, 3, 3, 0.0000000000000000e+00
53, 11, 11, 4.0000000000000000e2
54, 1, 1, -1.4999999999999999e-02
54, 2, 2, -0.0000000000000000e+00
54, 3, 3, 0.0000000000000000e+00
54, 11, 11, 4.0000000000000000e2
55, 1, 1, -1.4871672920607159e-02
55, 2, 2, -1.9578928833007738e-03
55, 3, 3, 0.0000000000000000e+00
55, 11, 11, 4.0000000000000000e2
56, 1, 1, -1.4871672920607155e-02
56, 2, 2, -1.9578928833007734e-03
56, 3, 3, 0.0000000000000000e+00
56, 11, 11, 4.0000000000000000e2
57, 1, 1, -1.4999999999999999e-02
57, 2, 2, -0.0000000000000000e+00
57, 3, 3, 0.0000000000000000e+00
57, 11, 11, 4.0000000000000000e2
58, 1, 1, -1.4999999999999999e-02
58, 2, 2, -0.0000000000000000e+00
58, 3, 3, 0.0000000000000000e+00
58, 11, 11, 4.0000000000000000e2
59, 1, 1, -1.4871672920607159e-02
59, 2, 2, -1.9578928833007738e-03
59, 3, 3, 0.0000000000000000e+00
59, 11, 11, 4.0000000000000000e2
60, 1, 1, -1.4871672920607155e-02
60, 2, 2, -1.9578928833007734e-03
60, 3, 3, 0.0000000000000000e+00
60, 11, 11, 4.0000000000000000e2
61, 1, 1, -1.4488887394336025e-02
61, 2, 2, -3.8822856765378115e-03
61, 3, 3, 0.0000000000000000e+00
61, 11, 11, 4.0000000000000000e2
62, 1, 1, -1.4488887394336025e-02
62, 2, 2, -3.8822856765378115e-03
62, 3, 3, 0.0000000000000000e+00
62, 11, 11, 4.0000000000000000e2
63, 1, 1, -1.4488887394336025e-02
63, 2, 2, -3.8822856765378115e-03
63, 3, 3, 0.0000000000000000e+00
63, 11, 11, 4.0000000000000000e2
64, 1, 1, -1.4488887394336025e-02
64, 2, 2, -3.8822856765378115e-03
64, 3, 3, 0.0000000000000000e+00
64, 11, 11, 4.0000000000000000e2
65, 1, 1, -1.3858192987669302e-02
65, 2, 2, -5.7402514854763467e-03
65, 3, 3, 0.0000000000000000e+00
65, 11, 11, 4.0000000000000000e2
66, 1, 1, -1.3858192987669301e-02
66, 2, 2, -5.7402514854763467e-03
66, 3, 3, 0.0000000000000000e+00
66, 11, 11, 4.0000000000000000e2
67, 1, 1, -1.3858192987669302e-02
67, 2, 2, -5.7402514854763467e-03
67, 3, 3, 0.0000000000000000e+00
67, 11, 11, 4.0000000000000000e2
68, 1, 1, -1.3858192987669301e-02
68, 2, 2, -5.7402514854763467e-03
68, 3, 3, 0.0000000000000000e+00
68, 11, 11, 4.0000000000000000e2
69, 1, 1, -1.2990381056766580e-02
69, 2, 2, -7.4999999999999980e-03
69, 3, 3, 0.0000000000000000e+00
69, 11, 11, 4.0000000000000000e2
70, 1, 1, -1.2990381056766580e-02
70, 2, 2, -7.4999999999999980e-03
70, 3, 3, 0.0000000000000000e+00
70, 11, 11, 4.0000000000000000e2
71, 1, 1, -1.2990381056766580e-02
71, 2, 2, -7.4999999999999980e-03
71, 3, 3, 0.0000000000000000e+00
71, 11, 11, 4.0000000000000000e2
72, 1, 1, -1.2990381056766580e-02
72, 2, 2, -7.4999999999999980e-03
72, 3, 3, 0.0000000000000000e+00
72, 11, 11, 4.0000000000000000e2
73, 1, 1, -1.1900300104368527e-02
73, 2, 2, -9.1314214351308105e-03
73, 3, 3, 0.0000000000000000e+00
73, 11, 11, 4.0000000000000000e2
74, 1, 1, -1.1900300104368529e-02
74, 2, 2, -9.1314214351308088e-03
74, 3, 3, 0.0000000000000000e+00
74, 11, 11, 4.0000000000000000e2
75, 1, 1, -1.1900300104368527e-02
75, 2, 2, -9.1314214351308105e-03
75, 3, 3, 0.0000000000000000e+00
75, 11, 11, 4.0000000000000000e2
76, 1, 1, -1.1900300104368529e-02
76, 2, 2, -9.1314214351308088e-03
76, 3, 3, 0.0000000000000000e+00
76, 11, 11, 4.0000000000000000e2
77, 1, 1, -1.0606601717798213e-02
77, 2, 2, -1.0606601717798212e-02
77, 3, 3, 0.0000000000000000e+00
77, 11, 11, 4.0000000000000000e2
78, 1, 1, -1.0606601717798213e-02
78, 2, 2, -1.0606601717798212e-02
78, 3, 3, 0.0000000000000000e+00
78, 11, 11, 4.0000000000000000e2
79, 1, 1, -1.0606601717798213e-02
79, 2, 2, -1.0606601717798212e-02
79, 3, 3, 0.0000000000000000e+00
79, 11, 11, 4.0000000000000000e2
80, 1, 1, -1.0606601717798213e-02
80, 2, 2, -1.0606601717798212e-02
80, 3, 3, 0.0000000000000000e+00
80, 11, 11, 4.0000000000000000e2
81, 1, 1, -9.1314214351308105e-03
81, 2, 2, -1.1900300104368527e-02
81, 3, 3, 0.0000000000000000e+00
81, 11, 11, 4.0000000000000000e2
82, 1, 1, -9.1314214351308088e-03
82, 2, 2, -1.1900300104368529e-02
82, 3, 3, 0.0000000000000000e+00
82, 11, 11, 4.0000000000000000e2
83, 1, 1, -9.1314214351308105e-03
83, 2, 2, -1.1900300104368527e-02
83, 3, 3, 0.0000000000000000e+00
83, 11, 11, 4.0000000000000000e2
84, 1, 1, -9.1314214351308088e-03
84, 2, 2, -1.1900300104368529e-02
84, 3, 3, 0.0000000000000000e+00
84, 11, 11, 4.0000000000000000e2
85, 1, 1, -7.5000000000000015e-03
85, 2, 2, -1.2990381056766580e-02
85, 3, 3, 0.0000000000000000e+00
85, 11, 11, 4.0000000000000000e2
86, 1, 1, -7.5000000000000015e-03
86, 2, 2, -1.2990381056766578e-02
86, 3, 3, 0.0000000000000000e+00
86, 11, 11, 4.0000000000000000e2
87, 1, 1, -7.5000000000000015e-03
87, 2, 2, -1.2990381056766580e-02
87, 3, 3, 0.0000000000000000e+00
87, 11, 11, 4.0000000000000000e2
88, 1, 1, -7.5000000000000015e-03
88, 2, 2, -1.2990381056766578e-02
88, 3, 3, 0.0000000000000000e+00
88, 11, 11, 4.0000000000000000e2
89, 1, 1, -5.7402514854763475e-03
89, 2, 2, -1.3858192987669302e-02
89, 3, 3, 0.0000000000000000e+00
89, 11, 11, 4.0000000000000000e2
90, 1, 1, -5.7402514854763475e-03
90, 2, 2, -1.3858192987669301e-02
90, 3, 3, 0.0000000000000000e+00
90, 11, 11, 4.0000000000000000e2
91, 1, 1, -5.7402514854763475e-03
91, 2, 2, -1.3858192987669302e-02
91, 3, 3, 0.0000000000000000e+00
91, 11, 11, 4.0000000000000000e2
92, 1, 1, -5.7402514854763475e-03
92, 2, 2, -1.3858192987669301e-02
92, 3, 3, 0.0000000000000000e+00
92, 11, 11, 4.0000000000000000e2
93, 1, 1, -3.8822856765378115e-03
93, 2, 2, -1.4488887394336025e-02
93, 3, 3, 0.0000000000000000e+00
93, 11, 11, 4.0000000000000000e2
94, 1, 1, -3.8822856765378115e-03
94, 2, 2, -1.4488887394336025e-02
94, 3, 3, 0.0000000000000000e+00
94, 11, 11, 4.0000000000000000e2
95, 1, 1, -3.8822856765378115e-03
95, 2, 2, -1.4488887394336025e-02
95, 3, 3, 0.0000000000000000e+00
95, 11, 11, 4.0000000000000000e2
96, 1, 1, -3.8822856765378115e-03
96, 2, 2, -1.4488887394336025e-02
96, 3, 3, 0.0000000000000000e+00
96, 11, 11, 4.0000000000000000e2
97, 1, 1, -1.9578928833007755e-03
97, 2, 2, -1.4871672920607155e-02
97, 3, 3, 0.0000000000000000e+00
97, 11, 11, 4.0000000000000000e2
98, 1, 1, -1.9578928833007755e-03
98, 2, 2, -1.4871672920607155e-02
98, 3, 3, 0.0000000000000000e+00
98, 11, 11, 4.0000000000000000e2
99, 1, 1, -1.9578928833007755e-03
99, 2, 2, -1.4871672920607155e-02
99, 3, 3, 0.0000000000000000e+00
99, 11, 11, 4.0000000000000000e2
100, 1, 1, -1.9578928833007755e-03
100, 2, 2, -1.4871672920607155e-02
100, 3, 3, 0.0000000000000000e+00
100, 11, 11, 4.0000000000000000e2
101, 1, 1, -9.1848509936051480e-19
101, 2, 2, -1.4999999999999999e-02
101, 3, 3, 0.0000000000000000e+00
101, 11, 11, 4.0000000000000000e2
102, 1, 1, -9.1848509936051480e-19
102, 2, 2, -1.4999999999999999e-02
102, 3, 3, 0.0000000000000000e+00
102, 11, 11, 4.0000000000000000e2
103, 1, 1, -9.1848509936051480e-19
103, 2, 2, -1.4999999999999999e-02
103, 3, 3, 0.0000000000000000e+00
103, 11, 11, 4.0000000000000000e2
104, 1, 1, -9.1848509936051480e-19
104, 2, 2, -1.4999999999999999e-02
104, 3, 3, 0.0000000000000000e+00
104, 11, 11, 4.0000000000000000e2
*Output, field, frequency=1
*Node Output
COORD, NT, RF, RFL, U
*Contact Output
CSTRESS, CDISP, CFORCE, HFL
*End Step
