*Heading
** B5.28 Abaqus/Standard C3D8RT reduced-integration thermo-mechanical element operator.
** SI units: metre, kelvin, newton, pascal, watt.
*Preprint, echo=NO, model=NO, history=NO, contact=NO
*Node
1, 0.0000000000000000e+00, 0.0000000000000000e+00, 0.0000000000000000e+00
2, 1.0000000000000000e+00, 0.0000000000000000e+00, 0.0000000000000000e+00
3, 1.0000000000000000e+00, 1.0000000000000000e+00, 0.0000000000000000e+00
4, 0.0000000000000000e+00, 1.0000000000000000e+00, 0.0000000000000000e+00
5, 0.0000000000000000e+00, 0.0000000000000000e+00, 1.0000000000000000e+00
6, 1.0000000000000000e+00, 0.0000000000000000e+00, 1.0000000000000000e+00
7, 1.0000000000000000e+00, 1.0000000000000000e+00, 1.0000000000000000e+00
8, 0.0000000000000000e+00, 1.0000000000000000e+00, 1.0000000000000000e+00
*Element, type=C3D8RT, elset=VOLUME
1, 1, 2, 3, 4, 5, 6, 7, 8
*Nset, nset=ALL_NODES, generate
1, 8, 1
*Material, name=THERMOELASTIC
*Elastic
2.0000000000000000e11, 2.5000000000000000e-1
*Expansion, zero=3.0000000000000000e2
1.2000000000000000e-5
*Conductivity
4.0000000000000000e0
*Density
2.0000000000000000e3
*Specific Heat
3.0000000000000000e3
*Solid Section, elset=VOLUME, material=THERMOELASTIC
,
*Initial Conditions, type=TEMPERATURE
ALL_NODES, 3.0000000000000000e2
*Step, name=BASE, nlgeom=NO, inc=20
*Coupled Temperature-Displacement, steady state
1.0, 1.0, 1.0e-8, 1.0
*Boundary, op=NEW
1, 11, 11, 3.6000000000000000e+02
1, 1, 1, 0.0000000000000000e+00
1, 2, 2, 0.0000000000000000e+00
1, 3, 3, 0.0000000000000000e+00
2, 11, 11, 4.1000000000000000e+02
2, 1, 1, 1.2000000000000000e-04
2, 2, 2, -2.0000000000000002e-05
2, 3, 3, 3.0000000000000001e-05
3, 11, 11, 4.4500000000000000e+02
3, 1, 1, 1.7000000000000001e-04
3, 2, 2, 9.0000000000000006e-05
3, 3, 3, -4.0000000000000003e-05
4, 11, 11, 3.8500000000000000e+02
4, 1, 1, -4.0000000000000003e-05
4, 2, 2, 1.1000000000000000e-04
4, 3, 3, 2.0000000000000002e-05
5, 11, 11, 4.7000000000000000e+02
5, 1, 1, 3.0000000000000001e-05
5, 2, 2, -5.0000000000000002e-05
5, 3, 3, 1.3999999999999999e-04
6, 11, 11, 4.3000000000000000e+02
6, 1, 1, 1.0000000000000000e-04
6, 2, 2, 4.0000000000000003e-05
6, 3, 3, 1.0000000000000000e-04
7, 11, 11, 5.1500000000000000e+02
7, 1, 1, 2.3000000000000001e-04
7, 2, 2, 1.6000000000000001e-04
7, 3, 3, 1.8000000000000001e-04
8, 11, 11, 4.5500000000000000e+02
8, 1, 1, -8.0000000000000007e-05
8, 2, 2, 6.9999999999999994e-05
8, 3, 3, 1.1000000000000000e-04
*Output, field, frequency=1
*Node Output
COORD, NT, RF, RFL, U
*Element Output, directions=YES
COORD, E, HFL, S, TEMP
*End Step
*Step, name=D00_PLUS, nlgeom=NO, inc=20
*Coupled Temperature-Displacement, steady state
1.0, 1.0, 1.0e-8, 1.0
*Boundary, op=NEW
1, 11, 11, 3.6000099999999998e+02
1, 1, 1, 0.0000000000000000e+00
1, 2, 2, 0.0000000000000000e+00
1, 3, 3, 0.0000000000000000e+00
2, 11, 11, 4.1000000000000000e+02
2, 1, 1, 1.2000000000000000e-04
2, 2, 2, -2.0000000000000002e-05
2, 3, 3, 3.0000000000000001e-05
3, 11, 11, 4.4500000000000000e+02
3, 1, 1, 1.7000000000000001e-04
3, 2, 2, 9.0000000000000006e-05
3, 3, 3, -4.0000000000000003e-05
4, 11, 11, 3.8500000000000000e+02
4, 1, 1, -4.0000000000000003e-05
4, 2, 2, 1.1000000000000000e-04
4, 3, 3, 2.0000000000000002e-05
5, 11, 11, 4.7000000000000000e+02
5, 1, 1, 3.0000000000000001e-05
5, 2, 2, -5.0000000000000002e-05
5, 3, 3, 1.3999999999999999e-04
6, 11, 11, 4.3000000000000000e+02
6, 1, 1, 1.0000000000000000e-04
6, 2, 2, 4.0000000000000003e-05
6, 3, 3, 1.0000000000000000e-04
7, 11, 11, 5.1500000000000000e+02
7, 1, 1, 2.3000000000000001e-04
7, 2, 2, 1.6000000000000001e-04
7, 3, 3, 1.8000000000000001e-04
8, 11, 11, 4.5500000000000000e+02
8, 1, 1, -8.0000000000000007e-05
8, 2, 2, 6.9999999999999994e-05
8, 3, 3, 1.1000000000000000e-04
*End Step
*Step, name=D00_MINUS, nlgeom=NO, inc=20
*Coupled Temperature-Displacement, steady state
1.0, 1.0, 1.0e-8, 1.0
*Boundary, op=NEW
1, 11, 11, 3.5999900000000002e+02
1, 1, 1, 0.0000000000000000e+00
1, 2, 2, 0.0000000000000000e+00
1, 3, 3, 0.0000000000000000e+00
2, 11, 11, 4.1000000000000000e+02
2, 1, 1, 1.2000000000000000e-04
2, 2, 2, -2.0000000000000002e-05
2, 3, 3, 3.0000000000000001e-05
3, 11, 11, 4.4500000000000000e+02
3, 1, 1, 1.7000000000000001e-04
3, 2, 2, 9.0000000000000006e-05
3, 3, 3, -4.0000000000000003e-05
4, 11, 11, 3.8500000000000000e+02
4, 1, 1, -4.0000000000000003e-05
4, 2, 2, 1.1000000000000000e-04
4, 3, 3, 2.0000000000000002e-05
5, 11, 11, 4.7000000000000000e+02
5, 1, 1, 3.0000000000000001e-05
5, 2, 2, -5.0000000000000002e-05
5, 3, 3, 1.3999999999999999e-04
6, 11, 11, 4.3000000000000000e+02
6, 1, 1, 1.0000000000000000e-04
6, 2, 2, 4.0000000000000003e-05
6, 3, 3, 1.0000000000000000e-04
7, 11, 11, 5.1500000000000000e+02
7, 1, 1, 2.3000000000000001e-04
7, 2, 2, 1.6000000000000001e-04
7, 3, 3, 1.8000000000000001e-04
8, 11, 11, 4.5500000000000000e+02
8, 1, 1, -8.0000000000000007e-05
8, 2, 2, 6.9999999999999994e-05
8, 3, 3, 1.1000000000000000e-04
*End Step
*Step, name=D01_PLUS, nlgeom=NO, inc=20
*Coupled Temperature-Displacement, steady state
1.0, 1.0, 1.0e-8, 1.0
*Boundary, op=NEW
1, 11, 11, 3.6000000000000000e+02
1, 1, 1, 0.0000000000000000e+00
1, 2, 2, 0.0000000000000000e+00
1, 3, 3, 0.0000000000000000e+00
2, 11, 11, 4.1000099999999998e+02
2, 1, 1, 1.2000000000000000e-04
2, 2, 2, -2.0000000000000002e-05
2, 3, 3, 3.0000000000000001e-05
3, 11, 11, 4.4500000000000000e+02
3, 1, 1, 1.7000000000000001e-04
3, 2, 2, 9.0000000000000006e-05
3, 3, 3, -4.0000000000000003e-05
4, 11, 11, 3.8500000000000000e+02
4, 1, 1, -4.0000000000000003e-05
4, 2, 2, 1.1000000000000000e-04
4, 3, 3, 2.0000000000000002e-05
5, 11, 11, 4.7000000000000000e+02
5, 1, 1, 3.0000000000000001e-05
5, 2, 2, -5.0000000000000002e-05
5, 3, 3, 1.3999999999999999e-04
6, 11, 11, 4.3000000000000000e+02
6, 1, 1, 1.0000000000000000e-04
6, 2, 2, 4.0000000000000003e-05
6, 3, 3, 1.0000000000000000e-04
7, 11, 11, 5.1500000000000000e+02
7, 1, 1, 2.3000000000000001e-04
7, 2, 2, 1.6000000000000001e-04
7, 3, 3, 1.8000000000000001e-04
8, 11, 11, 4.5500000000000000e+02
8, 1, 1, -8.0000000000000007e-05
8, 2, 2, 6.9999999999999994e-05
8, 3, 3, 1.1000000000000000e-04
*End Step
*Step, name=D01_MINUS, nlgeom=NO, inc=20
*Coupled Temperature-Displacement, steady state
1.0, 1.0, 1.0e-8, 1.0
*Boundary, op=NEW
1, 11, 11, 3.6000000000000000e+02
1, 1, 1, 0.0000000000000000e+00
1, 2, 2, 0.0000000000000000e+00
1, 3, 3, 0.0000000000000000e+00
2, 11, 11, 4.0999900000000002e+02
2, 1, 1, 1.2000000000000000e-04
2, 2, 2, -2.0000000000000002e-05
2, 3, 3, 3.0000000000000001e-05
3, 11, 11, 4.4500000000000000e+02
3, 1, 1, 1.7000000000000001e-04
3, 2, 2, 9.0000000000000006e-05
3, 3, 3, -4.0000000000000003e-05
4, 11, 11, 3.8500000000000000e+02
4, 1, 1, -4.0000000000000003e-05
4, 2, 2, 1.1000000000000000e-04
4, 3, 3, 2.0000000000000002e-05
5, 11, 11, 4.7000000000000000e+02
5, 1, 1, 3.0000000000000001e-05
5, 2, 2, -5.0000000000000002e-05
5, 3, 3, 1.3999999999999999e-04
6, 11, 11, 4.3000000000000000e+02
6, 1, 1, 1.0000000000000000e-04
6, 2, 2, 4.0000000000000003e-05
6, 3, 3, 1.0000000000000000e-04
7, 11, 11, 5.1500000000000000e+02
7, 1, 1, 2.3000000000000001e-04
7, 2, 2, 1.6000000000000001e-04
7, 3, 3, 1.8000000000000001e-04
8, 11, 11, 4.5500000000000000e+02
8, 1, 1, -8.0000000000000007e-05
8, 2, 2, 6.9999999999999994e-05
8, 3, 3, 1.1000000000000000e-04
*End Step
*Step, name=D02_PLUS, nlgeom=NO, inc=20
*Coupled Temperature-Displacement, steady state
1.0, 1.0, 1.0e-8, 1.0
*Boundary, op=NEW
1, 11, 11, 3.6000000000000000e+02
1, 1, 1, 0.0000000000000000e+00
1, 2, 2, 0.0000000000000000e+00
1, 3, 3, 0.0000000000000000e+00
2, 11, 11, 4.1000000000000000e+02
2, 1, 1, 1.2000000000000000e-04
2, 2, 2, -2.0000000000000002e-05
2, 3, 3, 3.0000000000000001e-05
3, 11, 11, 4.4500099999999998e+02
3, 1, 1, 1.7000000000000001e-04
3, 2, 2, 9.0000000000000006e-05
3, 3, 3, -4.0000000000000003e-05
4, 11, 11, 3.8500000000000000e+02
4, 1, 1, -4.0000000000000003e-05
4, 2, 2, 1.1000000000000000e-04
4, 3, 3, 2.0000000000000002e-05
5, 11, 11, 4.7000000000000000e+02
5, 1, 1, 3.0000000000000001e-05
5, 2, 2, -5.0000000000000002e-05
5, 3, 3, 1.3999999999999999e-04
6, 11, 11, 4.3000000000000000e+02
6, 1, 1, 1.0000000000000000e-04
6, 2, 2, 4.0000000000000003e-05
6, 3, 3, 1.0000000000000000e-04
7, 11, 11, 5.1500000000000000e+02
7, 1, 1, 2.3000000000000001e-04
7, 2, 2, 1.6000000000000001e-04
7, 3, 3, 1.8000000000000001e-04
8, 11, 11, 4.5500000000000000e+02
8, 1, 1, -8.0000000000000007e-05
8, 2, 2, 6.9999999999999994e-05
8, 3, 3, 1.1000000000000000e-04
*End Step
*Step, name=D02_MINUS, nlgeom=NO, inc=20
*Coupled Temperature-Displacement, steady state
1.0, 1.0, 1.0e-8, 1.0
*Boundary, op=NEW
1, 11, 11, 3.6000000000000000e+02
1, 1, 1, 0.0000000000000000e+00
1, 2, 2, 0.0000000000000000e+00
1, 3, 3, 0.0000000000000000e+00
2, 11, 11, 4.1000000000000000e+02
2, 1, 1, 1.2000000000000000e-04
2, 2, 2, -2.0000000000000002e-05
2, 3, 3, 3.0000000000000001e-05
3, 11, 11, 4.4499900000000002e+02
3, 1, 1, 1.7000000000000001e-04
3, 2, 2, 9.0000000000000006e-05
3, 3, 3, -4.0000000000000003e-05
4, 11, 11, 3.8500000000000000e+02
4, 1, 1, -4.0000000000000003e-05
4, 2, 2, 1.1000000000000000e-04
4, 3, 3, 2.0000000000000002e-05
5, 11, 11, 4.7000000000000000e+02
5, 1, 1, 3.0000000000000001e-05
5, 2, 2, -5.0000000000000002e-05
5, 3, 3, 1.3999999999999999e-04
6, 11, 11, 4.3000000000000000e+02
6, 1, 1, 1.0000000000000000e-04
6, 2, 2, 4.0000000000000003e-05
6, 3, 3, 1.0000000000000000e-04
7, 11, 11, 5.1500000000000000e+02
7, 1, 1, 2.3000000000000001e-04
7, 2, 2, 1.6000000000000001e-04
7, 3, 3, 1.8000000000000001e-04
8, 11, 11, 4.5500000000000000e+02
8, 1, 1, -8.0000000000000007e-05
8, 2, 2, 6.9999999999999994e-05
8, 3, 3, 1.1000000000000000e-04
*End Step
*Step, name=D03_PLUS, nlgeom=NO, inc=20
*Coupled Temperature-Displacement, steady state
1.0, 1.0, 1.0e-8, 1.0
*Boundary, op=NEW
1, 11, 11, 3.6000000000000000e+02
1, 1, 1, 0.0000000000000000e+00
1, 2, 2, 0.0000000000000000e+00
1, 3, 3, 0.0000000000000000e+00
2, 11, 11, 4.1000000000000000e+02
2, 1, 1, 1.2000000000000000e-04
2, 2, 2, -2.0000000000000002e-05
2, 3, 3, 3.0000000000000001e-05
3, 11, 11, 4.4500000000000000e+02
3, 1, 1, 1.7000000000000001e-04
3, 2, 2, 9.0000000000000006e-05
3, 3, 3, -4.0000000000000003e-05
4, 11, 11, 3.8500099999999998e+02
4, 1, 1, -4.0000000000000003e-05
4, 2, 2, 1.1000000000000000e-04
4, 3, 3, 2.0000000000000002e-05
5, 11, 11, 4.7000000000000000e+02
5, 1, 1, 3.0000000000000001e-05
5, 2, 2, -5.0000000000000002e-05
5, 3, 3, 1.3999999999999999e-04
6, 11, 11, 4.3000000000000000e+02
6, 1, 1, 1.0000000000000000e-04
6, 2, 2, 4.0000000000000003e-05
6, 3, 3, 1.0000000000000000e-04
7, 11, 11, 5.1500000000000000e+02
7, 1, 1, 2.3000000000000001e-04
7, 2, 2, 1.6000000000000001e-04
7, 3, 3, 1.8000000000000001e-04
8, 11, 11, 4.5500000000000000e+02
8, 1, 1, -8.0000000000000007e-05
8, 2, 2, 6.9999999999999994e-05
8, 3, 3, 1.1000000000000000e-04
*End Step
*Step, name=D03_MINUS, nlgeom=NO, inc=20
*Coupled Temperature-Displacement, steady state
1.0, 1.0, 1.0e-8, 1.0
*Boundary, op=NEW
1, 11, 11, 3.6000000000000000e+02
1, 1, 1, 0.0000000000000000e+00
1, 2, 2, 0.0000000000000000e+00
1, 3, 3, 0.0000000000000000e+00
2, 11, 11, 4.1000000000000000e+02
2, 1, 1, 1.2000000000000000e-04
2, 2, 2, -2.0000000000000002e-05
2, 3, 3, 3.0000000000000001e-05
3, 11, 11, 4.4500000000000000e+02
3, 1, 1, 1.7000000000000001e-04
3, 2, 2, 9.0000000000000006e-05
3, 3, 3, -4.0000000000000003e-05
4, 11, 11, 3.8499900000000002e+02
4, 1, 1, -4.0000000000000003e-05
4, 2, 2, 1.1000000000000000e-04
4, 3, 3, 2.0000000000000002e-05
5, 11, 11, 4.7000000000000000e+02
5, 1, 1, 3.0000000000000001e-05
5, 2, 2, -5.0000000000000002e-05
5, 3, 3, 1.3999999999999999e-04
6, 11, 11, 4.3000000000000000e+02
6, 1, 1, 1.0000000000000000e-04
6, 2, 2, 4.0000000000000003e-05
6, 3, 3, 1.0000000000000000e-04
7, 11, 11, 5.1500000000000000e+02
7, 1, 1, 2.3000000000000001e-04
7, 2, 2, 1.6000000000000001e-04
7, 3, 3, 1.8000000000000001e-04
8, 11, 11, 4.5500000000000000e+02
8, 1, 1, -8.0000000000000007e-05
8, 2, 2, 6.9999999999999994e-05
8, 3, 3, 1.1000000000000000e-04
*End Step
*Step, name=D04_PLUS, nlgeom=NO, inc=20
*Coupled Temperature-Displacement, steady state
1.0, 1.0, 1.0e-8, 1.0
*Boundary, op=NEW
1, 11, 11, 3.6000000000000000e+02
1, 1, 1, 0.0000000000000000e+00
1, 2, 2, 0.0000000000000000e+00
1, 3, 3, 0.0000000000000000e+00
2, 11, 11, 4.1000000000000000e+02
2, 1, 1, 1.2000000000000000e-04
2, 2, 2, -2.0000000000000002e-05
2, 3, 3, 3.0000000000000001e-05
3, 11, 11, 4.4500000000000000e+02
3, 1, 1, 1.7000000000000001e-04
3, 2, 2, 9.0000000000000006e-05
3, 3, 3, -4.0000000000000003e-05
4, 11, 11, 3.8500000000000000e+02
4, 1, 1, -4.0000000000000003e-05
4, 2, 2, 1.1000000000000000e-04
4, 3, 3, 2.0000000000000002e-05
5, 11, 11, 4.7000099999999998e+02
5, 1, 1, 3.0000000000000001e-05
5, 2, 2, -5.0000000000000002e-05
5, 3, 3, 1.3999999999999999e-04
6, 11, 11, 4.3000000000000000e+02
6, 1, 1, 1.0000000000000000e-04
6, 2, 2, 4.0000000000000003e-05
6, 3, 3, 1.0000000000000000e-04
7, 11, 11, 5.1500000000000000e+02
7, 1, 1, 2.3000000000000001e-04
7, 2, 2, 1.6000000000000001e-04
7, 3, 3, 1.8000000000000001e-04
8, 11, 11, 4.5500000000000000e+02
8, 1, 1, -8.0000000000000007e-05
8, 2, 2, 6.9999999999999994e-05
8, 3, 3, 1.1000000000000000e-04
*End Step
*Step, name=D04_MINUS, nlgeom=NO, inc=20
*Coupled Temperature-Displacement, steady state
1.0, 1.0, 1.0e-8, 1.0
*Boundary, op=NEW
1, 11, 11, 3.6000000000000000e+02
1, 1, 1, 0.0000000000000000e+00
1, 2, 2, 0.0000000000000000e+00
1, 3, 3, 0.0000000000000000e+00
2, 11, 11, 4.1000000000000000e+02
2, 1, 1, 1.2000000000000000e-04
2, 2, 2, -2.0000000000000002e-05
2, 3, 3, 3.0000000000000001e-05
3, 11, 11, 4.4500000000000000e+02
3, 1, 1, 1.7000000000000001e-04
3, 2, 2, 9.0000000000000006e-05
3, 3, 3, -4.0000000000000003e-05
4, 11, 11, 3.8500000000000000e+02
4, 1, 1, -4.0000000000000003e-05
4, 2, 2, 1.1000000000000000e-04
4, 3, 3, 2.0000000000000002e-05
5, 11, 11, 4.6999900000000002e+02
5, 1, 1, 3.0000000000000001e-05
5, 2, 2, -5.0000000000000002e-05
5, 3, 3, 1.3999999999999999e-04
6, 11, 11, 4.3000000000000000e+02
6, 1, 1, 1.0000000000000000e-04
6, 2, 2, 4.0000000000000003e-05
6, 3, 3, 1.0000000000000000e-04
7, 11, 11, 5.1500000000000000e+02
7, 1, 1, 2.3000000000000001e-04
7, 2, 2, 1.6000000000000001e-04
7, 3, 3, 1.8000000000000001e-04
8, 11, 11, 4.5500000000000000e+02
8, 1, 1, -8.0000000000000007e-05
8, 2, 2, 6.9999999999999994e-05
8, 3, 3, 1.1000000000000000e-04
*End Step
*Step, name=D05_PLUS, nlgeom=NO, inc=20
*Coupled Temperature-Displacement, steady state
1.0, 1.0, 1.0e-8, 1.0
*Boundary, op=NEW
1, 11, 11, 3.6000000000000000e+02
1, 1, 1, 0.0000000000000000e+00
1, 2, 2, 0.0000000000000000e+00
1, 3, 3, 0.0000000000000000e+00
2, 11, 11, 4.1000000000000000e+02
2, 1, 1, 1.2000000000000000e-04
2, 2, 2, -2.0000000000000002e-05
2, 3, 3, 3.0000000000000001e-05
3, 11, 11, 4.4500000000000000e+02
3, 1, 1, 1.7000000000000001e-04
3, 2, 2, 9.0000000000000006e-05
3, 3, 3, -4.0000000000000003e-05
4, 11, 11, 3.8500000000000000e+02
4, 1, 1, -4.0000000000000003e-05
4, 2, 2, 1.1000000000000000e-04
4, 3, 3, 2.0000000000000002e-05
5, 11, 11, 4.7000000000000000e+02
5, 1, 1, 3.0000000000000001e-05
5, 2, 2, -5.0000000000000002e-05
5, 3, 3, 1.3999999999999999e-04
6, 11, 11, 4.3000099999999998e+02
6, 1, 1, 1.0000000000000000e-04
6, 2, 2, 4.0000000000000003e-05
6, 3, 3, 1.0000000000000000e-04
7, 11, 11, 5.1500000000000000e+02
7, 1, 1, 2.3000000000000001e-04
7, 2, 2, 1.6000000000000001e-04
7, 3, 3, 1.8000000000000001e-04
8, 11, 11, 4.5500000000000000e+02
8, 1, 1, -8.0000000000000007e-05
8, 2, 2, 6.9999999999999994e-05
8, 3, 3, 1.1000000000000000e-04
*End Step
*Step, name=D05_MINUS, nlgeom=NO, inc=20
*Coupled Temperature-Displacement, steady state
1.0, 1.0, 1.0e-8, 1.0
*Boundary, op=NEW
1, 11, 11, 3.6000000000000000e+02
1, 1, 1, 0.0000000000000000e+00
1, 2, 2, 0.0000000000000000e+00
1, 3, 3, 0.0000000000000000e+00
2, 11, 11, 4.1000000000000000e+02
2, 1, 1, 1.2000000000000000e-04
2, 2, 2, -2.0000000000000002e-05
2, 3, 3, 3.0000000000000001e-05
3, 11, 11, 4.4500000000000000e+02
3, 1, 1, 1.7000000000000001e-04
3, 2, 2, 9.0000000000000006e-05
3, 3, 3, -4.0000000000000003e-05
4, 11, 11, 3.8500000000000000e+02
4, 1, 1, -4.0000000000000003e-05
4, 2, 2, 1.1000000000000000e-04
4, 3, 3, 2.0000000000000002e-05
5, 11, 11, 4.7000000000000000e+02
5, 1, 1, 3.0000000000000001e-05
5, 2, 2, -5.0000000000000002e-05
5, 3, 3, 1.3999999999999999e-04
6, 11, 11, 4.2999900000000002e+02
6, 1, 1, 1.0000000000000000e-04
6, 2, 2, 4.0000000000000003e-05
6, 3, 3, 1.0000000000000000e-04
7, 11, 11, 5.1500000000000000e+02
7, 1, 1, 2.3000000000000001e-04
7, 2, 2, 1.6000000000000001e-04
7, 3, 3, 1.8000000000000001e-04
8, 11, 11, 4.5500000000000000e+02
8, 1, 1, -8.0000000000000007e-05
8, 2, 2, 6.9999999999999994e-05
8, 3, 3, 1.1000000000000000e-04
*End Step
*Step, name=D06_PLUS, nlgeom=NO, inc=20
*Coupled Temperature-Displacement, steady state
1.0, 1.0, 1.0e-8, 1.0
*Boundary, op=NEW
1, 11, 11, 3.6000000000000000e+02
1, 1, 1, 0.0000000000000000e+00
1, 2, 2, 0.0000000000000000e+00
1, 3, 3, 0.0000000000000000e+00
2, 11, 11, 4.1000000000000000e+02
2, 1, 1, 1.2000000000000000e-04
2, 2, 2, -2.0000000000000002e-05
2, 3, 3, 3.0000000000000001e-05
3, 11, 11, 4.4500000000000000e+02
3, 1, 1, 1.7000000000000001e-04
3, 2, 2, 9.0000000000000006e-05
3, 3, 3, -4.0000000000000003e-05
4, 11, 11, 3.8500000000000000e+02
4, 1, 1, -4.0000000000000003e-05
4, 2, 2, 1.1000000000000000e-04
4, 3, 3, 2.0000000000000002e-05
5, 11, 11, 4.7000000000000000e+02
5, 1, 1, 3.0000000000000001e-05
5, 2, 2, -5.0000000000000002e-05
5, 3, 3, 1.3999999999999999e-04
6, 11, 11, 4.3000000000000000e+02
6, 1, 1, 1.0000000000000000e-04
6, 2, 2, 4.0000000000000003e-05
6, 3, 3, 1.0000000000000000e-04
7, 11, 11, 5.1500099999999998e+02
7, 1, 1, 2.3000000000000001e-04
7, 2, 2, 1.6000000000000001e-04
7, 3, 3, 1.8000000000000001e-04
8, 11, 11, 4.5500000000000000e+02
8, 1, 1, -8.0000000000000007e-05
8, 2, 2, 6.9999999999999994e-05
8, 3, 3, 1.1000000000000000e-04
*End Step
*Step, name=D06_MINUS, nlgeom=NO, inc=20
*Coupled Temperature-Displacement, steady state
1.0, 1.0, 1.0e-8, 1.0
*Boundary, op=NEW
1, 11, 11, 3.6000000000000000e+02
1, 1, 1, 0.0000000000000000e+00
1, 2, 2, 0.0000000000000000e+00
1, 3, 3, 0.0000000000000000e+00
2, 11, 11, 4.1000000000000000e+02
2, 1, 1, 1.2000000000000000e-04
2, 2, 2, -2.0000000000000002e-05
2, 3, 3, 3.0000000000000001e-05
3, 11, 11, 4.4500000000000000e+02
3, 1, 1, 1.7000000000000001e-04
3, 2, 2, 9.0000000000000006e-05
3, 3, 3, -4.0000000000000003e-05
4, 11, 11, 3.8500000000000000e+02
4, 1, 1, -4.0000000000000003e-05
4, 2, 2, 1.1000000000000000e-04
4, 3, 3, 2.0000000000000002e-05
5, 11, 11, 4.7000000000000000e+02
5, 1, 1, 3.0000000000000001e-05
5, 2, 2, -5.0000000000000002e-05
5, 3, 3, 1.3999999999999999e-04
6, 11, 11, 4.3000000000000000e+02
6, 1, 1, 1.0000000000000000e-04
6, 2, 2, 4.0000000000000003e-05
6, 3, 3, 1.0000000000000000e-04
7, 11, 11, 5.1499900000000002e+02
7, 1, 1, 2.3000000000000001e-04
7, 2, 2, 1.6000000000000001e-04
7, 3, 3, 1.8000000000000001e-04
8, 11, 11, 4.5500000000000000e+02
8, 1, 1, -8.0000000000000007e-05
8, 2, 2, 6.9999999999999994e-05
8, 3, 3, 1.1000000000000000e-04
*End Step
*Step, name=D07_PLUS, nlgeom=NO, inc=20
*Coupled Temperature-Displacement, steady state
1.0, 1.0, 1.0e-8, 1.0
*Boundary, op=NEW
1, 11, 11, 3.6000000000000000e+02
1, 1, 1, 0.0000000000000000e+00
1, 2, 2, 0.0000000000000000e+00
1, 3, 3, 0.0000000000000000e+00
2, 11, 11, 4.1000000000000000e+02
2, 1, 1, 1.2000000000000000e-04
2, 2, 2, -2.0000000000000002e-05
2, 3, 3, 3.0000000000000001e-05
3, 11, 11, 4.4500000000000000e+02
3, 1, 1, 1.7000000000000001e-04
3, 2, 2, 9.0000000000000006e-05
3, 3, 3, -4.0000000000000003e-05
4, 11, 11, 3.8500000000000000e+02
4, 1, 1, -4.0000000000000003e-05
4, 2, 2, 1.1000000000000000e-04
4, 3, 3, 2.0000000000000002e-05
5, 11, 11, 4.7000000000000000e+02
5, 1, 1, 3.0000000000000001e-05
5, 2, 2, -5.0000000000000002e-05
5, 3, 3, 1.3999999999999999e-04
6, 11, 11, 4.3000000000000000e+02
6, 1, 1, 1.0000000000000000e-04
6, 2, 2, 4.0000000000000003e-05
6, 3, 3, 1.0000000000000000e-04
7, 11, 11, 5.1500000000000000e+02
7, 1, 1, 2.3000000000000001e-04
7, 2, 2, 1.6000000000000001e-04
7, 3, 3, 1.8000000000000001e-04
8, 11, 11, 4.5500099999999998e+02
8, 1, 1, -8.0000000000000007e-05
8, 2, 2, 6.9999999999999994e-05
8, 3, 3, 1.1000000000000000e-04
*End Step
*Step, name=D07_MINUS, nlgeom=NO, inc=20
*Coupled Temperature-Displacement, steady state
1.0, 1.0, 1.0e-8, 1.0
*Boundary, op=NEW
1, 11, 11, 3.6000000000000000e+02
1, 1, 1, 0.0000000000000000e+00
1, 2, 2, 0.0000000000000000e+00
1, 3, 3, 0.0000000000000000e+00
2, 11, 11, 4.1000000000000000e+02
2, 1, 1, 1.2000000000000000e-04
2, 2, 2, -2.0000000000000002e-05
2, 3, 3, 3.0000000000000001e-05
3, 11, 11, 4.4500000000000000e+02
3, 1, 1, 1.7000000000000001e-04
3, 2, 2, 9.0000000000000006e-05
3, 3, 3, -4.0000000000000003e-05
4, 11, 11, 3.8500000000000000e+02
4, 1, 1, -4.0000000000000003e-05
4, 2, 2, 1.1000000000000000e-04
4, 3, 3, 2.0000000000000002e-05
5, 11, 11, 4.7000000000000000e+02
5, 1, 1, 3.0000000000000001e-05
5, 2, 2, -5.0000000000000002e-05
5, 3, 3, 1.3999999999999999e-04
6, 11, 11, 4.3000000000000000e+02
6, 1, 1, 1.0000000000000000e-04
6, 2, 2, 4.0000000000000003e-05
6, 3, 3, 1.0000000000000000e-04
7, 11, 11, 5.1500000000000000e+02
7, 1, 1, 2.3000000000000001e-04
7, 2, 2, 1.6000000000000001e-04
7, 3, 3, 1.8000000000000001e-04
8, 11, 11, 4.5499900000000002e+02
8, 1, 1, -8.0000000000000007e-05
8, 2, 2, 6.9999999999999994e-05
8, 3, 3, 1.1000000000000000e-04
*End Step
*Step, name=D08_PLUS, nlgeom=NO, inc=20
*Coupled Temperature-Displacement, steady state
1.0, 1.0, 1.0e-8, 1.0
*Boundary, op=NEW
1, 11, 11, 3.6000000000000000e+02
1, 1, 1, 9.9999999999999995e-08
1, 2, 2, 0.0000000000000000e+00
1, 3, 3, 0.0000000000000000e+00
2, 11, 11, 4.1000000000000000e+02
2, 1, 1, 1.2000000000000000e-04
2, 2, 2, -2.0000000000000002e-05
2, 3, 3, 3.0000000000000001e-05
3, 11, 11, 4.4500000000000000e+02
3, 1, 1, 1.7000000000000001e-04
3, 2, 2, 9.0000000000000006e-05
3, 3, 3, -4.0000000000000003e-05
4, 11, 11, 3.8500000000000000e+02
4, 1, 1, -4.0000000000000003e-05
4, 2, 2, 1.1000000000000000e-04
4, 3, 3, 2.0000000000000002e-05
5, 11, 11, 4.7000000000000000e+02
5, 1, 1, 3.0000000000000001e-05
5, 2, 2, -5.0000000000000002e-05
5, 3, 3, 1.3999999999999999e-04
6, 11, 11, 4.3000000000000000e+02
6, 1, 1, 1.0000000000000000e-04
6, 2, 2, 4.0000000000000003e-05
6, 3, 3, 1.0000000000000000e-04
7, 11, 11, 5.1500000000000000e+02
7, 1, 1, 2.3000000000000001e-04
7, 2, 2, 1.6000000000000001e-04
7, 3, 3, 1.8000000000000001e-04
8, 11, 11, 4.5500000000000000e+02
8, 1, 1, -8.0000000000000007e-05
8, 2, 2, 6.9999999999999994e-05
8, 3, 3, 1.1000000000000000e-04
*End Step
*Step, name=D08_MINUS, nlgeom=NO, inc=20
*Coupled Temperature-Displacement, steady state
1.0, 1.0, 1.0e-8, 1.0
*Boundary, op=NEW
1, 11, 11, 3.6000000000000000e+02
1, 1, 1, -9.9999999999999995e-08
1, 2, 2, 0.0000000000000000e+00
1, 3, 3, 0.0000000000000000e+00
2, 11, 11, 4.1000000000000000e+02
2, 1, 1, 1.2000000000000000e-04
2, 2, 2, -2.0000000000000002e-05
2, 3, 3, 3.0000000000000001e-05
3, 11, 11, 4.4500000000000000e+02
3, 1, 1, 1.7000000000000001e-04
3, 2, 2, 9.0000000000000006e-05
3, 3, 3, -4.0000000000000003e-05
4, 11, 11, 3.8500000000000000e+02
4, 1, 1, -4.0000000000000003e-05
4, 2, 2, 1.1000000000000000e-04
4, 3, 3, 2.0000000000000002e-05
5, 11, 11, 4.7000000000000000e+02
5, 1, 1, 3.0000000000000001e-05
5, 2, 2, -5.0000000000000002e-05
5, 3, 3, 1.3999999999999999e-04
6, 11, 11, 4.3000000000000000e+02
6, 1, 1, 1.0000000000000000e-04
6, 2, 2, 4.0000000000000003e-05
6, 3, 3, 1.0000000000000000e-04
7, 11, 11, 5.1500000000000000e+02
7, 1, 1, 2.3000000000000001e-04
7, 2, 2, 1.6000000000000001e-04
7, 3, 3, 1.8000000000000001e-04
8, 11, 11, 4.5500000000000000e+02
8, 1, 1, -8.0000000000000007e-05
8, 2, 2, 6.9999999999999994e-05
8, 3, 3, 1.1000000000000000e-04
*End Step
*Step, name=D09_PLUS, nlgeom=NO, inc=20
*Coupled Temperature-Displacement, steady state
1.0, 1.0, 1.0e-8, 1.0
*Boundary, op=NEW
1, 11, 11, 3.6000000000000000e+02
1, 1, 1, 0.0000000000000000e+00
1, 2, 2, 0.0000000000000000e+00
1, 3, 3, 0.0000000000000000e+00
2, 11, 11, 4.1000000000000000e+02
2, 1, 1, 1.2010000000000001e-04
2, 2, 2, -2.0000000000000002e-05
2, 3, 3, 3.0000000000000001e-05
3, 11, 11, 4.4500000000000000e+02
3, 1, 1, 1.7000000000000001e-04
3, 2, 2, 9.0000000000000006e-05
3, 3, 3, -4.0000000000000003e-05
4, 11, 11, 3.8500000000000000e+02
4, 1, 1, -4.0000000000000003e-05
4, 2, 2, 1.1000000000000000e-04
4, 3, 3, 2.0000000000000002e-05
5, 11, 11, 4.7000000000000000e+02
5, 1, 1, 3.0000000000000001e-05
5, 2, 2, -5.0000000000000002e-05
5, 3, 3, 1.3999999999999999e-04
6, 11, 11, 4.3000000000000000e+02
6, 1, 1, 1.0000000000000000e-04
6, 2, 2, 4.0000000000000003e-05
6, 3, 3, 1.0000000000000000e-04
7, 11, 11, 5.1500000000000000e+02
7, 1, 1, 2.3000000000000001e-04
7, 2, 2, 1.6000000000000001e-04
7, 3, 3, 1.8000000000000001e-04
8, 11, 11, 4.5500000000000000e+02
8, 1, 1, -8.0000000000000007e-05
8, 2, 2, 6.9999999999999994e-05
8, 3, 3, 1.1000000000000000e-04
*End Step
*Step, name=D09_MINUS, nlgeom=NO, inc=20
*Coupled Temperature-Displacement, steady state
1.0, 1.0, 1.0e-8, 1.0
*Boundary, op=NEW
1, 11, 11, 3.6000000000000000e+02
1, 1, 1, 0.0000000000000000e+00
1, 2, 2, 0.0000000000000000e+00
1, 3, 3, 0.0000000000000000e+00
2, 11, 11, 4.1000000000000000e+02
2, 1, 1, 1.1990000000000000e-04
2, 2, 2, -2.0000000000000002e-05
2, 3, 3, 3.0000000000000001e-05
3, 11, 11, 4.4500000000000000e+02
3, 1, 1, 1.7000000000000001e-04
3, 2, 2, 9.0000000000000006e-05
3, 3, 3, -4.0000000000000003e-05
4, 11, 11, 3.8500000000000000e+02
4, 1, 1, -4.0000000000000003e-05
4, 2, 2, 1.1000000000000000e-04
4, 3, 3, 2.0000000000000002e-05
5, 11, 11, 4.7000000000000000e+02
5, 1, 1, 3.0000000000000001e-05
5, 2, 2, -5.0000000000000002e-05
5, 3, 3, 1.3999999999999999e-04
6, 11, 11, 4.3000000000000000e+02
6, 1, 1, 1.0000000000000000e-04
6, 2, 2, 4.0000000000000003e-05
6, 3, 3, 1.0000000000000000e-04
7, 11, 11, 5.1500000000000000e+02
7, 1, 1, 2.3000000000000001e-04
7, 2, 2, 1.6000000000000001e-04
7, 3, 3, 1.8000000000000001e-04
8, 11, 11, 4.5500000000000000e+02
8, 1, 1, -8.0000000000000007e-05
8, 2, 2, 6.9999999999999994e-05
8, 3, 3, 1.1000000000000000e-04
*End Step
*Step, name=D10_PLUS, nlgeom=NO, inc=20
*Coupled Temperature-Displacement, steady state
1.0, 1.0, 1.0e-8, 1.0
*Boundary, op=NEW
1, 11, 11, 3.6000000000000000e+02
1, 1, 1, 0.0000000000000000e+00
1, 2, 2, 0.0000000000000000e+00
1, 3, 3, 0.0000000000000000e+00
2, 11, 11, 4.1000000000000000e+02
2, 1, 1, 1.2000000000000000e-04
2, 2, 2, -2.0000000000000002e-05
2, 3, 3, 3.0000000000000001e-05
3, 11, 11, 4.4500000000000000e+02
3, 1, 1, 1.7010000000000001e-04
3, 2, 2, 9.0000000000000006e-05
3, 3, 3, -4.0000000000000003e-05
4, 11, 11, 3.8500000000000000e+02
4, 1, 1, -4.0000000000000003e-05
4, 2, 2, 1.1000000000000000e-04
4, 3, 3, 2.0000000000000002e-05
5, 11, 11, 4.7000000000000000e+02
5, 1, 1, 3.0000000000000001e-05
5, 2, 2, -5.0000000000000002e-05
5, 3, 3, 1.3999999999999999e-04
6, 11, 11, 4.3000000000000000e+02
6, 1, 1, 1.0000000000000000e-04
6, 2, 2, 4.0000000000000003e-05
6, 3, 3, 1.0000000000000000e-04
7, 11, 11, 5.1500000000000000e+02
7, 1, 1, 2.3000000000000001e-04
7, 2, 2, 1.6000000000000001e-04
7, 3, 3, 1.8000000000000001e-04
8, 11, 11, 4.5500000000000000e+02
8, 1, 1, -8.0000000000000007e-05
8, 2, 2, 6.9999999999999994e-05
8, 3, 3, 1.1000000000000000e-04
*End Step
*Step, name=D10_MINUS, nlgeom=NO, inc=20
*Coupled Temperature-Displacement, steady state
1.0, 1.0, 1.0e-8, 1.0
*Boundary, op=NEW
1, 11, 11, 3.6000000000000000e+02
1, 1, 1, 0.0000000000000000e+00
1, 2, 2, 0.0000000000000000e+00
1, 3, 3, 0.0000000000000000e+00
2, 11, 11, 4.1000000000000000e+02
2, 1, 1, 1.2000000000000000e-04
2, 2, 2, -2.0000000000000002e-05
2, 3, 3, 3.0000000000000001e-05
3, 11, 11, 4.4500000000000000e+02
3, 1, 1, 1.6990000000000001e-04
3, 2, 2, 9.0000000000000006e-05
3, 3, 3, -4.0000000000000003e-05
4, 11, 11, 3.8500000000000000e+02
4, 1, 1, -4.0000000000000003e-05
4, 2, 2, 1.1000000000000000e-04
4, 3, 3, 2.0000000000000002e-05
5, 11, 11, 4.7000000000000000e+02
5, 1, 1, 3.0000000000000001e-05
5, 2, 2, -5.0000000000000002e-05
5, 3, 3, 1.3999999999999999e-04
6, 11, 11, 4.3000000000000000e+02
6, 1, 1, 1.0000000000000000e-04
6, 2, 2, 4.0000000000000003e-05
6, 3, 3, 1.0000000000000000e-04
7, 11, 11, 5.1500000000000000e+02
7, 1, 1, 2.3000000000000001e-04
7, 2, 2, 1.6000000000000001e-04
7, 3, 3, 1.8000000000000001e-04
8, 11, 11, 4.5500000000000000e+02
8, 1, 1, -8.0000000000000007e-05
8, 2, 2, 6.9999999999999994e-05
8, 3, 3, 1.1000000000000000e-04
*End Step
*Step, name=D11_PLUS, nlgeom=NO, inc=20
*Coupled Temperature-Displacement, steady state
1.0, 1.0, 1.0e-8, 1.0
*Boundary, op=NEW
1, 11, 11, 3.6000000000000000e+02
1, 1, 1, 0.0000000000000000e+00
1, 2, 2, 0.0000000000000000e+00
1, 3, 3, 0.0000000000000000e+00
2, 11, 11, 4.1000000000000000e+02
2, 1, 1, 1.2000000000000000e-04
2, 2, 2, -2.0000000000000002e-05
2, 3, 3, 3.0000000000000001e-05
3, 11, 11, 4.4500000000000000e+02
3, 1, 1, 1.7000000000000001e-04
3, 2, 2, 9.0000000000000006e-05
3, 3, 3, -4.0000000000000003e-05
4, 11, 11, 3.8500000000000000e+02
4, 1, 1, -3.9900000000000001e-05
4, 2, 2, 1.1000000000000000e-04
4, 3, 3, 2.0000000000000002e-05
5, 11, 11, 4.7000000000000000e+02
5, 1, 1, 3.0000000000000001e-05
5, 2, 2, -5.0000000000000002e-05
5, 3, 3, 1.3999999999999999e-04
6, 11, 11, 4.3000000000000000e+02
6, 1, 1, 1.0000000000000000e-04
6, 2, 2, 4.0000000000000003e-05
6, 3, 3, 1.0000000000000000e-04
7, 11, 11, 5.1500000000000000e+02
7, 1, 1, 2.3000000000000001e-04
7, 2, 2, 1.6000000000000001e-04
7, 3, 3, 1.8000000000000001e-04
8, 11, 11, 4.5500000000000000e+02
8, 1, 1, -8.0000000000000007e-05
8, 2, 2, 6.9999999999999994e-05
8, 3, 3, 1.1000000000000000e-04
*End Step
*Step, name=D11_MINUS, nlgeom=NO, inc=20
*Coupled Temperature-Displacement, steady state
1.0, 1.0, 1.0e-8, 1.0
*Boundary, op=NEW
1, 11, 11, 3.6000000000000000e+02
1, 1, 1, 0.0000000000000000e+00
1, 2, 2, 0.0000000000000000e+00
1, 3, 3, 0.0000000000000000e+00
2, 11, 11, 4.1000000000000000e+02
2, 1, 1, 1.2000000000000000e-04
2, 2, 2, -2.0000000000000002e-05
2, 3, 3, 3.0000000000000001e-05
3, 11, 11, 4.4500000000000000e+02
3, 1, 1, 1.7000000000000001e-04
3, 2, 2, 9.0000000000000006e-05
3, 3, 3, -4.0000000000000003e-05
4, 11, 11, 3.8500000000000000e+02
4, 1, 1, -4.0100000000000006e-05
4, 2, 2, 1.1000000000000000e-04
4, 3, 3, 2.0000000000000002e-05
5, 11, 11, 4.7000000000000000e+02
5, 1, 1, 3.0000000000000001e-05
5, 2, 2, -5.0000000000000002e-05
5, 3, 3, 1.3999999999999999e-04
6, 11, 11, 4.3000000000000000e+02
6, 1, 1, 1.0000000000000000e-04
6, 2, 2, 4.0000000000000003e-05
6, 3, 3, 1.0000000000000000e-04
7, 11, 11, 5.1500000000000000e+02
7, 1, 1, 2.3000000000000001e-04
7, 2, 2, 1.6000000000000001e-04
7, 3, 3, 1.8000000000000001e-04
8, 11, 11, 4.5500000000000000e+02
8, 1, 1, -8.0000000000000007e-05
8, 2, 2, 6.9999999999999994e-05
8, 3, 3, 1.1000000000000000e-04
*End Step
*Step, name=D12_PLUS, nlgeom=NO, inc=20
*Coupled Temperature-Displacement, steady state
1.0, 1.0, 1.0e-8, 1.0
*Boundary, op=NEW
1, 11, 11, 3.6000000000000000e+02
1, 1, 1, 0.0000000000000000e+00
1, 2, 2, 0.0000000000000000e+00
1, 3, 3, 0.0000000000000000e+00
2, 11, 11, 4.1000000000000000e+02
2, 1, 1, 1.2000000000000000e-04
2, 2, 2, -2.0000000000000002e-05
2, 3, 3, 3.0000000000000001e-05
3, 11, 11, 4.4500000000000000e+02
3, 1, 1, 1.7000000000000001e-04
3, 2, 2, 9.0000000000000006e-05
3, 3, 3, -4.0000000000000003e-05
4, 11, 11, 3.8500000000000000e+02
4, 1, 1, -4.0000000000000003e-05
4, 2, 2, 1.1000000000000000e-04
4, 3, 3, 2.0000000000000002e-05
5, 11, 11, 4.7000000000000000e+02
5, 1, 1, 3.0100000000000000e-05
5, 2, 2, -5.0000000000000002e-05
5, 3, 3, 1.3999999999999999e-04
6, 11, 11, 4.3000000000000000e+02
6, 1, 1, 1.0000000000000000e-04
6, 2, 2, 4.0000000000000003e-05
6, 3, 3, 1.0000000000000000e-04
7, 11, 11, 5.1500000000000000e+02
7, 1, 1, 2.3000000000000001e-04
7, 2, 2, 1.6000000000000001e-04
7, 3, 3, 1.8000000000000001e-04
8, 11, 11, 4.5500000000000000e+02
8, 1, 1, -8.0000000000000007e-05
8, 2, 2, 6.9999999999999994e-05
8, 3, 3, 1.1000000000000000e-04
*End Step
*Step, name=D12_MINUS, nlgeom=NO, inc=20
*Coupled Temperature-Displacement, steady state
1.0, 1.0, 1.0e-8, 1.0
*Boundary, op=NEW
1, 11, 11, 3.6000000000000000e+02
1, 1, 1, 0.0000000000000000e+00
1, 2, 2, 0.0000000000000000e+00
1, 3, 3, 0.0000000000000000e+00
2, 11, 11, 4.1000000000000000e+02
2, 1, 1, 1.2000000000000000e-04
2, 2, 2, -2.0000000000000002e-05
2, 3, 3, 3.0000000000000001e-05
3, 11, 11, 4.4500000000000000e+02
3, 1, 1, 1.7000000000000001e-04
3, 2, 2, 9.0000000000000006e-05
3, 3, 3, -4.0000000000000003e-05
4, 11, 11, 3.8500000000000000e+02
4, 1, 1, -4.0000000000000003e-05
4, 2, 2, 1.1000000000000000e-04
4, 3, 3, 2.0000000000000002e-05
5, 11, 11, 4.7000000000000000e+02
5, 1, 1, 2.9900000000000002e-05
5, 2, 2, -5.0000000000000002e-05
5, 3, 3, 1.3999999999999999e-04
6, 11, 11, 4.3000000000000000e+02
6, 1, 1, 1.0000000000000000e-04
6, 2, 2, 4.0000000000000003e-05
6, 3, 3, 1.0000000000000000e-04
7, 11, 11, 5.1500000000000000e+02
7, 1, 1, 2.3000000000000001e-04
7, 2, 2, 1.6000000000000001e-04
7, 3, 3, 1.8000000000000001e-04
8, 11, 11, 4.5500000000000000e+02
8, 1, 1, -8.0000000000000007e-05
8, 2, 2, 6.9999999999999994e-05
8, 3, 3, 1.1000000000000000e-04
*End Step
*Step, name=D13_PLUS, nlgeom=NO, inc=20
*Coupled Temperature-Displacement, steady state
1.0, 1.0, 1.0e-8, 1.0
*Boundary, op=NEW
1, 11, 11, 3.6000000000000000e+02
1, 1, 1, 0.0000000000000000e+00
1, 2, 2, 0.0000000000000000e+00
1, 3, 3, 0.0000000000000000e+00
2, 11, 11, 4.1000000000000000e+02
2, 1, 1, 1.2000000000000000e-04
2, 2, 2, -2.0000000000000002e-05
2, 3, 3, 3.0000000000000001e-05
3, 11, 11, 4.4500000000000000e+02
3, 1, 1, 1.7000000000000001e-04
3, 2, 2, 9.0000000000000006e-05
3, 3, 3, -4.0000000000000003e-05
4, 11, 11, 3.8500000000000000e+02
4, 1, 1, -4.0000000000000003e-05
4, 2, 2, 1.1000000000000000e-04
4, 3, 3, 2.0000000000000002e-05
5, 11, 11, 4.7000000000000000e+02
5, 1, 1, 3.0000000000000001e-05
5, 2, 2, -5.0000000000000002e-05
5, 3, 3, 1.3999999999999999e-04
6, 11, 11, 4.3000000000000000e+02
6, 1, 1, 1.0010000000000001e-04
6, 2, 2, 4.0000000000000003e-05
6, 3, 3, 1.0000000000000000e-04
7, 11, 11, 5.1500000000000000e+02
7, 1, 1, 2.3000000000000001e-04
7, 2, 2, 1.6000000000000001e-04
7, 3, 3, 1.8000000000000001e-04
8, 11, 11, 4.5500000000000000e+02
8, 1, 1, -8.0000000000000007e-05
8, 2, 2, 6.9999999999999994e-05
8, 3, 3, 1.1000000000000000e-04
*End Step
*Step, name=D13_MINUS, nlgeom=NO, inc=20
*Coupled Temperature-Displacement, steady state
1.0, 1.0, 1.0e-8, 1.0
*Boundary, op=NEW
1, 11, 11, 3.6000000000000000e+02
1, 1, 1, 0.0000000000000000e+00
1, 2, 2, 0.0000000000000000e+00
1, 3, 3, 0.0000000000000000e+00
2, 11, 11, 4.1000000000000000e+02
2, 1, 1, 1.2000000000000000e-04
2, 2, 2, -2.0000000000000002e-05
2, 3, 3, 3.0000000000000001e-05
3, 11, 11, 4.4500000000000000e+02
3, 1, 1, 1.7000000000000001e-04
3, 2, 2, 9.0000000000000006e-05
3, 3, 3, -4.0000000000000003e-05
4, 11, 11, 3.8500000000000000e+02
4, 1, 1, -4.0000000000000003e-05
4, 2, 2, 1.1000000000000000e-04
4, 3, 3, 2.0000000000000002e-05
5, 11, 11, 4.7000000000000000e+02
5, 1, 1, 3.0000000000000001e-05
5, 2, 2, -5.0000000000000002e-05
5, 3, 3, 1.3999999999999999e-04
6, 11, 11, 4.3000000000000000e+02
6, 1, 1, 9.9900000000000002e-05
6, 2, 2, 4.0000000000000003e-05
6, 3, 3, 1.0000000000000000e-04
7, 11, 11, 5.1500000000000000e+02
7, 1, 1, 2.3000000000000001e-04
7, 2, 2, 1.6000000000000001e-04
7, 3, 3, 1.8000000000000001e-04
8, 11, 11, 4.5500000000000000e+02
8, 1, 1, -8.0000000000000007e-05
8, 2, 2, 6.9999999999999994e-05
8, 3, 3, 1.1000000000000000e-04
*End Step
*Step, name=D14_PLUS, nlgeom=NO, inc=20
*Coupled Temperature-Displacement, steady state
1.0, 1.0, 1.0e-8, 1.0
*Boundary, op=NEW
1, 11, 11, 3.6000000000000000e+02
1, 1, 1, 0.0000000000000000e+00
1, 2, 2, 0.0000000000000000e+00
1, 3, 3, 0.0000000000000000e+00
2, 11, 11, 4.1000000000000000e+02
2, 1, 1, 1.2000000000000000e-04
2, 2, 2, -2.0000000000000002e-05
2, 3, 3, 3.0000000000000001e-05
3, 11, 11, 4.4500000000000000e+02
3, 1, 1, 1.7000000000000001e-04
3, 2, 2, 9.0000000000000006e-05
3, 3, 3, -4.0000000000000003e-05
4, 11, 11, 3.8500000000000000e+02
4, 1, 1, -4.0000000000000003e-05
4, 2, 2, 1.1000000000000000e-04
4, 3, 3, 2.0000000000000002e-05
5, 11, 11, 4.7000000000000000e+02
5, 1, 1, 3.0000000000000001e-05
5, 2, 2, -5.0000000000000002e-05
5, 3, 3, 1.3999999999999999e-04
6, 11, 11, 4.3000000000000000e+02
6, 1, 1, 1.0000000000000000e-04
6, 2, 2, 4.0000000000000003e-05
6, 3, 3, 1.0000000000000000e-04
7, 11, 11, 5.1500000000000000e+02
7, 1, 1, 2.3010000000000001e-04
7, 2, 2, 1.6000000000000001e-04
7, 3, 3, 1.8000000000000001e-04
8, 11, 11, 4.5500000000000000e+02
8, 1, 1, -8.0000000000000007e-05
8, 2, 2, 6.9999999999999994e-05
8, 3, 3, 1.1000000000000000e-04
*End Step
*Step, name=D14_MINUS, nlgeom=NO, inc=20
*Coupled Temperature-Displacement, steady state
1.0, 1.0, 1.0e-8, 1.0
*Boundary, op=NEW
1, 11, 11, 3.6000000000000000e+02
1, 1, 1, 0.0000000000000000e+00
1, 2, 2, 0.0000000000000000e+00
1, 3, 3, 0.0000000000000000e+00
2, 11, 11, 4.1000000000000000e+02
2, 1, 1, 1.2000000000000000e-04
2, 2, 2, -2.0000000000000002e-05
2, 3, 3, 3.0000000000000001e-05
3, 11, 11, 4.4500000000000000e+02
3, 1, 1, 1.7000000000000001e-04
3, 2, 2, 9.0000000000000006e-05
3, 3, 3, -4.0000000000000003e-05
4, 11, 11, 3.8500000000000000e+02
4, 1, 1, -4.0000000000000003e-05
4, 2, 2, 1.1000000000000000e-04
4, 3, 3, 2.0000000000000002e-05
5, 11, 11, 4.7000000000000000e+02
5, 1, 1, 3.0000000000000001e-05
5, 2, 2, -5.0000000000000002e-05
5, 3, 3, 1.3999999999999999e-04
6, 11, 11, 4.3000000000000000e+02
6, 1, 1, 1.0000000000000000e-04
6, 2, 2, 4.0000000000000003e-05
6, 3, 3, 1.0000000000000000e-04
7, 11, 11, 5.1500000000000000e+02
7, 1, 1, 2.2990000000000000e-04
7, 2, 2, 1.6000000000000001e-04
7, 3, 3, 1.8000000000000001e-04
8, 11, 11, 4.5500000000000000e+02
8, 1, 1, -8.0000000000000007e-05
8, 2, 2, 6.9999999999999994e-05
8, 3, 3, 1.1000000000000000e-04
*End Step
*Step, name=D15_PLUS, nlgeom=NO, inc=20
*Coupled Temperature-Displacement, steady state
1.0, 1.0, 1.0e-8, 1.0
*Boundary, op=NEW
1, 11, 11, 3.6000000000000000e+02
1, 1, 1, 0.0000000000000000e+00
1, 2, 2, 0.0000000000000000e+00
1, 3, 3, 0.0000000000000000e+00
2, 11, 11, 4.1000000000000000e+02
2, 1, 1, 1.2000000000000000e-04
2, 2, 2, -2.0000000000000002e-05
2, 3, 3, 3.0000000000000001e-05
3, 11, 11, 4.4500000000000000e+02
3, 1, 1, 1.7000000000000001e-04
3, 2, 2, 9.0000000000000006e-05
3, 3, 3, -4.0000000000000003e-05
4, 11, 11, 3.8500000000000000e+02
4, 1, 1, -4.0000000000000003e-05
4, 2, 2, 1.1000000000000000e-04
4, 3, 3, 2.0000000000000002e-05
5, 11, 11, 4.7000000000000000e+02
5, 1, 1, 3.0000000000000001e-05
5, 2, 2, -5.0000000000000002e-05
5, 3, 3, 1.3999999999999999e-04
6, 11, 11, 4.3000000000000000e+02
6, 1, 1, 1.0000000000000000e-04
6, 2, 2, 4.0000000000000003e-05
6, 3, 3, 1.0000000000000000e-04
7, 11, 11, 5.1500000000000000e+02
7, 1, 1, 2.3000000000000001e-04
7, 2, 2, 1.6000000000000001e-04
7, 3, 3, 1.8000000000000001e-04
8, 11, 11, 4.5500000000000000e+02
8, 1, 1, -7.9900000000000004e-05
8, 2, 2, 6.9999999999999994e-05
8, 3, 3, 1.1000000000000000e-04
*End Step
*Step, name=D15_MINUS, nlgeom=NO, inc=20
*Coupled Temperature-Displacement, steady state
1.0, 1.0, 1.0e-8, 1.0
*Boundary, op=NEW
1, 11, 11, 3.6000000000000000e+02
1, 1, 1, 0.0000000000000000e+00
1, 2, 2, 0.0000000000000000e+00
1, 3, 3, 0.0000000000000000e+00
2, 11, 11, 4.1000000000000000e+02
2, 1, 1, 1.2000000000000000e-04
2, 2, 2, -2.0000000000000002e-05
2, 3, 3, 3.0000000000000001e-05
3, 11, 11, 4.4500000000000000e+02
3, 1, 1, 1.7000000000000001e-04
3, 2, 2, 9.0000000000000006e-05
3, 3, 3, -4.0000000000000003e-05
4, 11, 11, 3.8500000000000000e+02
4, 1, 1, -4.0000000000000003e-05
4, 2, 2, 1.1000000000000000e-04
4, 3, 3, 2.0000000000000002e-05
5, 11, 11, 4.7000000000000000e+02
5, 1, 1, 3.0000000000000001e-05
5, 2, 2, -5.0000000000000002e-05
5, 3, 3, 1.3999999999999999e-04
6, 11, 11, 4.3000000000000000e+02
6, 1, 1, 1.0000000000000000e-04
6, 2, 2, 4.0000000000000003e-05
6, 3, 3, 1.0000000000000000e-04
7, 11, 11, 5.1500000000000000e+02
7, 1, 1, 2.3000000000000001e-04
7, 2, 2, 1.6000000000000001e-04
7, 3, 3, 1.8000000000000001e-04
8, 11, 11, 4.5500000000000000e+02
8, 1, 1, -8.0100000000000009e-05
8, 2, 2, 6.9999999999999994e-05
8, 3, 3, 1.1000000000000000e-04
*End Step
*Step, name=D16_PLUS, nlgeom=NO, inc=20
*Coupled Temperature-Displacement, steady state
1.0, 1.0, 1.0e-8, 1.0
*Boundary, op=NEW
1, 11, 11, 3.6000000000000000e+02
1, 1, 1, 0.0000000000000000e+00
1, 2, 2, 9.9999999999999995e-08
1, 3, 3, 0.0000000000000000e+00
2, 11, 11, 4.1000000000000000e+02
2, 1, 1, 1.2000000000000000e-04
2, 2, 2, -2.0000000000000002e-05
2, 3, 3, 3.0000000000000001e-05
3, 11, 11, 4.4500000000000000e+02
3, 1, 1, 1.7000000000000001e-04
3, 2, 2, 9.0000000000000006e-05
3, 3, 3, -4.0000000000000003e-05
4, 11, 11, 3.8500000000000000e+02
4, 1, 1, -4.0000000000000003e-05
4, 2, 2, 1.1000000000000000e-04
4, 3, 3, 2.0000000000000002e-05
5, 11, 11, 4.7000000000000000e+02
5, 1, 1, 3.0000000000000001e-05
5, 2, 2, -5.0000000000000002e-05
5, 3, 3, 1.3999999999999999e-04
6, 11, 11, 4.3000000000000000e+02
6, 1, 1, 1.0000000000000000e-04
6, 2, 2, 4.0000000000000003e-05
6, 3, 3, 1.0000000000000000e-04
7, 11, 11, 5.1500000000000000e+02
7, 1, 1, 2.3000000000000001e-04
7, 2, 2, 1.6000000000000001e-04
7, 3, 3, 1.8000000000000001e-04
8, 11, 11, 4.5500000000000000e+02
8, 1, 1, -8.0000000000000007e-05
8, 2, 2, 6.9999999999999994e-05
8, 3, 3, 1.1000000000000000e-04
*End Step
*Step, name=D16_MINUS, nlgeom=NO, inc=20
*Coupled Temperature-Displacement, steady state
1.0, 1.0, 1.0e-8, 1.0
*Boundary, op=NEW
1, 11, 11, 3.6000000000000000e+02
1, 1, 1, 0.0000000000000000e+00
1, 2, 2, -9.9999999999999995e-08
1, 3, 3, 0.0000000000000000e+00
2, 11, 11, 4.1000000000000000e+02
2, 1, 1, 1.2000000000000000e-04
2, 2, 2, -2.0000000000000002e-05
2, 3, 3, 3.0000000000000001e-05
3, 11, 11, 4.4500000000000000e+02
3, 1, 1, 1.7000000000000001e-04
3, 2, 2, 9.0000000000000006e-05
3, 3, 3, -4.0000000000000003e-05
4, 11, 11, 3.8500000000000000e+02
4, 1, 1, -4.0000000000000003e-05
4, 2, 2, 1.1000000000000000e-04
4, 3, 3, 2.0000000000000002e-05
5, 11, 11, 4.7000000000000000e+02
5, 1, 1, 3.0000000000000001e-05
5, 2, 2, -5.0000000000000002e-05
5, 3, 3, 1.3999999999999999e-04
6, 11, 11, 4.3000000000000000e+02
6, 1, 1, 1.0000000000000000e-04
6, 2, 2, 4.0000000000000003e-05
6, 3, 3, 1.0000000000000000e-04
7, 11, 11, 5.1500000000000000e+02
7, 1, 1, 2.3000000000000001e-04
7, 2, 2, 1.6000000000000001e-04
7, 3, 3, 1.8000000000000001e-04
8, 11, 11, 4.5500000000000000e+02
8, 1, 1, -8.0000000000000007e-05
8, 2, 2, 6.9999999999999994e-05
8, 3, 3, 1.1000000000000000e-04
*End Step
*Step, name=D17_PLUS, nlgeom=NO, inc=20
*Coupled Temperature-Displacement, steady state
1.0, 1.0, 1.0e-8, 1.0
*Boundary, op=NEW
1, 11, 11, 3.6000000000000000e+02
1, 1, 1, 0.0000000000000000e+00
1, 2, 2, 0.0000000000000000e+00
1, 3, 3, 0.0000000000000000e+00
2, 11, 11, 4.1000000000000000e+02
2, 1, 1, 1.2000000000000000e-04
2, 2, 2, -1.9900000000000003e-05
2, 3, 3, 3.0000000000000001e-05
3, 11, 11, 4.4500000000000000e+02
3, 1, 1, 1.7000000000000001e-04
3, 2, 2, 9.0000000000000006e-05
3, 3, 3, -4.0000000000000003e-05
4, 11, 11, 3.8500000000000000e+02
4, 1, 1, -4.0000000000000003e-05
4, 2, 2, 1.1000000000000000e-04
4, 3, 3, 2.0000000000000002e-05
5, 11, 11, 4.7000000000000000e+02
5, 1, 1, 3.0000000000000001e-05
5, 2, 2, -5.0000000000000002e-05
5, 3, 3, 1.3999999999999999e-04
6, 11, 11, 4.3000000000000000e+02
6, 1, 1, 1.0000000000000000e-04
6, 2, 2, 4.0000000000000003e-05
6, 3, 3, 1.0000000000000000e-04
7, 11, 11, 5.1500000000000000e+02
7, 1, 1, 2.3000000000000001e-04
7, 2, 2, 1.6000000000000001e-04
7, 3, 3, 1.8000000000000001e-04
8, 11, 11, 4.5500000000000000e+02
8, 1, 1, -8.0000000000000007e-05
8, 2, 2, 6.9999999999999994e-05
8, 3, 3, 1.1000000000000000e-04
*End Step
*Step, name=D17_MINUS, nlgeom=NO, inc=20
*Coupled Temperature-Displacement, steady state
1.0, 1.0, 1.0e-8, 1.0
*Boundary, op=NEW
1, 11, 11, 3.6000000000000000e+02
1, 1, 1, 0.0000000000000000e+00
1, 2, 2, 0.0000000000000000e+00
1, 3, 3, 0.0000000000000000e+00
2, 11, 11, 4.1000000000000000e+02
2, 1, 1, 1.2000000000000000e-04
2, 2, 2, -2.0100000000000001e-05
2, 3, 3, 3.0000000000000001e-05
3, 11, 11, 4.4500000000000000e+02
3, 1, 1, 1.7000000000000001e-04
3, 2, 2, 9.0000000000000006e-05
3, 3, 3, -4.0000000000000003e-05
4, 11, 11, 3.8500000000000000e+02
4, 1, 1, -4.0000000000000003e-05
4, 2, 2, 1.1000000000000000e-04
4, 3, 3, 2.0000000000000002e-05
5, 11, 11, 4.7000000000000000e+02
5, 1, 1, 3.0000000000000001e-05
5, 2, 2, -5.0000000000000002e-05
5, 3, 3, 1.3999999999999999e-04
6, 11, 11, 4.3000000000000000e+02
6, 1, 1, 1.0000000000000000e-04
6, 2, 2, 4.0000000000000003e-05
6, 3, 3, 1.0000000000000000e-04
7, 11, 11, 5.1500000000000000e+02
7, 1, 1, 2.3000000000000001e-04
7, 2, 2, 1.6000000000000001e-04
7, 3, 3, 1.8000000000000001e-04
8, 11, 11, 4.5500000000000000e+02
8, 1, 1, -8.0000000000000007e-05
8, 2, 2, 6.9999999999999994e-05
8, 3, 3, 1.1000000000000000e-04
*End Step
*Step, name=D18_PLUS, nlgeom=NO, inc=20
*Coupled Temperature-Displacement, steady state
1.0, 1.0, 1.0e-8, 1.0
*Boundary, op=NEW
1, 11, 11, 3.6000000000000000e+02
1, 1, 1, 0.0000000000000000e+00
1, 2, 2, 0.0000000000000000e+00
1, 3, 3, 0.0000000000000000e+00
2, 11, 11, 4.1000000000000000e+02
2, 1, 1, 1.2000000000000000e-04
2, 2, 2, -2.0000000000000002e-05
2, 3, 3, 3.0000000000000001e-05
3, 11, 11, 4.4500000000000000e+02
3, 1, 1, 1.7000000000000001e-04
3, 2, 2, 9.0100000000000008e-05
3, 3, 3, -4.0000000000000003e-05
4, 11, 11, 3.8500000000000000e+02
4, 1, 1, -4.0000000000000003e-05
4, 2, 2, 1.1000000000000000e-04
4, 3, 3, 2.0000000000000002e-05
5, 11, 11, 4.7000000000000000e+02
5, 1, 1, 3.0000000000000001e-05
5, 2, 2, -5.0000000000000002e-05
5, 3, 3, 1.3999999999999999e-04
6, 11, 11, 4.3000000000000000e+02
6, 1, 1, 1.0000000000000000e-04
6, 2, 2, 4.0000000000000003e-05
6, 3, 3, 1.0000000000000000e-04
7, 11, 11, 5.1500000000000000e+02
7, 1, 1, 2.3000000000000001e-04
7, 2, 2, 1.6000000000000001e-04
7, 3, 3, 1.8000000000000001e-04
8, 11, 11, 4.5500000000000000e+02
8, 1, 1, -8.0000000000000007e-05
8, 2, 2, 6.9999999999999994e-05
8, 3, 3, 1.1000000000000000e-04
*End Step
*Step, name=D18_MINUS, nlgeom=NO, inc=20
*Coupled Temperature-Displacement, steady state
1.0, 1.0, 1.0e-8, 1.0
*Boundary, op=NEW
1, 11, 11, 3.6000000000000000e+02
1, 1, 1, 0.0000000000000000e+00
1, 2, 2, 0.0000000000000000e+00
1, 3, 3, 0.0000000000000000e+00
2, 11, 11, 4.1000000000000000e+02
2, 1, 1, 1.2000000000000000e-04
2, 2, 2, -2.0000000000000002e-05
2, 3, 3, 3.0000000000000001e-05
3, 11, 11, 4.4500000000000000e+02
3, 1, 1, 1.7000000000000001e-04
3, 2, 2, 8.9900000000000003e-05
3, 3, 3, -4.0000000000000003e-05
4, 11, 11, 3.8500000000000000e+02
4, 1, 1, -4.0000000000000003e-05
4, 2, 2, 1.1000000000000000e-04
4, 3, 3, 2.0000000000000002e-05
5, 11, 11, 4.7000000000000000e+02
5, 1, 1, 3.0000000000000001e-05
5, 2, 2, -5.0000000000000002e-05
5, 3, 3, 1.3999999999999999e-04
6, 11, 11, 4.3000000000000000e+02
6, 1, 1, 1.0000000000000000e-04
6, 2, 2, 4.0000000000000003e-05
6, 3, 3, 1.0000000000000000e-04
7, 11, 11, 5.1500000000000000e+02
7, 1, 1, 2.3000000000000001e-04
7, 2, 2, 1.6000000000000001e-04
7, 3, 3, 1.8000000000000001e-04
8, 11, 11, 4.5500000000000000e+02
8, 1, 1, -8.0000000000000007e-05
8, 2, 2, 6.9999999999999994e-05
8, 3, 3, 1.1000000000000000e-04
*End Step
*Step, name=D19_PLUS, nlgeom=NO, inc=20
*Coupled Temperature-Displacement, steady state
1.0, 1.0, 1.0e-8, 1.0
*Boundary, op=NEW
1, 11, 11, 3.6000000000000000e+02
1, 1, 1, 0.0000000000000000e+00
1, 2, 2, 0.0000000000000000e+00
1, 3, 3, 0.0000000000000000e+00
2, 11, 11, 4.1000000000000000e+02
2, 1, 1, 1.2000000000000000e-04
2, 2, 2, -2.0000000000000002e-05
2, 3, 3, 3.0000000000000001e-05
3, 11, 11, 4.4500000000000000e+02
3, 1, 1, 1.7000000000000001e-04
3, 2, 2, 9.0000000000000006e-05
3, 3, 3, -4.0000000000000003e-05
4, 11, 11, 3.8500000000000000e+02
4, 1, 1, -4.0000000000000003e-05
4, 2, 2, 1.1010000000000001e-04
4, 3, 3, 2.0000000000000002e-05
5, 11, 11, 4.7000000000000000e+02
5, 1, 1, 3.0000000000000001e-05
5, 2, 2, -5.0000000000000002e-05
5, 3, 3, 1.3999999999999999e-04
6, 11, 11, 4.3000000000000000e+02
6, 1, 1, 1.0000000000000000e-04
6, 2, 2, 4.0000000000000003e-05
6, 3, 3, 1.0000000000000000e-04
7, 11, 11, 5.1500000000000000e+02
7, 1, 1, 2.3000000000000001e-04
7, 2, 2, 1.6000000000000001e-04
7, 3, 3, 1.8000000000000001e-04
8, 11, 11, 4.5500000000000000e+02
8, 1, 1, -8.0000000000000007e-05
8, 2, 2, 6.9999999999999994e-05
8, 3, 3, 1.1000000000000000e-04
*End Step
*Step, name=D19_MINUS, nlgeom=NO, inc=20
*Coupled Temperature-Displacement, steady state
1.0, 1.0, 1.0e-8, 1.0
*Boundary, op=NEW
1, 11, 11, 3.6000000000000000e+02
1, 1, 1, 0.0000000000000000e+00
1, 2, 2, 0.0000000000000000e+00
1, 3, 3, 0.0000000000000000e+00
2, 11, 11, 4.1000000000000000e+02
2, 1, 1, 1.2000000000000000e-04
2, 2, 2, -2.0000000000000002e-05
2, 3, 3, 3.0000000000000001e-05
3, 11, 11, 4.4500000000000000e+02
3, 1, 1, 1.7000000000000001e-04
3, 2, 2, 9.0000000000000006e-05
3, 3, 3, -4.0000000000000003e-05
4, 11, 11, 3.8500000000000000e+02
4, 1, 1, -4.0000000000000003e-05
4, 2, 2, 1.0990000000000000e-04
4, 3, 3, 2.0000000000000002e-05
5, 11, 11, 4.7000000000000000e+02
5, 1, 1, 3.0000000000000001e-05
5, 2, 2, -5.0000000000000002e-05
5, 3, 3, 1.3999999999999999e-04
6, 11, 11, 4.3000000000000000e+02
6, 1, 1, 1.0000000000000000e-04
6, 2, 2, 4.0000000000000003e-05
6, 3, 3, 1.0000000000000000e-04
7, 11, 11, 5.1500000000000000e+02
7, 1, 1, 2.3000000000000001e-04
7, 2, 2, 1.6000000000000001e-04
7, 3, 3, 1.8000000000000001e-04
8, 11, 11, 4.5500000000000000e+02
8, 1, 1, -8.0000000000000007e-05
8, 2, 2, 6.9999999999999994e-05
8, 3, 3, 1.1000000000000000e-04
*End Step
*Step, name=D20_PLUS, nlgeom=NO, inc=20
*Coupled Temperature-Displacement, steady state
1.0, 1.0, 1.0e-8, 1.0
*Boundary, op=NEW
1, 11, 11, 3.6000000000000000e+02
1, 1, 1, 0.0000000000000000e+00
1, 2, 2, 0.0000000000000000e+00
1, 3, 3, 0.0000000000000000e+00
2, 11, 11, 4.1000000000000000e+02
2, 1, 1, 1.2000000000000000e-04
2, 2, 2, -2.0000000000000002e-05
2, 3, 3, 3.0000000000000001e-05
3, 11, 11, 4.4500000000000000e+02
3, 1, 1, 1.7000000000000001e-04
3, 2, 2, 9.0000000000000006e-05
3, 3, 3, -4.0000000000000003e-05
4, 11, 11, 3.8500000000000000e+02
4, 1, 1, -4.0000000000000003e-05
4, 2, 2, 1.1000000000000000e-04
4, 3, 3, 2.0000000000000002e-05
5, 11, 11, 4.7000000000000000e+02
5, 1, 1, 3.0000000000000001e-05
5, 2, 2, -4.9900000000000000e-05
5, 3, 3, 1.3999999999999999e-04
6, 11, 11, 4.3000000000000000e+02
6, 1, 1, 1.0000000000000000e-04
6, 2, 2, 4.0000000000000003e-05
6, 3, 3, 1.0000000000000000e-04
7, 11, 11, 5.1500000000000000e+02
7, 1, 1, 2.3000000000000001e-04
7, 2, 2, 1.6000000000000001e-04
7, 3, 3, 1.8000000000000001e-04
8, 11, 11, 4.5500000000000000e+02
8, 1, 1, -8.0000000000000007e-05
8, 2, 2, 6.9999999999999994e-05
8, 3, 3, 1.1000000000000000e-04
*End Step
*Step, name=D20_MINUS, nlgeom=NO, inc=20
*Coupled Temperature-Displacement, steady state
1.0, 1.0, 1.0e-8, 1.0
*Boundary, op=NEW
1, 11, 11, 3.6000000000000000e+02
1, 1, 1, 0.0000000000000000e+00
1, 2, 2, 0.0000000000000000e+00
1, 3, 3, 0.0000000000000000e+00
2, 11, 11, 4.1000000000000000e+02
2, 1, 1, 1.2000000000000000e-04
2, 2, 2, -2.0000000000000002e-05
2, 3, 3, 3.0000000000000001e-05
3, 11, 11, 4.4500000000000000e+02
3, 1, 1, 1.7000000000000001e-04
3, 2, 2, 9.0000000000000006e-05
3, 3, 3, -4.0000000000000003e-05
4, 11, 11, 3.8500000000000000e+02
4, 1, 1, -4.0000000000000003e-05
4, 2, 2, 1.1000000000000000e-04
4, 3, 3, 2.0000000000000002e-05
5, 11, 11, 4.7000000000000000e+02
5, 1, 1, 3.0000000000000001e-05
5, 2, 2, -5.0100000000000005e-05
5, 3, 3, 1.3999999999999999e-04
6, 11, 11, 4.3000000000000000e+02
6, 1, 1, 1.0000000000000000e-04
6, 2, 2, 4.0000000000000003e-05
6, 3, 3, 1.0000000000000000e-04
7, 11, 11, 5.1500000000000000e+02
7, 1, 1, 2.3000000000000001e-04
7, 2, 2, 1.6000000000000001e-04
7, 3, 3, 1.8000000000000001e-04
8, 11, 11, 4.5500000000000000e+02
8, 1, 1, -8.0000000000000007e-05
8, 2, 2, 6.9999999999999994e-05
8, 3, 3, 1.1000000000000000e-04
*End Step
*Step, name=D21_PLUS, nlgeom=NO, inc=20
*Coupled Temperature-Displacement, steady state
1.0, 1.0, 1.0e-8, 1.0
*Boundary, op=NEW
1, 11, 11, 3.6000000000000000e+02
1, 1, 1, 0.0000000000000000e+00
1, 2, 2, 0.0000000000000000e+00
1, 3, 3, 0.0000000000000000e+00
2, 11, 11, 4.1000000000000000e+02
2, 1, 1, 1.2000000000000000e-04
2, 2, 2, -2.0000000000000002e-05
2, 3, 3, 3.0000000000000001e-05
3, 11, 11, 4.4500000000000000e+02
3, 1, 1, 1.7000000000000001e-04
3, 2, 2, 9.0000000000000006e-05
3, 3, 3, -4.0000000000000003e-05
4, 11, 11, 3.8500000000000000e+02
4, 1, 1, -4.0000000000000003e-05
4, 2, 2, 1.1000000000000000e-04
4, 3, 3, 2.0000000000000002e-05
5, 11, 11, 4.7000000000000000e+02
5, 1, 1, 3.0000000000000001e-05
5, 2, 2, -5.0000000000000002e-05
5, 3, 3, 1.3999999999999999e-04
6, 11, 11, 4.3000000000000000e+02
6, 1, 1, 1.0000000000000000e-04
6, 2, 2, 4.0100000000000006e-05
6, 3, 3, 1.0000000000000000e-04
7, 11, 11, 5.1500000000000000e+02
7, 1, 1, 2.3000000000000001e-04
7, 2, 2, 1.6000000000000001e-04
7, 3, 3, 1.8000000000000001e-04
8, 11, 11, 4.5500000000000000e+02
8, 1, 1, -8.0000000000000007e-05
8, 2, 2, 6.9999999999999994e-05
8, 3, 3, 1.1000000000000000e-04
*End Step
*Step, name=D21_MINUS, nlgeom=NO, inc=20
*Coupled Temperature-Displacement, steady state
1.0, 1.0, 1.0e-8, 1.0
*Boundary, op=NEW
1, 11, 11, 3.6000000000000000e+02
1, 1, 1, 0.0000000000000000e+00
1, 2, 2, 0.0000000000000000e+00
1, 3, 3, 0.0000000000000000e+00
2, 11, 11, 4.1000000000000000e+02
2, 1, 1, 1.2000000000000000e-04
2, 2, 2, -2.0000000000000002e-05
2, 3, 3, 3.0000000000000001e-05
3, 11, 11, 4.4500000000000000e+02
3, 1, 1, 1.7000000000000001e-04
3, 2, 2, 9.0000000000000006e-05
3, 3, 3, -4.0000000000000003e-05
4, 11, 11, 3.8500000000000000e+02
4, 1, 1, -4.0000000000000003e-05
4, 2, 2, 1.1000000000000000e-04
4, 3, 3, 2.0000000000000002e-05
5, 11, 11, 4.7000000000000000e+02
5, 1, 1, 3.0000000000000001e-05
5, 2, 2, -5.0000000000000002e-05
5, 3, 3, 1.3999999999999999e-04
6, 11, 11, 4.3000000000000000e+02
6, 1, 1, 1.0000000000000000e-04
6, 2, 2, 3.9900000000000001e-05
6, 3, 3, 1.0000000000000000e-04
7, 11, 11, 5.1500000000000000e+02
7, 1, 1, 2.3000000000000001e-04
7, 2, 2, 1.6000000000000001e-04
7, 3, 3, 1.8000000000000001e-04
8, 11, 11, 4.5500000000000000e+02
8, 1, 1, -8.0000000000000007e-05
8, 2, 2, 6.9999999999999994e-05
8, 3, 3, 1.1000000000000000e-04
*End Step
*Step, name=D22_PLUS, nlgeom=NO, inc=20
*Coupled Temperature-Displacement, steady state
1.0, 1.0, 1.0e-8, 1.0
*Boundary, op=NEW
1, 11, 11, 3.6000000000000000e+02
1, 1, 1, 0.0000000000000000e+00
1, 2, 2, 0.0000000000000000e+00
1, 3, 3, 0.0000000000000000e+00
2, 11, 11, 4.1000000000000000e+02
2, 1, 1, 1.2000000000000000e-04
2, 2, 2, -2.0000000000000002e-05
2, 3, 3, 3.0000000000000001e-05
3, 11, 11, 4.4500000000000000e+02
3, 1, 1, 1.7000000000000001e-04
3, 2, 2, 9.0000000000000006e-05
3, 3, 3, -4.0000000000000003e-05
4, 11, 11, 3.8500000000000000e+02
4, 1, 1, -4.0000000000000003e-05
4, 2, 2, 1.1000000000000000e-04
4, 3, 3, 2.0000000000000002e-05
5, 11, 11, 4.7000000000000000e+02
5, 1, 1, 3.0000000000000001e-05
5, 2, 2, -5.0000000000000002e-05
5, 3, 3, 1.3999999999999999e-04
6, 11, 11, 4.3000000000000000e+02
6, 1, 1, 1.0000000000000000e-04
6, 2, 2, 4.0000000000000003e-05
6, 3, 3, 1.0000000000000000e-04
7, 11, 11, 5.1500000000000000e+02
7, 1, 1, 2.3000000000000001e-04
7, 2, 2, 1.6010000000000002e-04
7, 3, 3, 1.8000000000000001e-04
8, 11, 11, 4.5500000000000000e+02
8, 1, 1, -8.0000000000000007e-05
8, 2, 2, 6.9999999999999994e-05
8, 3, 3, 1.1000000000000000e-04
*End Step
*Step, name=D22_MINUS, nlgeom=NO, inc=20
*Coupled Temperature-Displacement, steady state
1.0, 1.0, 1.0e-8, 1.0
*Boundary, op=NEW
1, 11, 11, 3.6000000000000000e+02
1, 1, 1, 0.0000000000000000e+00
1, 2, 2, 0.0000000000000000e+00
1, 3, 3, 0.0000000000000000e+00
2, 11, 11, 4.1000000000000000e+02
2, 1, 1, 1.2000000000000000e-04
2, 2, 2, -2.0000000000000002e-05
2, 3, 3, 3.0000000000000001e-05
3, 11, 11, 4.4500000000000000e+02
3, 1, 1, 1.7000000000000001e-04
3, 2, 2, 9.0000000000000006e-05
3, 3, 3, -4.0000000000000003e-05
4, 11, 11, 3.8500000000000000e+02
4, 1, 1, -4.0000000000000003e-05
4, 2, 2, 1.1000000000000000e-04
4, 3, 3, 2.0000000000000002e-05
5, 11, 11, 4.7000000000000000e+02
5, 1, 1, 3.0000000000000001e-05
5, 2, 2, -5.0000000000000002e-05
5, 3, 3, 1.3999999999999999e-04
6, 11, 11, 4.3000000000000000e+02
6, 1, 1, 1.0000000000000000e-04
6, 2, 2, 4.0000000000000003e-05
6, 3, 3, 1.0000000000000000e-04
7, 11, 11, 5.1500000000000000e+02
7, 1, 1, 2.3000000000000001e-04
7, 2, 2, 1.5990000000000001e-04
7, 3, 3, 1.8000000000000001e-04
8, 11, 11, 4.5500000000000000e+02
8, 1, 1, -8.0000000000000007e-05
8, 2, 2, 6.9999999999999994e-05
8, 3, 3, 1.1000000000000000e-04
*End Step
*Step, name=D23_PLUS, nlgeom=NO, inc=20
*Coupled Temperature-Displacement, steady state
1.0, 1.0, 1.0e-8, 1.0
*Boundary, op=NEW
1, 11, 11, 3.6000000000000000e+02
1, 1, 1, 0.0000000000000000e+00
1, 2, 2, 0.0000000000000000e+00
1, 3, 3, 0.0000000000000000e+00
2, 11, 11, 4.1000000000000000e+02
2, 1, 1, 1.2000000000000000e-04
2, 2, 2, -2.0000000000000002e-05
2, 3, 3, 3.0000000000000001e-05
3, 11, 11, 4.4500000000000000e+02
3, 1, 1, 1.7000000000000001e-04
3, 2, 2, 9.0000000000000006e-05
3, 3, 3, -4.0000000000000003e-05
4, 11, 11, 3.8500000000000000e+02
4, 1, 1, -4.0000000000000003e-05
4, 2, 2, 1.1000000000000000e-04
4, 3, 3, 2.0000000000000002e-05
5, 11, 11, 4.7000000000000000e+02
5, 1, 1, 3.0000000000000001e-05
5, 2, 2, -5.0000000000000002e-05
5, 3, 3, 1.3999999999999999e-04
6, 11, 11, 4.3000000000000000e+02
6, 1, 1, 1.0000000000000000e-04
6, 2, 2, 4.0000000000000003e-05
6, 3, 3, 1.0000000000000000e-04
7, 11, 11, 5.1500000000000000e+02
7, 1, 1, 2.3000000000000001e-04
7, 2, 2, 1.6000000000000001e-04
7, 3, 3, 1.8000000000000001e-04
8, 11, 11, 4.5500000000000000e+02
8, 1, 1, -8.0000000000000007e-05
8, 2, 2, 7.0099999999999996e-05
8, 3, 3, 1.1000000000000000e-04
*End Step
*Step, name=D23_MINUS, nlgeom=NO, inc=20
*Coupled Temperature-Displacement, steady state
1.0, 1.0, 1.0e-8, 1.0
*Boundary, op=NEW
1, 11, 11, 3.6000000000000000e+02
1, 1, 1, 0.0000000000000000e+00
1, 2, 2, 0.0000000000000000e+00
1, 3, 3, 0.0000000000000000e+00
2, 11, 11, 4.1000000000000000e+02
2, 1, 1, 1.2000000000000000e-04
2, 2, 2, -2.0000000000000002e-05
2, 3, 3, 3.0000000000000001e-05
3, 11, 11, 4.4500000000000000e+02
3, 1, 1, 1.7000000000000001e-04
3, 2, 2, 9.0000000000000006e-05
3, 3, 3, -4.0000000000000003e-05
4, 11, 11, 3.8500000000000000e+02
4, 1, 1, -4.0000000000000003e-05
4, 2, 2, 1.1000000000000000e-04
4, 3, 3, 2.0000000000000002e-05
5, 11, 11, 4.7000000000000000e+02
5, 1, 1, 3.0000000000000001e-05
5, 2, 2, -5.0000000000000002e-05
5, 3, 3, 1.3999999999999999e-04
6, 11, 11, 4.3000000000000000e+02
6, 1, 1, 1.0000000000000000e-04
6, 2, 2, 4.0000000000000003e-05
6, 3, 3, 1.0000000000000000e-04
7, 11, 11, 5.1500000000000000e+02
7, 1, 1, 2.3000000000000001e-04
7, 2, 2, 1.6000000000000001e-04
7, 3, 3, 1.8000000000000001e-04
8, 11, 11, 4.5500000000000000e+02
8, 1, 1, -8.0000000000000007e-05
8, 2, 2, 6.9899999999999991e-05
8, 3, 3, 1.1000000000000000e-04
*End Step
*Step, name=D24_PLUS, nlgeom=NO, inc=20
*Coupled Temperature-Displacement, steady state
1.0, 1.0, 1.0e-8, 1.0
*Boundary, op=NEW
1, 11, 11, 3.6000000000000000e+02
1, 1, 1, 0.0000000000000000e+00
1, 2, 2, 0.0000000000000000e+00
1, 3, 3, 9.9999999999999995e-08
2, 11, 11, 4.1000000000000000e+02
2, 1, 1, 1.2000000000000000e-04
2, 2, 2, -2.0000000000000002e-05
2, 3, 3, 3.0000000000000001e-05
3, 11, 11, 4.4500000000000000e+02
3, 1, 1, 1.7000000000000001e-04
3, 2, 2, 9.0000000000000006e-05
3, 3, 3, -4.0000000000000003e-05
4, 11, 11, 3.8500000000000000e+02
4, 1, 1, -4.0000000000000003e-05
4, 2, 2, 1.1000000000000000e-04
4, 3, 3, 2.0000000000000002e-05
5, 11, 11, 4.7000000000000000e+02
5, 1, 1, 3.0000000000000001e-05
5, 2, 2, -5.0000000000000002e-05
5, 3, 3, 1.3999999999999999e-04
6, 11, 11, 4.3000000000000000e+02
6, 1, 1, 1.0000000000000000e-04
6, 2, 2, 4.0000000000000003e-05
6, 3, 3, 1.0000000000000000e-04
7, 11, 11, 5.1500000000000000e+02
7, 1, 1, 2.3000000000000001e-04
7, 2, 2, 1.6000000000000001e-04
7, 3, 3, 1.8000000000000001e-04
8, 11, 11, 4.5500000000000000e+02
8, 1, 1, -8.0000000000000007e-05
8, 2, 2, 6.9999999999999994e-05
8, 3, 3, 1.1000000000000000e-04
*End Step
*Step, name=D24_MINUS, nlgeom=NO, inc=20
*Coupled Temperature-Displacement, steady state
1.0, 1.0, 1.0e-8, 1.0
*Boundary, op=NEW
1, 11, 11, 3.6000000000000000e+02
1, 1, 1, 0.0000000000000000e+00
1, 2, 2, 0.0000000000000000e+00
1, 3, 3, -9.9999999999999995e-08
2, 11, 11, 4.1000000000000000e+02
2, 1, 1, 1.2000000000000000e-04
2, 2, 2, -2.0000000000000002e-05
2, 3, 3, 3.0000000000000001e-05
3, 11, 11, 4.4500000000000000e+02
3, 1, 1, 1.7000000000000001e-04
3, 2, 2, 9.0000000000000006e-05
3, 3, 3, -4.0000000000000003e-05
4, 11, 11, 3.8500000000000000e+02
4, 1, 1, -4.0000000000000003e-05
4, 2, 2, 1.1000000000000000e-04
4, 3, 3, 2.0000000000000002e-05
5, 11, 11, 4.7000000000000000e+02
5, 1, 1, 3.0000000000000001e-05
5, 2, 2, -5.0000000000000002e-05
5, 3, 3, 1.3999999999999999e-04
6, 11, 11, 4.3000000000000000e+02
6, 1, 1, 1.0000000000000000e-04
6, 2, 2, 4.0000000000000003e-05
6, 3, 3, 1.0000000000000000e-04
7, 11, 11, 5.1500000000000000e+02
7, 1, 1, 2.3000000000000001e-04
7, 2, 2, 1.6000000000000001e-04
7, 3, 3, 1.8000000000000001e-04
8, 11, 11, 4.5500000000000000e+02
8, 1, 1, -8.0000000000000007e-05
8, 2, 2, 6.9999999999999994e-05
8, 3, 3, 1.1000000000000000e-04
*End Step
*Step, name=D25_PLUS, nlgeom=NO, inc=20
*Coupled Temperature-Displacement, steady state
1.0, 1.0, 1.0e-8, 1.0
*Boundary, op=NEW
1, 11, 11, 3.6000000000000000e+02
1, 1, 1, 0.0000000000000000e+00
1, 2, 2, 0.0000000000000000e+00
1, 3, 3, 0.0000000000000000e+00
2, 11, 11, 4.1000000000000000e+02
2, 1, 1, 1.2000000000000000e-04
2, 2, 2, -2.0000000000000002e-05
2, 3, 3, 3.0100000000000000e-05
3, 11, 11, 4.4500000000000000e+02
3, 1, 1, 1.7000000000000001e-04
3, 2, 2, 9.0000000000000006e-05
3, 3, 3, -4.0000000000000003e-05
4, 11, 11, 3.8500000000000000e+02
4, 1, 1, -4.0000000000000003e-05
4, 2, 2, 1.1000000000000000e-04
4, 3, 3, 2.0000000000000002e-05
5, 11, 11, 4.7000000000000000e+02
5, 1, 1, 3.0000000000000001e-05
5, 2, 2, -5.0000000000000002e-05
5, 3, 3, 1.3999999999999999e-04
6, 11, 11, 4.3000000000000000e+02
6, 1, 1, 1.0000000000000000e-04
6, 2, 2, 4.0000000000000003e-05
6, 3, 3, 1.0000000000000000e-04
7, 11, 11, 5.1500000000000000e+02
7, 1, 1, 2.3000000000000001e-04
7, 2, 2, 1.6000000000000001e-04
7, 3, 3, 1.8000000000000001e-04
8, 11, 11, 4.5500000000000000e+02
8, 1, 1, -8.0000000000000007e-05
8, 2, 2, 6.9999999999999994e-05
8, 3, 3, 1.1000000000000000e-04
*End Step
*Step, name=D25_MINUS, nlgeom=NO, inc=20
*Coupled Temperature-Displacement, steady state
1.0, 1.0, 1.0e-8, 1.0
*Boundary, op=NEW
1, 11, 11, 3.6000000000000000e+02
1, 1, 1, 0.0000000000000000e+00
1, 2, 2, 0.0000000000000000e+00
1, 3, 3, 0.0000000000000000e+00
2, 11, 11, 4.1000000000000000e+02
2, 1, 1, 1.2000000000000000e-04
2, 2, 2, -2.0000000000000002e-05
2, 3, 3, 2.9900000000000002e-05
3, 11, 11, 4.4500000000000000e+02
3, 1, 1, 1.7000000000000001e-04
3, 2, 2, 9.0000000000000006e-05
3, 3, 3, -4.0000000000000003e-05
4, 11, 11, 3.8500000000000000e+02
4, 1, 1, -4.0000000000000003e-05
4, 2, 2, 1.1000000000000000e-04
4, 3, 3, 2.0000000000000002e-05
5, 11, 11, 4.7000000000000000e+02
5, 1, 1, 3.0000000000000001e-05
5, 2, 2, -5.0000000000000002e-05
5, 3, 3, 1.3999999999999999e-04
6, 11, 11, 4.3000000000000000e+02
6, 1, 1, 1.0000000000000000e-04
6, 2, 2, 4.0000000000000003e-05
6, 3, 3, 1.0000000000000000e-04
7, 11, 11, 5.1500000000000000e+02
7, 1, 1, 2.3000000000000001e-04
7, 2, 2, 1.6000000000000001e-04
7, 3, 3, 1.8000000000000001e-04
8, 11, 11, 4.5500000000000000e+02
8, 1, 1, -8.0000000000000007e-05
8, 2, 2, 6.9999999999999994e-05
8, 3, 3, 1.1000000000000000e-04
*End Step
*Step, name=D26_PLUS, nlgeom=NO, inc=20
*Coupled Temperature-Displacement, steady state
1.0, 1.0, 1.0e-8, 1.0
*Boundary, op=NEW
1, 11, 11, 3.6000000000000000e+02
1, 1, 1, 0.0000000000000000e+00
1, 2, 2, 0.0000000000000000e+00
1, 3, 3, 0.0000000000000000e+00
2, 11, 11, 4.1000000000000000e+02
2, 1, 1, 1.2000000000000000e-04
2, 2, 2, -2.0000000000000002e-05
2, 3, 3, 3.0000000000000001e-05
3, 11, 11, 4.4500000000000000e+02
3, 1, 1, 1.7000000000000001e-04
3, 2, 2, 9.0000000000000006e-05
3, 3, 3, -3.9900000000000001e-05
4, 11, 11, 3.8500000000000000e+02
4, 1, 1, -4.0000000000000003e-05
4, 2, 2, 1.1000000000000000e-04
4, 3, 3, 2.0000000000000002e-05
5, 11, 11, 4.7000000000000000e+02
5, 1, 1, 3.0000000000000001e-05
5, 2, 2, -5.0000000000000002e-05
5, 3, 3, 1.3999999999999999e-04
6, 11, 11, 4.3000000000000000e+02
6, 1, 1, 1.0000000000000000e-04
6, 2, 2, 4.0000000000000003e-05
6, 3, 3, 1.0000000000000000e-04
7, 11, 11, 5.1500000000000000e+02
7, 1, 1, 2.3000000000000001e-04
7, 2, 2, 1.6000000000000001e-04
7, 3, 3, 1.8000000000000001e-04
8, 11, 11, 4.5500000000000000e+02
8, 1, 1, -8.0000000000000007e-05
8, 2, 2, 6.9999999999999994e-05
8, 3, 3, 1.1000000000000000e-04
*End Step
*Step, name=D26_MINUS, nlgeom=NO, inc=20
*Coupled Temperature-Displacement, steady state
1.0, 1.0, 1.0e-8, 1.0
*Boundary, op=NEW
1, 11, 11, 3.6000000000000000e+02
1, 1, 1, 0.0000000000000000e+00
1, 2, 2, 0.0000000000000000e+00
1, 3, 3, 0.0000000000000000e+00
2, 11, 11, 4.1000000000000000e+02
2, 1, 1, 1.2000000000000000e-04
2, 2, 2, -2.0000000000000002e-05
2, 3, 3, 3.0000000000000001e-05
3, 11, 11, 4.4500000000000000e+02
3, 1, 1, 1.7000000000000001e-04
3, 2, 2, 9.0000000000000006e-05
3, 3, 3, -4.0100000000000006e-05
4, 11, 11, 3.8500000000000000e+02
4, 1, 1, -4.0000000000000003e-05
4, 2, 2, 1.1000000000000000e-04
4, 3, 3, 2.0000000000000002e-05
5, 11, 11, 4.7000000000000000e+02
5, 1, 1, 3.0000000000000001e-05
5, 2, 2, -5.0000000000000002e-05
5, 3, 3, 1.3999999999999999e-04
6, 11, 11, 4.3000000000000000e+02
6, 1, 1, 1.0000000000000000e-04
6, 2, 2, 4.0000000000000003e-05
6, 3, 3, 1.0000000000000000e-04
7, 11, 11, 5.1500000000000000e+02
7, 1, 1, 2.3000000000000001e-04
7, 2, 2, 1.6000000000000001e-04
7, 3, 3, 1.8000000000000001e-04
8, 11, 11, 4.5500000000000000e+02
8, 1, 1, -8.0000000000000007e-05
8, 2, 2, 6.9999999999999994e-05
8, 3, 3, 1.1000000000000000e-04
*End Step
*Step, name=D27_PLUS, nlgeom=NO, inc=20
*Coupled Temperature-Displacement, steady state
1.0, 1.0, 1.0e-8, 1.0
*Boundary, op=NEW
1, 11, 11, 3.6000000000000000e+02
1, 1, 1, 0.0000000000000000e+00
1, 2, 2, 0.0000000000000000e+00
1, 3, 3, 0.0000000000000000e+00
2, 11, 11, 4.1000000000000000e+02
2, 1, 1, 1.2000000000000000e-04
2, 2, 2, -2.0000000000000002e-05
2, 3, 3, 3.0000000000000001e-05
3, 11, 11, 4.4500000000000000e+02
3, 1, 1, 1.7000000000000001e-04
3, 2, 2, 9.0000000000000006e-05
3, 3, 3, -4.0000000000000003e-05
4, 11, 11, 3.8500000000000000e+02
4, 1, 1, -4.0000000000000003e-05
4, 2, 2, 1.1000000000000000e-04
4, 3, 3, 2.0100000000000001e-05
5, 11, 11, 4.7000000000000000e+02
5, 1, 1, 3.0000000000000001e-05
5, 2, 2, -5.0000000000000002e-05
5, 3, 3, 1.3999999999999999e-04
6, 11, 11, 4.3000000000000000e+02
6, 1, 1, 1.0000000000000000e-04
6, 2, 2, 4.0000000000000003e-05
6, 3, 3, 1.0000000000000000e-04
7, 11, 11, 5.1500000000000000e+02
7, 1, 1, 2.3000000000000001e-04
7, 2, 2, 1.6000000000000001e-04
7, 3, 3, 1.8000000000000001e-04
8, 11, 11, 4.5500000000000000e+02
8, 1, 1, -8.0000000000000007e-05
8, 2, 2, 6.9999999999999994e-05
8, 3, 3, 1.1000000000000000e-04
*End Step
*Step, name=D27_MINUS, nlgeom=NO, inc=20
*Coupled Temperature-Displacement, steady state
1.0, 1.0, 1.0e-8, 1.0
*Boundary, op=NEW
1, 11, 11, 3.6000000000000000e+02
1, 1, 1, 0.0000000000000000e+00
1, 2, 2, 0.0000000000000000e+00
1, 3, 3, 0.0000000000000000e+00
2, 11, 11, 4.1000000000000000e+02
2, 1, 1, 1.2000000000000000e-04
2, 2, 2, -2.0000000000000002e-05
2, 3, 3, 3.0000000000000001e-05
3, 11, 11, 4.4500000000000000e+02
3, 1, 1, 1.7000000000000001e-04
3, 2, 2, 9.0000000000000006e-05
3, 3, 3, -4.0000000000000003e-05
4, 11, 11, 3.8500000000000000e+02
4, 1, 1, -4.0000000000000003e-05
4, 2, 2, 1.1000000000000000e-04
4, 3, 3, 1.9900000000000003e-05
5, 11, 11, 4.7000000000000000e+02
5, 1, 1, 3.0000000000000001e-05
5, 2, 2, -5.0000000000000002e-05
5, 3, 3, 1.3999999999999999e-04
6, 11, 11, 4.3000000000000000e+02
6, 1, 1, 1.0000000000000000e-04
6, 2, 2, 4.0000000000000003e-05
6, 3, 3, 1.0000000000000000e-04
7, 11, 11, 5.1500000000000000e+02
7, 1, 1, 2.3000000000000001e-04
7, 2, 2, 1.6000000000000001e-04
7, 3, 3, 1.8000000000000001e-04
8, 11, 11, 4.5500000000000000e+02
8, 1, 1, -8.0000000000000007e-05
8, 2, 2, 6.9999999999999994e-05
8, 3, 3, 1.1000000000000000e-04
*End Step
*Step, name=D28_PLUS, nlgeom=NO, inc=20
*Coupled Temperature-Displacement, steady state
1.0, 1.0, 1.0e-8, 1.0
*Boundary, op=NEW
1, 11, 11, 3.6000000000000000e+02
1, 1, 1, 0.0000000000000000e+00
1, 2, 2, 0.0000000000000000e+00
1, 3, 3, 0.0000000000000000e+00
2, 11, 11, 4.1000000000000000e+02
2, 1, 1, 1.2000000000000000e-04
2, 2, 2, -2.0000000000000002e-05
2, 3, 3, 3.0000000000000001e-05
3, 11, 11, 4.4500000000000000e+02
3, 1, 1, 1.7000000000000001e-04
3, 2, 2, 9.0000000000000006e-05
3, 3, 3, -4.0000000000000003e-05
4, 11, 11, 3.8500000000000000e+02
4, 1, 1, -4.0000000000000003e-05
4, 2, 2, 1.1000000000000000e-04
4, 3, 3, 2.0000000000000002e-05
5, 11, 11, 4.7000000000000000e+02
5, 1, 1, 3.0000000000000001e-05
5, 2, 2, -5.0000000000000002e-05
5, 3, 3, 1.4009999999999999e-04
6, 11, 11, 4.3000000000000000e+02
6, 1, 1, 1.0000000000000000e-04
6, 2, 2, 4.0000000000000003e-05
6, 3, 3, 1.0000000000000000e-04
7, 11, 11, 5.1500000000000000e+02
7, 1, 1, 2.3000000000000001e-04
7, 2, 2, 1.6000000000000001e-04
7, 3, 3, 1.8000000000000001e-04
8, 11, 11, 4.5500000000000000e+02
8, 1, 1, -8.0000000000000007e-05
8, 2, 2, 6.9999999999999994e-05
8, 3, 3, 1.1000000000000000e-04
*End Step
*Step, name=D28_MINUS, nlgeom=NO, inc=20
*Coupled Temperature-Displacement, steady state
1.0, 1.0, 1.0e-8, 1.0
*Boundary, op=NEW
1, 11, 11, 3.6000000000000000e+02
1, 1, 1, 0.0000000000000000e+00
1, 2, 2, 0.0000000000000000e+00
1, 3, 3, 0.0000000000000000e+00
2, 11, 11, 4.1000000000000000e+02
2, 1, 1, 1.2000000000000000e-04
2, 2, 2, -2.0000000000000002e-05
2, 3, 3, 3.0000000000000001e-05
3, 11, 11, 4.4500000000000000e+02
3, 1, 1, 1.7000000000000001e-04
3, 2, 2, 9.0000000000000006e-05
3, 3, 3, -4.0000000000000003e-05
4, 11, 11, 3.8500000000000000e+02
4, 1, 1, -4.0000000000000003e-05
4, 2, 2, 1.1000000000000000e-04
4, 3, 3, 2.0000000000000002e-05
5, 11, 11, 4.7000000000000000e+02
5, 1, 1, 3.0000000000000001e-05
5, 2, 2, -5.0000000000000002e-05
5, 3, 3, 1.3989999999999999e-04
6, 11, 11, 4.3000000000000000e+02
6, 1, 1, 1.0000000000000000e-04
6, 2, 2, 4.0000000000000003e-05
6, 3, 3, 1.0000000000000000e-04
7, 11, 11, 5.1500000000000000e+02
7, 1, 1, 2.3000000000000001e-04
7, 2, 2, 1.6000000000000001e-04
7, 3, 3, 1.8000000000000001e-04
8, 11, 11, 4.5500000000000000e+02
8, 1, 1, -8.0000000000000007e-05
8, 2, 2, 6.9999999999999994e-05
8, 3, 3, 1.1000000000000000e-04
*End Step
*Step, name=D29_PLUS, nlgeom=NO, inc=20
*Coupled Temperature-Displacement, steady state
1.0, 1.0, 1.0e-8, 1.0
*Boundary, op=NEW
1, 11, 11, 3.6000000000000000e+02
1, 1, 1, 0.0000000000000000e+00
1, 2, 2, 0.0000000000000000e+00
1, 3, 3, 0.0000000000000000e+00
2, 11, 11, 4.1000000000000000e+02
2, 1, 1, 1.2000000000000000e-04
2, 2, 2, -2.0000000000000002e-05
2, 3, 3, 3.0000000000000001e-05
3, 11, 11, 4.4500000000000000e+02
3, 1, 1, 1.7000000000000001e-04
3, 2, 2, 9.0000000000000006e-05
3, 3, 3, -4.0000000000000003e-05
4, 11, 11, 3.8500000000000000e+02
4, 1, 1, -4.0000000000000003e-05
4, 2, 2, 1.1000000000000000e-04
4, 3, 3, 2.0000000000000002e-05
5, 11, 11, 4.7000000000000000e+02
5, 1, 1, 3.0000000000000001e-05
5, 2, 2, -5.0000000000000002e-05
5, 3, 3, 1.3999999999999999e-04
6, 11, 11, 4.3000000000000000e+02
6, 1, 1, 1.0000000000000000e-04
6, 2, 2, 4.0000000000000003e-05
6, 3, 3, 1.0010000000000001e-04
7, 11, 11, 5.1500000000000000e+02
7, 1, 1, 2.3000000000000001e-04
7, 2, 2, 1.6000000000000001e-04
7, 3, 3, 1.8000000000000001e-04
8, 11, 11, 4.5500000000000000e+02
8, 1, 1, -8.0000000000000007e-05
8, 2, 2, 6.9999999999999994e-05
8, 3, 3, 1.1000000000000000e-04
*End Step
*Step, name=D29_MINUS, nlgeom=NO, inc=20
*Coupled Temperature-Displacement, steady state
1.0, 1.0, 1.0e-8, 1.0
*Boundary, op=NEW
1, 11, 11, 3.6000000000000000e+02
1, 1, 1, 0.0000000000000000e+00
1, 2, 2, 0.0000000000000000e+00
1, 3, 3, 0.0000000000000000e+00
2, 11, 11, 4.1000000000000000e+02
2, 1, 1, 1.2000000000000000e-04
2, 2, 2, -2.0000000000000002e-05
2, 3, 3, 3.0000000000000001e-05
3, 11, 11, 4.4500000000000000e+02
3, 1, 1, 1.7000000000000001e-04
3, 2, 2, 9.0000000000000006e-05
3, 3, 3, -4.0000000000000003e-05
4, 11, 11, 3.8500000000000000e+02
4, 1, 1, -4.0000000000000003e-05
4, 2, 2, 1.1000000000000000e-04
4, 3, 3, 2.0000000000000002e-05
5, 11, 11, 4.7000000000000000e+02
5, 1, 1, 3.0000000000000001e-05
5, 2, 2, -5.0000000000000002e-05
5, 3, 3, 1.3999999999999999e-04
6, 11, 11, 4.3000000000000000e+02
6, 1, 1, 1.0000000000000000e-04
6, 2, 2, 4.0000000000000003e-05
6, 3, 3, 9.9900000000000002e-05
7, 11, 11, 5.1500000000000000e+02
7, 1, 1, 2.3000000000000001e-04
7, 2, 2, 1.6000000000000001e-04
7, 3, 3, 1.8000000000000001e-04
8, 11, 11, 4.5500000000000000e+02
8, 1, 1, -8.0000000000000007e-05
8, 2, 2, 6.9999999999999994e-05
8, 3, 3, 1.1000000000000000e-04
*End Step
*Step, name=D30_PLUS, nlgeom=NO, inc=20
*Coupled Temperature-Displacement, steady state
1.0, 1.0, 1.0e-8, 1.0
*Boundary, op=NEW
1, 11, 11, 3.6000000000000000e+02
1, 1, 1, 0.0000000000000000e+00
1, 2, 2, 0.0000000000000000e+00
1, 3, 3, 0.0000000000000000e+00
2, 11, 11, 4.1000000000000000e+02
2, 1, 1, 1.2000000000000000e-04
2, 2, 2, -2.0000000000000002e-05
2, 3, 3, 3.0000000000000001e-05
3, 11, 11, 4.4500000000000000e+02
3, 1, 1, 1.7000000000000001e-04
3, 2, 2, 9.0000000000000006e-05
3, 3, 3, -4.0000000000000003e-05
4, 11, 11, 3.8500000000000000e+02
4, 1, 1, -4.0000000000000003e-05
4, 2, 2, 1.1000000000000000e-04
4, 3, 3, 2.0000000000000002e-05
5, 11, 11, 4.7000000000000000e+02
5, 1, 1, 3.0000000000000001e-05
5, 2, 2, -5.0000000000000002e-05
5, 3, 3, 1.3999999999999999e-04
6, 11, 11, 4.3000000000000000e+02
6, 1, 1, 1.0000000000000000e-04
6, 2, 2, 4.0000000000000003e-05
6, 3, 3, 1.0000000000000000e-04
7, 11, 11, 5.1500000000000000e+02
7, 1, 1, 2.3000000000000001e-04
7, 2, 2, 1.6000000000000001e-04
7, 3, 3, 1.8010000000000001e-04
8, 11, 11, 4.5500000000000000e+02
8, 1, 1, -8.0000000000000007e-05
8, 2, 2, 6.9999999999999994e-05
8, 3, 3, 1.1000000000000000e-04
*End Step
*Step, name=D30_MINUS, nlgeom=NO, inc=20
*Coupled Temperature-Displacement, steady state
1.0, 1.0, 1.0e-8, 1.0
*Boundary, op=NEW
1, 11, 11, 3.6000000000000000e+02
1, 1, 1, 0.0000000000000000e+00
1, 2, 2, 0.0000000000000000e+00
1, 3, 3, 0.0000000000000000e+00
2, 11, 11, 4.1000000000000000e+02
2, 1, 1, 1.2000000000000000e-04
2, 2, 2, -2.0000000000000002e-05
2, 3, 3, 3.0000000000000001e-05
3, 11, 11, 4.4500000000000000e+02
3, 1, 1, 1.7000000000000001e-04
3, 2, 2, 9.0000000000000006e-05
3, 3, 3, -4.0000000000000003e-05
4, 11, 11, 3.8500000000000000e+02
4, 1, 1, -4.0000000000000003e-05
4, 2, 2, 1.1000000000000000e-04
4, 3, 3, 2.0000000000000002e-05
5, 11, 11, 4.7000000000000000e+02
5, 1, 1, 3.0000000000000001e-05
5, 2, 2, -5.0000000000000002e-05
5, 3, 3, 1.3999999999999999e-04
6, 11, 11, 4.3000000000000000e+02
6, 1, 1, 1.0000000000000000e-04
6, 2, 2, 4.0000000000000003e-05
6, 3, 3, 1.0000000000000000e-04
7, 11, 11, 5.1500000000000000e+02
7, 1, 1, 2.3000000000000001e-04
7, 2, 2, 1.6000000000000001e-04
7, 3, 3, 1.7990000000000001e-04
8, 11, 11, 4.5500000000000000e+02
8, 1, 1, -8.0000000000000007e-05
8, 2, 2, 6.9999999999999994e-05
8, 3, 3, 1.1000000000000000e-04
*End Step
*Step, name=D31_PLUS, nlgeom=NO, inc=20
*Coupled Temperature-Displacement, steady state
1.0, 1.0, 1.0e-8, 1.0
*Boundary, op=NEW
1, 11, 11, 3.6000000000000000e+02
1, 1, 1, 0.0000000000000000e+00
1, 2, 2, 0.0000000000000000e+00
1, 3, 3, 0.0000000000000000e+00
2, 11, 11, 4.1000000000000000e+02
2, 1, 1, 1.2000000000000000e-04
2, 2, 2, -2.0000000000000002e-05
2, 3, 3, 3.0000000000000001e-05
3, 11, 11, 4.4500000000000000e+02
3, 1, 1, 1.7000000000000001e-04
3, 2, 2, 9.0000000000000006e-05
3, 3, 3, -4.0000000000000003e-05
4, 11, 11, 3.8500000000000000e+02
4, 1, 1, -4.0000000000000003e-05
4, 2, 2, 1.1000000000000000e-04
4, 3, 3, 2.0000000000000002e-05
5, 11, 11, 4.7000000000000000e+02
5, 1, 1, 3.0000000000000001e-05
5, 2, 2, -5.0000000000000002e-05
5, 3, 3, 1.3999999999999999e-04
6, 11, 11, 4.3000000000000000e+02
6, 1, 1, 1.0000000000000000e-04
6, 2, 2, 4.0000000000000003e-05
6, 3, 3, 1.0000000000000000e-04
7, 11, 11, 5.1500000000000000e+02
7, 1, 1, 2.3000000000000001e-04
7, 2, 2, 1.6000000000000001e-04
7, 3, 3, 1.8000000000000001e-04
8, 11, 11, 4.5500000000000000e+02
8, 1, 1, -8.0000000000000007e-05
8, 2, 2, 6.9999999999999994e-05
8, 3, 3, 1.1010000000000001e-04
*End Step
*Step, name=D31_MINUS, nlgeom=NO, inc=20
*Coupled Temperature-Displacement, steady state
1.0, 1.0, 1.0e-8, 1.0
*Boundary, op=NEW
1, 11, 11, 3.6000000000000000e+02
1, 1, 1, 0.0000000000000000e+00
1, 2, 2, 0.0000000000000000e+00
1, 3, 3, 0.0000000000000000e+00
2, 11, 11, 4.1000000000000000e+02
2, 1, 1, 1.2000000000000000e-04
2, 2, 2, -2.0000000000000002e-05
2, 3, 3, 3.0000000000000001e-05
3, 11, 11, 4.4500000000000000e+02
3, 1, 1, 1.7000000000000001e-04
3, 2, 2, 9.0000000000000006e-05
3, 3, 3, -4.0000000000000003e-05
4, 11, 11, 3.8500000000000000e+02
4, 1, 1, -4.0000000000000003e-05
4, 2, 2, 1.1000000000000000e-04
4, 3, 3, 2.0000000000000002e-05
5, 11, 11, 4.7000000000000000e+02
5, 1, 1, 3.0000000000000001e-05
5, 2, 2, -5.0000000000000002e-05
5, 3, 3, 1.3999999999999999e-04
6, 11, 11, 4.3000000000000000e+02
6, 1, 1, 1.0000000000000000e-04
6, 2, 2, 4.0000000000000003e-05
6, 3, 3, 1.0000000000000000e-04
7, 11, 11, 5.1500000000000000e+02
7, 1, 1, 2.3000000000000001e-04
7, 2, 2, 1.6000000000000001e-04
7, 3, 3, 1.8000000000000001e-04
8, 11, 11, 4.5500000000000000e+02
8, 1, 1, -8.0000000000000007e-05
8, 2, 2, 6.9999999999999994e-05
8, 3, 3, 1.0990000000000000e-04
*End Step
