*Heading
** Abaqus/Standard C3D8RT transient heat-capacity matrix probe: regular.
** SI units: metre, second, kelvin, watt.
*Preprint, echo=NO, model=NO, history=NO, contact=NO
*Node
1, 0.0000000000000000e+00, 0.0000000000000000e+00, 0.0000000000000000e+00
2, 1.0000000000000000e+00, 0.0000000000000000e+00, 0.0000000000000000e+00
3, 1.0000000000000000e+00, 1.0000000000000000e+00, 0.0000000000000000e+00
4, 0.0000000000000000e+00, 1.0000000000000000e+00, 0.0000000000000000e+00
5, 0.0000000000000000e+00, 0.0000000000000000e+00, 1.0000000000000000e+00
6, 1.0000000000000000e+00, 0.0000000000000000e+00, 1.0000000000000000e+00
7, 1.0000000000000000e+00, 1.0000000000000000e+00, 1.0000000000000000e+00
8, 0.0000000000000000e+00, 1.0000000000000000e+00, 1.0000000000000000e+00
9, 3.0000000000000000e+00, 0.0000000000000000e+00, 0.0000000000000000e+00
10, 4.0000000000000000e+00, 0.0000000000000000e+00, 0.0000000000000000e+00
11, 4.0000000000000000e+00, 1.0000000000000000e+00, 0.0000000000000000e+00
12, 3.0000000000000000e+00, 1.0000000000000000e+00, 0.0000000000000000e+00
13, 3.0000000000000000e+00, 0.0000000000000000e+00, 1.0000000000000000e+00
14, 4.0000000000000000e+00, 0.0000000000000000e+00, 1.0000000000000000e+00
15, 4.0000000000000000e+00, 1.0000000000000000e+00, 1.0000000000000000e+00
16, 3.0000000000000000e+00, 1.0000000000000000e+00, 1.0000000000000000e+00
17, 6.0000000000000000e+00, 0.0000000000000000e+00, 0.0000000000000000e+00
18, 7.0000000000000000e+00, 0.0000000000000000e+00, 0.0000000000000000e+00
19, 7.0000000000000000e+00, 1.0000000000000000e+00, 0.0000000000000000e+00
20, 6.0000000000000000e+00, 1.0000000000000000e+00, 0.0000000000000000e+00
21, 6.0000000000000000e+00, 0.0000000000000000e+00, 1.0000000000000000e+00
22, 7.0000000000000000e+00, 0.0000000000000000e+00, 1.0000000000000000e+00
23, 7.0000000000000000e+00, 1.0000000000000000e+00, 1.0000000000000000e+00
24, 6.0000000000000000e+00, 1.0000000000000000e+00, 1.0000000000000000e+00
25, 9.0000000000000000e+00, 0.0000000000000000e+00, 0.0000000000000000e+00
26, 1.0000000000000000e+01, 0.0000000000000000e+00, 0.0000000000000000e+00
27, 1.0000000000000000e+01, 1.0000000000000000e+00, 0.0000000000000000e+00
28, 9.0000000000000000e+00, 1.0000000000000000e+00, 0.0000000000000000e+00
29, 9.0000000000000000e+00, 0.0000000000000000e+00, 1.0000000000000000e+00
30, 1.0000000000000000e+01, 0.0000000000000000e+00, 1.0000000000000000e+00
31, 1.0000000000000000e+01, 1.0000000000000000e+00, 1.0000000000000000e+00
32, 9.0000000000000000e+00, 1.0000000000000000e+00, 1.0000000000000000e+00
33, 1.2000000000000000e+01, 0.0000000000000000e+00, 0.0000000000000000e+00
34, 1.3000000000000000e+01, 0.0000000000000000e+00, 0.0000000000000000e+00
35, 1.3000000000000000e+01, 1.0000000000000000e+00, 0.0000000000000000e+00
36, 1.2000000000000000e+01, 1.0000000000000000e+00, 0.0000000000000000e+00
37, 1.2000000000000000e+01, 0.0000000000000000e+00, 1.0000000000000000e+00
38, 1.3000000000000000e+01, 0.0000000000000000e+00, 1.0000000000000000e+00
39, 1.3000000000000000e+01, 1.0000000000000000e+00, 1.0000000000000000e+00
40, 1.2000000000000000e+01, 1.0000000000000000e+00, 1.0000000000000000e+00
41, 1.5000000000000000e+01, 0.0000000000000000e+00, 0.0000000000000000e+00
42, 1.6000000000000000e+01, 0.0000000000000000e+00, 0.0000000000000000e+00
43, 1.6000000000000000e+01, 1.0000000000000000e+00, 0.0000000000000000e+00
44, 1.5000000000000000e+01, 1.0000000000000000e+00, 0.0000000000000000e+00
45, 1.5000000000000000e+01, 0.0000000000000000e+00, 1.0000000000000000e+00
46, 1.6000000000000000e+01, 0.0000000000000000e+00, 1.0000000000000000e+00
47, 1.6000000000000000e+01, 1.0000000000000000e+00, 1.0000000000000000e+00
48, 1.5000000000000000e+01, 1.0000000000000000e+00, 1.0000000000000000e+00
49, 1.8000000000000000e+01, 0.0000000000000000e+00, 0.0000000000000000e+00
50, 1.9000000000000000e+01, 0.0000000000000000e+00, 0.0000000000000000e+00
51, 1.9000000000000000e+01, 1.0000000000000000e+00, 0.0000000000000000e+00
52, 1.8000000000000000e+01, 1.0000000000000000e+00, 0.0000000000000000e+00
53, 1.8000000000000000e+01, 0.0000000000000000e+00, 1.0000000000000000e+00
54, 1.9000000000000000e+01, 0.0000000000000000e+00, 1.0000000000000000e+00
55, 1.9000000000000000e+01, 1.0000000000000000e+00, 1.0000000000000000e+00
56, 1.8000000000000000e+01, 1.0000000000000000e+00, 1.0000000000000000e+00
57, 2.1000000000000000e+01, 0.0000000000000000e+00, 0.0000000000000000e+00
58, 2.2000000000000000e+01, 0.0000000000000000e+00, 0.0000000000000000e+00
59, 2.2000000000000000e+01, 1.0000000000000000e+00, 0.0000000000000000e+00
60, 2.1000000000000000e+01, 1.0000000000000000e+00, 0.0000000000000000e+00
61, 2.1000000000000000e+01, 0.0000000000000000e+00, 1.0000000000000000e+00
62, 2.2000000000000000e+01, 0.0000000000000000e+00, 1.0000000000000000e+00
63, 2.2000000000000000e+01, 1.0000000000000000e+00, 1.0000000000000000e+00
64, 2.1000000000000000e+01, 1.0000000000000000e+00, 1.0000000000000000e+00
*Element, type=C3D8RT, elset=VOLUME
1, 1, 2, 3, 4, 5, 6, 7, 8
2, 9, 10, 11, 12, 13, 14, 15, 16
3, 17, 18, 19, 20, 21, 22, 23, 24
4, 25, 26, 27, 28, 29, 30, 31, 32
5, 33, 34, 35, 36, 37, 38, 39, 40
6, 41, 42, 43, 44, 45, 46, 47, 48
7, 49, 50, 51, 52, 53, 54, 55, 56
8, 57, 58, 59, 60, 61, 62, 63, 64
*Nset, nset=ALL_NODES, generate
1, 64, 1
*Material, name=THERMAL
*Elastic
2.0000000000000000e11, 2.5000000000000000e-1
*Expansion, zero=3.0000000000000000e2
0.0
*Conductivity
4.0000000000000000e0
*Density
2.0000000000000000e3
*Specific Heat
3.0000000000000000e3
*Solid Section, elset=VOLUME, material=THERMAL
,
*Initial Conditions, type=TEMPERATURE
ALL_NODES, 3.0000000000000000e2
*Step, name=CAPACITY, nlgeom=NO, inc=4
*Coupled Temperature-Displacement
1.0, 1.0, 1.0, 1.0
*Boundary
ALL_NODES, 1, 3, 0.0
1, 11, 11, 3.0100000000000000e+02
2, 11, 11, 3.0000000000000000e+02
3, 11, 11, 3.0000000000000000e+02
4, 11, 11, 3.0000000000000000e+02
5, 11, 11, 3.0000000000000000e+02
6, 11, 11, 3.0000000000000000e+02
7, 11, 11, 3.0000000000000000e+02
8, 11, 11, 3.0000000000000000e+02
9, 11, 11, 3.0000000000000000e+02
10, 11, 11, 3.0100000000000000e+02
11, 11, 11, 3.0000000000000000e+02
12, 11, 11, 3.0000000000000000e+02
13, 11, 11, 3.0000000000000000e+02
14, 11, 11, 3.0000000000000000e+02
15, 11, 11, 3.0000000000000000e+02
16, 11, 11, 3.0000000000000000e+02
17, 11, 11, 3.0000000000000000e+02
18, 11, 11, 3.0000000000000000e+02
19, 11, 11, 3.0100000000000000e+02
20, 11, 11, 3.0000000000000000e+02
21, 11, 11, 3.0000000000000000e+02
22, 11, 11, 3.0000000000000000e+02
23, 11, 11, 3.0000000000000000e+02
24, 11, 11, 3.0000000000000000e+02
25, 11, 11, 3.0000000000000000e+02
26, 11, 11, 3.0000000000000000e+02
27, 11, 11, 3.0000000000000000e+02
28, 11, 11, 3.0100000000000000e+02
29, 11, 11, 3.0000000000000000e+02
30, 11, 11, 3.0000000000000000e+02
31, 11, 11, 3.0000000000000000e+02
32, 11, 11, 3.0000000000000000e+02
33, 11, 11, 3.0000000000000000e+02
34, 11, 11, 3.0000000000000000e+02
35, 11, 11, 3.0000000000000000e+02
36, 11, 11, 3.0000000000000000e+02
37, 11, 11, 3.0100000000000000e+02
38, 11, 11, 3.0000000000000000e+02
39, 11, 11, 3.0000000000000000e+02
40, 11, 11, 3.0000000000000000e+02
41, 11, 11, 3.0000000000000000e+02
42, 11, 11, 3.0000000000000000e+02
43, 11, 11, 3.0000000000000000e+02
44, 11, 11, 3.0000000000000000e+02
45, 11, 11, 3.0000000000000000e+02
46, 11, 11, 3.0100000000000000e+02
47, 11, 11, 3.0000000000000000e+02
48, 11, 11, 3.0000000000000000e+02
49, 11, 11, 3.0000000000000000e+02
50, 11, 11, 3.0000000000000000e+02
51, 11, 11, 3.0000000000000000e+02
52, 11, 11, 3.0000000000000000e+02
53, 11, 11, 3.0000000000000000e+02
54, 11, 11, 3.0000000000000000e+02
55, 11, 11, 3.0100000000000000e+02
56, 11, 11, 3.0000000000000000e+02
57, 11, 11, 3.0000000000000000e+02
58, 11, 11, 3.0000000000000000e+02
59, 11, 11, 3.0000000000000000e+02
60, 11, 11, 3.0000000000000000e+02
61, 11, 11, 3.0000000000000000e+02
62, 11, 11, 3.0000000000000000e+02
63, 11, 11, 3.0000000000000000e+02
64, 11, 11, 3.0100000000000000e+02
*Output, field, frequency=1
*Node Output
NT, RFL
*End Step
