*Heading
** B5.32 Abaqus/Standard finite-strain C3D8RT complete operator probe: regular.
** Each perturbation uses a disconnected element so every state follows one increment from the reference state.
*Preprint, echo=NO, model=NO, history=NO, contact=NO
*Node
1, 0.0000000000000000e+00, 0.0000000000000000e+00, 0.0000000000000000e+00
2, 1.0000000000000000e+00, 0.0000000000000000e+00, 0.0000000000000000e+00
3, 1.0000000000000000e+00, 1.0000000000000000e+00, 0.0000000000000000e+00
4, 0.0000000000000000e+00, 1.0000000000000000e+00, 0.0000000000000000e+00
5, 0.0000000000000000e+00, 0.0000000000000000e+00, 1.0000000000000000e+00
6, 1.0000000000000000e+00, 0.0000000000000000e+00, 1.0000000000000000e+00
7, 1.0000000000000000e+00, 1.0000000000000000e+00, 1.0000000000000000e+00
8, 0.0000000000000000e+00, 1.0000000000000000e+00, 1.0000000000000000e+00
9, 3.0000000000000000e+00, 0.0000000000000000e+00, 0.0000000000000000e+00
10, 4.0000000000000000e+00, 0.0000000000000000e+00, 0.0000000000000000e+00
11, 4.0000000000000000e+00, 1.0000000000000000e+00, 0.0000000000000000e+00
12, 3.0000000000000000e+00, 1.0000000000000000e+00, 0.0000000000000000e+00
13, 3.0000000000000000e+00, 0.0000000000000000e+00, 1.0000000000000000e+00
14, 4.0000000000000000e+00, 0.0000000000000000e+00, 1.0000000000000000e+00
15, 4.0000000000000000e+00, 1.0000000000000000e+00, 1.0000000000000000e+00
16, 3.0000000000000000e+00, 1.0000000000000000e+00, 1.0000000000000000e+00
17, 6.0000000000000000e+00, 0.0000000000000000e+00, 0.0000000000000000e+00
18, 7.0000000000000000e+00, 0.0000000000000000e+00, 0.0000000000000000e+00
19, 7.0000000000000000e+00, 1.0000000000000000e+00, 0.0000000000000000e+00
20, 6.0000000000000000e+00, 1.0000000000000000e+00, 0.0000000000000000e+00
21, 6.0000000000000000e+00, 0.0000000000000000e+00, 1.0000000000000000e+00
22, 7.0000000000000000e+00, 0.0000000000000000e+00, 1.0000000000000000e+00
23, 7.0000000000000000e+00, 1.0000000000000000e+00, 1.0000000000000000e+00
24, 6.0000000000000000e+00, 1.0000000000000000e+00, 1.0000000000000000e+00
25, 9.0000000000000000e+00, 0.0000000000000000e+00, 0.0000000000000000e+00
26, 1.0000000000000000e+01, 0.0000000000000000e+00, 0.0000000000000000e+00
27, 1.0000000000000000e+01, 1.0000000000000000e+00, 0.0000000000000000e+00
28, 9.0000000000000000e+00, 1.0000000000000000e+00, 0.0000000000000000e+00
29, 9.0000000000000000e+00, 0.0000000000000000e+00, 1.0000000000000000e+00
30, 1.0000000000000000e+01, 0.0000000000000000e+00, 1.0000000000000000e+00
31, 1.0000000000000000e+01, 1.0000000000000000e+00, 1.0000000000000000e+00
32, 9.0000000000000000e+00, 1.0000000000000000e+00, 1.0000000000000000e+00
33, 1.2000000000000000e+01, 0.0000000000000000e+00, 0.0000000000000000e+00
34, 1.3000000000000000e+01, 0.0000000000000000e+00, 0.0000000000000000e+00
35, 1.3000000000000000e+01, 1.0000000000000000e+00, 0.0000000000000000e+00
36, 1.2000000000000000e+01, 1.0000000000000000e+00, 0.0000000000000000e+00
37, 1.2000000000000000e+01, 0.0000000000000000e+00, 1.0000000000000000e+00
38, 1.3000000000000000e+01, 0.0000000000000000e+00, 1.0000000000000000e+00
39, 1.3000000000000000e+01, 1.0000000000000000e+00, 1.0000000000000000e+00
40, 1.2000000000000000e+01, 1.0000000000000000e+00, 1.0000000000000000e+00
41, 1.5000000000000000e+01, 0.0000000000000000e+00, 0.0000000000000000e+00
42, 1.6000000000000000e+01, 0.0000000000000000e+00, 0.0000000000000000e+00
43, 1.6000000000000000e+01, 1.0000000000000000e+00, 0.0000000000000000e+00
44, 1.5000000000000000e+01, 1.0000000000000000e+00, 0.0000000000000000e+00
45, 1.5000000000000000e+01, 0.0000000000000000e+00, 1.0000000000000000e+00
46, 1.6000000000000000e+01, 0.0000000000000000e+00, 1.0000000000000000e+00
47, 1.6000000000000000e+01, 1.0000000000000000e+00, 1.0000000000000000e+00
48, 1.5000000000000000e+01, 1.0000000000000000e+00, 1.0000000000000000e+00
49, 1.8000000000000000e+01, 0.0000000000000000e+00, 0.0000000000000000e+00
50, 1.9000000000000000e+01, 0.0000000000000000e+00, 0.0000000000000000e+00
51, 1.9000000000000000e+01, 1.0000000000000000e+00, 0.0000000000000000e+00
52, 1.8000000000000000e+01, 1.0000000000000000e+00, 0.0000000000000000e+00
53, 1.8000000000000000e+01, 0.0000000000000000e+00, 1.0000000000000000e+00
54, 1.9000000000000000e+01, 0.0000000000000000e+00, 1.0000000000000000e+00
55, 1.9000000000000000e+01, 1.0000000000000000e+00, 1.0000000000000000e+00
56, 1.8000000000000000e+01, 1.0000000000000000e+00, 1.0000000000000000e+00
57, 2.1000000000000000e+01, 0.0000000000000000e+00, 0.0000000000000000e+00
58, 2.2000000000000000e+01, 0.0000000000000000e+00, 0.0000000000000000e+00
59, 2.2000000000000000e+01, 1.0000000000000000e+00, 0.0000000000000000e+00
60, 2.1000000000000000e+01, 1.0000000000000000e+00, 0.0000000000000000e+00
61, 2.1000000000000000e+01, 0.0000000000000000e+00, 1.0000000000000000e+00
62, 2.2000000000000000e+01, 0.0000000000000000e+00, 1.0000000000000000e+00
63, 2.2000000000000000e+01, 1.0000000000000000e+00, 1.0000000000000000e+00
64, 2.1000000000000000e+01, 1.0000000000000000e+00, 1.0000000000000000e+00
65, 2.4000000000000000e+01, 0.0000000000000000e+00, 0.0000000000000000e+00
66, 2.5000000000000000e+01, 0.0000000000000000e+00, 0.0000000000000000e+00
67, 2.5000000000000000e+01, 1.0000000000000000e+00, 0.0000000000000000e+00
68, 2.4000000000000000e+01, 1.0000000000000000e+00, 0.0000000000000000e+00
69, 2.4000000000000000e+01, 0.0000000000000000e+00, 1.0000000000000000e+00
70, 2.5000000000000000e+01, 0.0000000000000000e+00, 1.0000000000000000e+00
71, 2.5000000000000000e+01, 1.0000000000000000e+00, 1.0000000000000000e+00
72, 2.4000000000000000e+01, 1.0000000000000000e+00, 1.0000000000000000e+00
73, 2.7000000000000000e+01, 0.0000000000000000e+00, 0.0000000000000000e+00
74, 2.8000000000000000e+01, 0.0000000000000000e+00, 0.0000000000000000e+00
75, 2.8000000000000000e+01, 1.0000000000000000e+00, 0.0000000000000000e+00
76, 2.7000000000000000e+01, 1.0000000000000000e+00, 0.0000000000000000e+00
77, 2.7000000000000000e+01, 0.0000000000000000e+00, 1.0000000000000000e+00
78, 2.8000000000000000e+01, 0.0000000000000000e+00, 1.0000000000000000e+00
79, 2.8000000000000000e+01, 1.0000000000000000e+00, 1.0000000000000000e+00
80, 2.7000000000000000e+01, 1.0000000000000000e+00, 1.0000000000000000e+00
81, 3.0000000000000000e+01, 0.0000000000000000e+00, 0.0000000000000000e+00
82, 3.1000000000000000e+01, 0.0000000000000000e+00, 0.0000000000000000e+00
83, 3.1000000000000000e+01, 1.0000000000000000e+00, 0.0000000000000000e+00
84, 3.0000000000000000e+01, 1.0000000000000000e+00, 0.0000000000000000e+00
85, 3.0000000000000000e+01, 0.0000000000000000e+00, 1.0000000000000000e+00
86, 3.1000000000000000e+01, 0.0000000000000000e+00, 1.0000000000000000e+00
87, 3.1000000000000000e+01, 1.0000000000000000e+00, 1.0000000000000000e+00
88, 3.0000000000000000e+01, 1.0000000000000000e+00, 1.0000000000000000e+00
89, 3.3000000000000000e+01, 0.0000000000000000e+00, 0.0000000000000000e+00
90, 3.4000000000000000e+01, 0.0000000000000000e+00, 0.0000000000000000e+00
91, 3.4000000000000000e+01, 1.0000000000000000e+00, 0.0000000000000000e+00
92, 3.3000000000000000e+01, 1.0000000000000000e+00, 0.0000000000000000e+00
93, 3.3000000000000000e+01, 0.0000000000000000e+00, 1.0000000000000000e+00
94, 3.4000000000000000e+01, 0.0000000000000000e+00, 1.0000000000000000e+00
95, 3.4000000000000000e+01, 1.0000000000000000e+00, 1.0000000000000000e+00
96, 3.3000000000000000e+01, 1.0000000000000000e+00, 1.0000000000000000e+00
97, 3.6000000000000000e+01, 0.0000000000000000e+00, 0.0000000000000000e+00
98, 3.7000000000000000e+01, 0.0000000000000000e+00, 0.0000000000000000e+00
99, 3.7000000000000000e+01, 1.0000000000000000e+00, 0.0000000000000000e+00
100, 3.6000000000000000e+01, 1.0000000000000000e+00, 0.0000000000000000e+00
101, 3.6000000000000000e+01, 0.0000000000000000e+00, 1.0000000000000000e+00
102, 3.7000000000000000e+01, 0.0000000000000000e+00, 1.0000000000000000e+00
103, 3.7000000000000000e+01, 1.0000000000000000e+00, 1.0000000000000000e+00
104, 3.6000000000000000e+01, 1.0000000000000000e+00, 1.0000000000000000e+00
105, 3.9000000000000000e+01, 0.0000000000000000e+00, 0.0000000000000000e+00
106, 4.0000000000000000e+01, 0.0000000000000000e+00, 0.0000000000000000e+00
107, 4.0000000000000000e+01, 1.0000000000000000e+00, 0.0000000000000000e+00
108, 3.9000000000000000e+01, 1.0000000000000000e+00, 0.0000000000000000e+00
109, 3.9000000000000000e+01, 0.0000000000000000e+00, 1.0000000000000000e+00
110, 4.0000000000000000e+01, 0.0000000000000000e+00, 1.0000000000000000e+00
111, 4.0000000000000000e+01, 1.0000000000000000e+00, 1.0000000000000000e+00
112, 3.9000000000000000e+01, 1.0000000000000000e+00, 1.0000000000000000e+00
113, 4.2000000000000000e+01, 0.0000000000000000e+00, 0.0000000000000000e+00
114, 4.3000000000000000e+01, 0.0000000000000000e+00, 0.0000000000000000e+00
115, 4.3000000000000000e+01, 1.0000000000000000e+00, 0.0000000000000000e+00
116, 4.2000000000000000e+01, 1.0000000000000000e+00, 0.0000000000000000e+00
117, 4.2000000000000000e+01, 0.0000000000000000e+00, 1.0000000000000000e+00
118, 4.3000000000000000e+01, 0.0000000000000000e+00, 1.0000000000000000e+00
119, 4.3000000000000000e+01, 1.0000000000000000e+00, 1.0000000000000000e+00
120, 4.2000000000000000e+01, 1.0000000000000000e+00, 1.0000000000000000e+00
121, 4.5000000000000000e+01, 0.0000000000000000e+00, 0.0000000000000000e+00
122, 4.6000000000000000e+01, 0.0000000000000000e+00, 0.0000000000000000e+00
123, 4.6000000000000000e+01, 1.0000000000000000e+00, 0.0000000000000000e+00
124, 4.5000000000000000e+01, 1.0000000000000000e+00, 0.0000000000000000e+00
125, 4.5000000000000000e+01, 0.0000000000000000e+00, 1.0000000000000000e+00
126, 4.6000000000000000e+01, 0.0000000000000000e+00, 1.0000000000000000e+00
127, 4.6000000000000000e+01, 1.0000000000000000e+00, 1.0000000000000000e+00
128, 4.5000000000000000e+01, 1.0000000000000000e+00, 1.0000000000000000e+00
129, 4.8000000000000000e+01, 0.0000000000000000e+00, 0.0000000000000000e+00
130, 4.9000000000000000e+01, 0.0000000000000000e+00, 0.0000000000000000e+00
131, 4.9000000000000000e+01, 1.0000000000000000e+00, 0.0000000000000000e+00
132, 4.8000000000000000e+01, 1.0000000000000000e+00, 0.0000000000000000e+00
133, 4.8000000000000000e+01, 0.0000000000000000e+00, 1.0000000000000000e+00
134, 4.9000000000000000e+01, 0.0000000000000000e+00, 1.0000000000000000e+00
135, 4.9000000000000000e+01, 1.0000000000000000e+00, 1.0000000000000000e+00
136, 4.8000000000000000e+01, 1.0000000000000000e+00, 1.0000000000000000e+00
137, 5.1000000000000000e+01, 0.0000000000000000e+00, 0.0000000000000000e+00
138, 5.2000000000000000e+01, 0.0000000000000000e+00, 0.0000000000000000e+00
139, 5.2000000000000000e+01, 1.0000000000000000e+00, 0.0000000000000000e+00
140, 5.1000000000000000e+01, 1.0000000000000000e+00, 0.0000000000000000e+00
141, 5.1000000000000000e+01, 0.0000000000000000e+00, 1.0000000000000000e+00
142, 5.2000000000000000e+01, 0.0000000000000000e+00, 1.0000000000000000e+00
143, 5.2000000000000000e+01, 1.0000000000000000e+00, 1.0000000000000000e+00
144, 5.1000000000000000e+01, 1.0000000000000000e+00, 1.0000000000000000e+00
145, 5.4000000000000000e+01, 0.0000000000000000e+00, 0.0000000000000000e+00
146, 5.5000000000000000e+01, 0.0000000000000000e+00, 0.0000000000000000e+00
147, 5.5000000000000000e+01, 1.0000000000000000e+00, 0.0000000000000000e+00
148, 5.4000000000000000e+01, 1.0000000000000000e+00, 0.0000000000000000e+00
149, 5.4000000000000000e+01, 0.0000000000000000e+00, 1.0000000000000000e+00
150, 5.5000000000000000e+01, 0.0000000000000000e+00, 1.0000000000000000e+00
151, 5.5000000000000000e+01, 1.0000000000000000e+00, 1.0000000000000000e+00
152, 5.4000000000000000e+01, 1.0000000000000000e+00, 1.0000000000000000e+00
153, 5.7000000000000000e+01, 0.0000000000000000e+00, 0.0000000000000000e+00
154, 5.8000000000000000e+01, 0.0000000000000000e+00, 0.0000000000000000e+00
155, 5.8000000000000000e+01, 1.0000000000000000e+00, 0.0000000000000000e+00
156, 5.7000000000000000e+01, 1.0000000000000000e+00, 0.0000000000000000e+00
157, 5.7000000000000000e+01, 0.0000000000000000e+00, 1.0000000000000000e+00
158, 5.8000000000000000e+01, 0.0000000000000000e+00, 1.0000000000000000e+00
159, 5.8000000000000000e+01, 1.0000000000000000e+00, 1.0000000000000000e+00
160, 5.7000000000000000e+01, 1.0000000000000000e+00, 1.0000000000000000e+00
161, 6.0000000000000000e+01, 0.0000000000000000e+00, 0.0000000000000000e+00
162, 6.1000000000000000e+01, 0.0000000000000000e+00, 0.0000000000000000e+00
163, 6.1000000000000000e+01, 1.0000000000000000e+00, 0.0000000000000000e+00
164, 6.0000000000000000e+01, 1.0000000000000000e+00, 0.0000000000000000e+00
165, 6.0000000000000000e+01, 0.0000000000000000e+00, 1.0000000000000000e+00
166, 6.1000000000000000e+01, 0.0000000000000000e+00, 1.0000000000000000e+00
167, 6.1000000000000000e+01, 1.0000000000000000e+00, 1.0000000000000000e+00
168, 6.0000000000000000e+01, 1.0000000000000000e+00, 1.0000000000000000e+00
169, 6.3000000000000000e+01, 0.0000000000000000e+00, 0.0000000000000000e+00
170, 6.4000000000000000e+01, 0.0000000000000000e+00, 0.0000000000000000e+00
171, 6.4000000000000000e+01, 1.0000000000000000e+00, 0.0000000000000000e+00
172, 6.3000000000000000e+01, 1.0000000000000000e+00, 0.0000000000000000e+00
173, 6.3000000000000000e+01, 0.0000000000000000e+00, 1.0000000000000000e+00
174, 6.4000000000000000e+01, 0.0000000000000000e+00, 1.0000000000000000e+00
175, 6.4000000000000000e+01, 1.0000000000000000e+00, 1.0000000000000000e+00
176, 6.3000000000000000e+01, 1.0000000000000000e+00, 1.0000000000000000e+00
177, 6.6000000000000000e+01, 0.0000000000000000e+00, 0.0000000000000000e+00
178, 6.7000000000000000e+01, 0.0000000000000000e+00, 0.0000000000000000e+00
179, 6.7000000000000000e+01, 1.0000000000000000e+00, 0.0000000000000000e+00
180, 6.6000000000000000e+01, 1.0000000000000000e+00, 0.0000000000000000e+00
181, 6.6000000000000000e+01, 0.0000000000000000e+00, 1.0000000000000000e+00
182, 6.7000000000000000e+01, 0.0000000000000000e+00, 1.0000000000000000e+00
183, 6.7000000000000000e+01, 1.0000000000000000e+00, 1.0000000000000000e+00
184, 6.6000000000000000e+01, 1.0000000000000000e+00, 1.0000000000000000e+00
185, 6.9000000000000000e+01, 0.0000000000000000e+00, 0.0000000000000000e+00
186, 7.0000000000000000e+01, 0.0000000000000000e+00, 0.0000000000000000e+00
187, 7.0000000000000000e+01, 1.0000000000000000e+00, 0.0000000000000000e+00
188, 6.9000000000000000e+01, 1.0000000000000000e+00, 0.0000000000000000e+00
189, 6.9000000000000000e+01, 0.0000000000000000e+00, 1.0000000000000000e+00
190, 7.0000000000000000e+01, 0.0000000000000000e+00, 1.0000000000000000e+00
191, 7.0000000000000000e+01, 1.0000000000000000e+00, 1.0000000000000000e+00
192, 6.9000000000000000e+01, 1.0000000000000000e+00, 1.0000000000000000e+00
193, 7.2000000000000000e+01, 0.0000000000000000e+00, 0.0000000000000000e+00
194, 7.3000000000000000e+01, 0.0000000000000000e+00, 0.0000000000000000e+00
195, 7.3000000000000000e+01, 1.0000000000000000e+00, 0.0000000000000000e+00
196, 7.2000000000000000e+01, 1.0000000000000000e+00, 0.0000000000000000e+00
197, 7.2000000000000000e+01, 0.0000000000000000e+00, 1.0000000000000000e+00
198, 7.3000000000000000e+01, 0.0000000000000000e+00, 1.0000000000000000e+00
199, 7.3000000000000000e+01, 1.0000000000000000e+00, 1.0000000000000000e+00
200, 7.2000000000000000e+01, 1.0000000000000000e+00, 1.0000000000000000e+00
201, 7.5000000000000000e+01, 0.0000000000000000e+00, 0.0000000000000000e+00
202, 7.6000000000000000e+01, 0.0000000000000000e+00, 0.0000000000000000e+00
203, 7.6000000000000000e+01, 1.0000000000000000e+00, 0.0000000000000000e+00
204, 7.5000000000000000e+01, 1.0000000000000000e+00, 0.0000000000000000e+00
205, 7.5000000000000000e+01, 0.0000000000000000e+00, 1.0000000000000000e+00
206, 7.6000000000000000e+01, 0.0000000000000000e+00, 1.0000000000000000e+00
207, 7.6000000000000000e+01, 1.0000000000000000e+00, 1.0000000000000000e+00
208, 7.5000000000000000e+01, 1.0000000000000000e+00, 1.0000000000000000e+00
209, 7.8000000000000000e+01, 0.0000000000000000e+00, 0.0000000000000000e+00
210, 7.9000000000000000e+01, 0.0000000000000000e+00, 0.0000000000000000e+00
211, 7.9000000000000000e+01, 1.0000000000000000e+00, 0.0000000000000000e+00
212, 7.8000000000000000e+01, 1.0000000000000000e+00, 0.0000000000000000e+00
213, 7.8000000000000000e+01, 0.0000000000000000e+00, 1.0000000000000000e+00
214, 7.9000000000000000e+01, 0.0000000000000000e+00, 1.0000000000000000e+00
215, 7.9000000000000000e+01, 1.0000000000000000e+00, 1.0000000000000000e+00
216, 7.8000000000000000e+01, 1.0000000000000000e+00, 1.0000000000000000e+00
217, 8.1000000000000000e+01, 0.0000000000000000e+00, 0.0000000000000000e+00
218, 8.2000000000000000e+01, 0.0000000000000000e+00, 0.0000000000000000e+00
219, 8.2000000000000000e+01, 1.0000000000000000e+00, 0.0000000000000000e+00
220, 8.1000000000000000e+01, 1.0000000000000000e+00, 0.0000000000000000e+00
221, 8.1000000000000000e+01, 0.0000000000000000e+00, 1.0000000000000000e+00
222, 8.2000000000000000e+01, 0.0000000000000000e+00, 1.0000000000000000e+00
223, 8.2000000000000000e+01, 1.0000000000000000e+00, 1.0000000000000000e+00
224, 8.1000000000000000e+01, 1.0000000000000000e+00, 1.0000000000000000e+00
225, 8.4000000000000000e+01, 0.0000000000000000e+00, 0.0000000000000000e+00
226, 8.5000000000000000e+01, 0.0000000000000000e+00, 0.0000000000000000e+00
227, 8.5000000000000000e+01, 1.0000000000000000e+00, 0.0000000000000000e+00
228, 8.4000000000000000e+01, 1.0000000000000000e+00, 0.0000000000000000e+00
229, 8.4000000000000000e+01, 0.0000000000000000e+00, 1.0000000000000000e+00
230, 8.5000000000000000e+01, 0.0000000000000000e+00, 1.0000000000000000e+00
231, 8.5000000000000000e+01, 1.0000000000000000e+00, 1.0000000000000000e+00
232, 8.4000000000000000e+01, 1.0000000000000000e+00, 1.0000000000000000e+00
233, 8.7000000000000000e+01, 0.0000000000000000e+00, 0.0000000000000000e+00
234, 8.8000000000000000e+01, 0.0000000000000000e+00, 0.0000000000000000e+00
235, 8.8000000000000000e+01, 1.0000000000000000e+00, 0.0000000000000000e+00
236, 8.7000000000000000e+01, 1.0000000000000000e+00, 0.0000000000000000e+00
237, 8.7000000000000000e+01, 0.0000000000000000e+00, 1.0000000000000000e+00
238, 8.8000000000000000e+01, 0.0000000000000000e+00, 1.0000000000000000e+00
239, 8.8000000000000000e+01, 1.0000000000000000e+00, 1.0000000000000000e+00
240, 8.7000000000000000e+01, 1.0000000000000000e+00, 1.0000000000000000e+00
241, 9.0000000000000000e+01, 0.0000000000000000e+00, 0.0000000000000000e+00
242, 9.1000000000000000e+01, 0.0000000000000000e+00, 0.0000000000000000e+00
243, 9.1000000000000000e+01, 1.0000000000000000e+00, 0.0000000000000000e+00
244, 9.0000000000000000e+01, 1.0000000000000000e+00, 0.0000000000000000e+00
245, 9.0000000000000000e+01, 0.0000000000000000e+00, 1.0000000000000000e+00
246, 9.1000000000000000e+01, 0.0000000000000000e+00, 1.0000000000000000e+00
247, 9.1000000000000000e+01, 1.0000000000000000e+00, 1.0000000000000000e+00
248, 9.0000000000000000e+01, 1.0000000000000000e+00, 1.0000000000000000e+00
249, 9.3000000000000000e+01, 0.0000000000000000e+00, 0.0000000000000000e+00
250, 9.4000000000000000e+01, 0.0000000000000000e+00, 0.0000000000000000e+00
251, 9.4000000000000000e+01, 1.0000000000000000e+00, 0.0000000000000000e+00
252, 9.3000000000000000e+01, 1.0000000000000000e+00, 0.0000000000000000e+00
253, 9.3000000000000000e+01, 0.0000000000000000e+00, 1.0000000000000000e+00
254, 9.4000000000000000e+01, 0.0000000000000000e+00, 1.0000000000000000e+00
255, 9.4000000000000000e+01, 1.0000000000000000e+00, 1.0000000000000000e+00
256, 9.3000000000000000e+01, 1.0000000000000000e+00, 1.0000000000000000e+00
257, 9.6000000000000000e+01, 0.0000000000000000e+00, 0.0000000000000000e+00
258, 9.7000000000000000e+01, 0.0000000000000000e+00, 0.0000000000000000e+00
259, 9.7000000000000000e+01, 1.0000000000000000e+00, 0.0000000000000000e+00
260, 9.6000000000000000e+01, 1.0000000000000000e+00, 0.0000000000000000e+00
261, 9.6000000000000000e+01, 0.0000000000000000e+00, 1.0000000000000000e+00
262, 9.7000000000000000e+01, 0.0000000000000000e+00, 1.0000000000000000e+00
263, 9.7000000000000000e+01, 1.0000000000000000e+00, 1.0000000000000000e+00
264, 9.6000000000000000e+01, 1.0000000000000000e+00, 1.0000000000000000e+00
265, 9.9000000000000000e+01, 0.0000000000000000e+00, 0.0000000000000000e+00
266, 1.0000000000000000e+02, 0.0000000000000000e+00, 0.0000000000000000e+00
267, 1.0000000000000000e+02, 1.0000000000000000e+00, 0.0000000000000000e+00
268, 9.9000000000000000e+01, 1.0000000000000000e+00, 0.0000000000000000e+00
269, 9.9000000000000000e+01, 0.0000000000000000e+00, 1.0000000000000000e+00
270, 1.0000000000000000e+02, 0.0000000000000000e+00, 1.0000000000000000e+00
271, 1.0000000000000000e+02, 1.0000000000000000e+00, 1.0000000000000000e+00
272, 9.9000000000000000e+01, 1.0000000000000000e+00, 1.0000000000000000e+00
273, 1.0200000000000000e+02, 0.0000000000000000e+00, 0.0000000000000000e+00
274, 1.0300000000000000e+02, 0.0000000000000000e+00, 0.0000000000000000e+00
275, 1.0300000000000000e+02, 1.0000000000000000e+00, 0.0000000000000000e+00
276, 1.0200000000000000e+02, 1.0000000000000000e+00, 0.0000000000000000e+00
277, 1.0200000000000000e+02, 0.0000000000000000e+00, 1.0000000000000000e+00
278, 1.0300000000000000e+02, 0.0000000000000000e+00, 1.0000000000000000e+00
279, 1.0300000000000000e+02, 1.0000000000000000e+00, 1.0000000000000000e+00
280, 1.0200000000000000e+02, 1.0000000000000000e+00, 1.0000000000000000e+00
281, 1.0500000000000000e+02, 0.0000000000000000e+00, 0.0000000000000000e+00
282, 1.0600000000000000e+02, 0.0000000000000000e+00, 0.0000000000000000e+00
283, 1.0600000000000000e+02, 1.0000000000000000e+00, 0.0000000000000000e+00
284, 1.0500000000000000e+02, 1.0000000000000000e+00, 0.0000000000000000e+00
285, 1.0500000000000000e+02, 0.0000000000000000e+00, 1.0000000000000000e+00
286, 1.0600000000000000e+02, 0.0000000000000000e+00, 1.0000000000000000e+00
287, 1.0600000000000000e+02, 1.0000000000000000e+00, 1.0000000000000000e+00
288, 1.0500000000000000e+02, 1.0000000000000000e+00, 1.0000000000000000e+00
289, 1.0800000000000000e+02, 0.0000000000000000e+00, 0.0000000000000000e+00
290, 1.0900000000000000e+02, 0.0000000000000000e+00, 0.0000000000000000e+00
291, 1.0900000000000000e+02, 1.0000000000000000e+00, 0.0000000000000000e+00
292, 1.0800000000000000e+02, 1.0000000000000000e+00, 0.0000000000000000e+00
293, 1.0800000000000000e+02, 0.0000000000000000e+00, 1.0000000000000000e+00
294, 1.0900000000000000e+02, 0.0000000000000000e+00, 1.0000000000000000e+00
295, 1.0900000000000000e+02, 1.0000000000000000e+00, 1.0000000000000000e+00
296, 1.0800000000000000e+02, 1.0000000000000000e+00, 1.0000000000000000e+00
297, 1.1100000000000000e+02, 0.0000000000000000e+00, 0.0000000000000000e+00
298, 1.1200000000000000e+02, 0.0000000000000000e+00, 0.0000000000000000e+00
299, 1.1200000000000000e+02, 1.0000000000000000e+00, 0.0000000000000000e+00
300, 1.1100000000000000e+02, 1.0000000000000000e+00, 0.0000000000000000e+00
301, 1.1100000000000000e+02, 0.0000000000000000e+00, 1.0000000000000000e+00
302, 1.1200000000000000e+02, 0.0000000000000000e+00, 1.0000000000000000e+00
303, 1.1200000000000000e+02, 1.0000000000000000e+00, 1.0000000000000000e+00
304, 1.1100000000000000e+02, 1.0000000000000000e+00, 1.0000000000000000e+00
305, 1.1400000000000000e+02, 0.0000000000000000e+00, 0.0000000000000000e+00
306, 1.1500000000000000e+02, 0.0000000000000000e+00, 0.0000000000000000e+00
307, 1.1500000000000000e+02, 1.0000000000000000e+00, 0.0000000000000000e+00
308, 1.1400000000000000e+02, 1.0000000000000000e+00, 0.0000000000000000e+00
309, 1.1400000000000000e+02, 0.0000000000000000e+00, 1.0000000000000000e+00
310, 1.1500000000000000e+02, 0.0000000000000000e+00, 1.0000000000000000e+00
311, 1.1500000000000000e+02, 1.0000000000000000e+00, 1.0000000000000000e+00
312, 1.1400000000000000e+02, 1.0000000000000000e+00, 1.0000000000000000e+00
313, 1.1700000000000000e+02, 0.0000000000000000e+00, 0.0000000000000000e+00
314, 1.1800000000000000e+02, 0.0000000000000000e+00, 0.0000000000000000e+00
315, 1.1800000000000000e+02, 1.0000000000000000e+00, 0.0000000000000000e+00
316, 1.1700000000000000e+02, 1.0000000000000000e+00, 0.0000000000000000e+00
317, 1.1700000000000000e+02, 0.0000000000000000e+00, 1.0000000000000000e+00
318, 1.1800000000000000e+02, 0.0000000000000000e+00, 1.0000000000000000e+00
319, 1.1800000000000000e+02, 1.0000000000000000e+00, 1.0000000000000000e+00
320, 1.1700000000000000e+02, 1.0000000000000000e+00, 1.0000000000000000e+00
321, 1.2000000000000000e+02, 0.0000000000000000e+00, 0.0000000000000000e+00
322, 1.2100000000000000e+02, 0.0000000000000000e+00, 0.0000000000000000e+00
323, 1.2100000000000000e+02, 1.0000000000000000e+00, 0.0000000000000000e+00
324, 1.2000000000000000e+02, 1.0000000000000000e+00, 0.0000000000000000e+00
325, 1.2000000000000000e+02, 0.0000000000000000e+00, 1.0000000000000000e+00
326, 1.2100000000000000e+02, 0.0000000000000000e+00, 1.0000000000000000e+00
327, 1.2100000000000000e+02, 1.0000000000000000e+00, 1.0000000000000000e+00
328, 1.2000000000000000e+02, 1.0000000000000000e+00, 1.0000000000000000e+00
329, 1.2300000000000000e+02, 0.0000000000000000e+00, 0.0000000000000000e+00
330, 1.2400000000000000e+02, 0.0000000000000000e+00, 0.0000000000000000e+00
331, 1.2400000000000000e+02, 1.0000000000000000e+00, 0.0000000000000000e+00
332, 1.2300000000000000e+02, 1.0000000000000000e+00, 0.0000000000000000e+00
333, 1.2300000000000000e+02, 0.0000000000000000e+00, 1.0000000000000000e+00
334, 1.2400000000000000e+02, 0.0000000000000000e+00, 1.0000000000000000e+00
335, 1.2400000000000000e+02, 1.0000000000000000e+00, 1.0000000000000000e+00
336, 1.2300000000000000e+02, 1.0000000000000000e+00, 1.0000000000000000e+00
337, 1.2600000000000000e+02, 0.0000000000000000e+00, 0.0000000000000000e+00
338, 1.2700000000000000e+02, 0.0000000000000000e+00, 0.0000000000000000e+00
339, 1.2700000000000000e+02, 1.0000000000000000e+00, 0.0000000000000000e+00
340, 1.2600000000000000e+02, 1.0000000000000000e+00, 0.0000000000000000e+00
341, 1.2600000000000000e+02, 0.0000000000000000e+00, 1.0000000000000000e+00
342, 1.2700000000000000e+02, 0.0000000000000000e+00, 1.0000000000000000e+00
343, 1.2700000000000000e+02, 1.0000000000000000e+00, 1.0000000000000000e+00
344, 1.2600000000000000e+02, 1.0000000000000000e+00, 1.0000000000000000e+00
345, 1.2900000000000000e+02, 0.0000000000000000e+00, 0.0000000000000000e+00
346, 1.3000000000000000e+02, 0.0000000000000000e+00, 0.0000000000000000e+00
347, 1.3000000000000000e+02, 1.0000000000000000e+00, 0.0000000000000000e+00
348, 1.2900000000000000e+02, 1.0000000000000000e+00, 0.0000000000000000e+00
349, 1.2900000000000000e+02, 0.0000000000000000e+00, 1.0000000000000000e+00
350, 1.3000000000000000e+02, 0.0000000000000000e+00, 1.0000000000000000e+00
351, 1.3000000000000000e+02, 1.0000000000000000e+00, 1.0000000000000000e+00
352, 1.2900000000000000e+02, 1.0000000000000000e+00, 1.0000000000000000e+00
353, 1.3200000000000000e+02, 0.0000000000000000e+00, 0.0000000000000000e+00
354, 1.3300000000000000e+02, 0.0000000000000000e+00, 0.0000000000000000e+00
355, 1.3300000000000000e+02, 1.0000000000000000e+00, 0.0000000000000000e+00
356, 1.3200000000000000e+02, 1.0000000000000000e+00, 0.0000000000000000e+00
357, 1.3200000000000000e+02, 0.0000000000000000e+00, 1.0000000000000000e+00
358, 1.3300000000000000e+02, 0.0000000000000000e+00, 1.0000000000000000e+00
359, 1.3300000000000000e+02, 1.0000000000000000e+00, 1.0000000000000000e+00
360, 1.3200000000000000e+02, 1.0000000000000000e+00, 1.0000000000000000e+00
361, 1.3500000000000000e+02, 0.0000000000000000e+00, 0.0000000000000000e+00
362, 1.3600000000000000e+02, 0.0000000000000000e+00, 0.0000000000000000e+00
363, 1.3600000000000000e+02, 1.0000000000000000e+00, 0.0000000000000000e+00
364, 1.3500000000000000e+02, 1.0000000000000000e+00, 0.0000000000000000e+00
365, 1.3500000000000000e+02, 0.0000000000000000e+00, 1.0000000000000000e+00
366, 1.3600000000000000e+02, 0.0000000000000000e+00, 1.0000000000000000e+00
367, 1.3600000000000000e+02, 1.0000000000000000e+00, 1.0000000000000000e+00
368, 1.3500000000000000e+02, 1.0000000000000000e+00, 1.0000000000000000e+00
369, 1.3800000000000000e+02, 0.0000000000000000e+00, 0.0000000000000000e+00
370, 1.3900000000000000e+02, 0.0000000000000000e+00, 0.0000000000000000e+00
371, 1.3900000000000000e+02, 1.0000000000000000e+00, 0.0000000000000000e+00
372, 1.3800000000000000e+02, 1.0000000000000000e+00, 0.0000000000000000e+00
373, 1.3800000000000000e+02, 0.0000000000000000e+00, 1.0000000000000000e+00
374, 1.3900000000000000e+02, 0.0000000000000000e+00, 1.0000000000000000e+00
375, 1.3900000000000000e+02, 1.0000000000000000e+00, 1.0000000000000000e+00
376, 1.3800000000000000e+02, 1.0000000000000000e+00, 1.0000000000000000e+00
377, 1.4100000000000000e+02, 0.0000000000000000e+00, 0.0000000000000000e+00
378, 1.4200000000000000e+02, 0.0000000000000000e+00, 0.0000000000000000e+00
379, 1.4200000000000000e+02, 1.0000000000000000e+00, 0.0000000000000000e+00
380, 1.4100000000000000e+02, 1.0000000000000000e+00, 0.0000000000000000e+00
381, 1.4100000000000000e+02, 0.0000000000000000e+00, 1.0000000000000000e+00
382, 1.4200000000000000e+02, 0.0000000000000000e+00, 1.0000000000000000e+00
383, 1.4200000000000000e+02, 1.0000000000000000e+00, 1.0000000000000000e+00
384, 1.4100000000000000e+02, 1.0000000000000000e+00, 1.0000000000000000e+00
385, 1.4400000000000000e+02, 0.0000000000000000e+00, 0.0000000000000000e+00
386, 1.4500000000000000e+02, 0.0000000000000000e+00, 0.0000000000000000e+00
387, 1.4500000000000000e+02, 1.0000000000000000e+00, 0.0000000000000000e+00
388, 1.4400000000000000e+02, 1.0000000000000000e+00, 0.0000000000000000e+00
389, 1.4400000000000000e+02, 0.0000000000000000e+00, 1.0000000000000000e+00
390, 1.4500000000000000e+02, 0.0000000000000000e+00, 1.0000000000000000e+00
391, 1.4500000000000000e+02, 1.0000000000000000e+00, 1.0000000000000000e+00
392, 1.4400000000000000e+02, 1.0000000000000000e+00, 1.0000000000000000e+00
393, 1.4700000000000000e+02, 0.0000000000000000e+00, 0.0000000000000000e+00
394, 1.4800000000000000e+02, 0.0000000000000000e+00, 0.0000000000000000e+00
395, 1.4800000000000000e+02, 1.0000000000000000e+00, 0.0000000000000000e+00
396, 1.4700000000000000e+02, 1.0000000000000000e+00, 0.0000000000000000e+00
397, 1.4700000000000000e+02, 0.0000000000000000e+00, 1.0000000000000000e+00
398, 1.4800000000000000e+02, 0.0000000000000000e+00, 1.0000000000000000e+00
399, 1.4800000000000000e+02, 1.0000000000000000e+00, 1.0000000000000000e+00
400, 1.4700000000000000e+02, 1.0000000000000000e+00, 1.0000000000000000e+00
401, 1.5000000000000000e+02, 0.0000000000000000e+00, 0.0000000000000000e+00
402, 1.5100000000000000e+02, 0.0000000000000000e+00, 0.0000000000000000e+00
403, 1.5100000000000000e+02, 1.0000000000000000e+00, 0.0000000000000000e+00
404, 1.5000000000000000e+02, 1.0000000000000000e+00, 0.0000000000000000e+00
405, 1.5000000000000000e+02, 0.0000000000000000e+00, 1.0000000000000000e+00
406, 1.5100000000000000e+02, 0.0000000000000000e+00, 1.0000000000000000e+00
407, 1.5100000000000000e+02, 1.0000000000000000e+00, 1.0000000000000000e+00
408, 1.5000000000000000e+02, 1.0000000000000000e+00, 1.0000000000000000e+00
409, 1.5300000000000000e+02, 0.0000000000000000e+00, 0.0000000000000000e+00
410, 1.5400000000000000e+02, 0.0000000000000000e+00, 0.0000000000000000e+00
411, 1.5400000000000000e+02, 1.0000000000000000e+00, 0.0000000000000000e+00
412, 1.5300000000000000e+02, 1.0000000000000000e+00, 0.0000000000000000e+00
413, 1.5300000000000000e+02, 0.0000000000000000e+00, 1.0000000000000000e+00
414, 1.5400000000000000e+02, 0.0000000000000000e+00, 1.0000000000000000e+00
415, 1.5400000000000000e+02, 1.0000000000000000e+00, 1.0000000000000000e+00
416, 1.5300000000000000e+02, 1.0000000000000000e+00, 1.0000000000000000e+00
417, 1.5600000000000000e+02, 0.0000000000000000e+00, 0.0000000000000000e+00
418, 1.5700000000000000e+02, 0.0000000000000000e+00, 0.0000000000000000e+00
419, 1.5700000000000000e+02, 1.0000000000000000e+00, 0.0000000000000000e+00
420, 1.5600000000000000e+02, 1.0000000000000000e+00, 0.0000000000000000e+00
421, 1.5600000000000000e+02, 0.0000000000000000e+00, 1.0000000000000000e+00
422, 1.5700000000000000e+02, 0.0000000000000000e+00, 1.0000000000000000e+00
423, 1.5700000000000000e+02, 1.0000000000000000e+00, 1.0000000000000000e+00
424, 1.5600000000000000e+02, 1.0000000000000000e+00, 1.0000000000000000e+00
425, 1.5900000000000000e+02, 0.0000000000000000e+00, 0.0000000000000000e+00
426, 1.6000000000000000e+02, 0.0000000000000000e+00, 0.0000000000000000e+00
427, 1.6000000000000000e+02, 1.0000000000000000e+00, 0.0000000000000000e+00
428, 1.5900000000000000e+02, 1.0000000000000000e+00, 0.0000000000000000e+00
429, 1.5900000000000000e+02, 0.0000000000000000e+00, 1.0000000000000000e+00
430, 1.6000000000000000e+02, 0.0000000000000000e+00, 1.0000000000000000e+00
431, 1.6000000000000000e+02, 1.0000000000000000e+00, 1.0000000000000000e+00
432, 1.5900000000000000e+02, 1.0000000000000000e+00, 1.0000000000000000e+00
433, 1.6200000000000000e+02, 0.0000000000000000e+00, 0.0000000000000000e+00
434, 1.6300000000000000e+02, 0.0000000000000000e+00, 0.0000000000000000e+00
435, 1.6300000000000000e+02, 1.0000000000000000e+00, 0.0000000000000000e+00
436, 1.6200000000000000e+02, 1.0000000000000000e+00, 0.0000000000000000e+00
437, 1.6200000000000000e+02, 0.0000000000000000e+00, 1.0000000000000000e+00
438, 1.6300000000000000e+02, 0.0000000000000000e+00, 1.0000000000000000e+00
439, 1.6300000000000000e+02, 1.0000000000000000e+00, 1.0000000000000000e+00
440, 1.6200000000000000e+02, 1.0000000000000000e+00, 1.0000000000000000e+00
441, 1.6500000000000000e+02, 0.0000000000000000e+00, 0.0000000000000000e+00
442, 1.6600000000000000e+02, 0.0000000000000000e+00, 0.0000000000000000e+00
443, 1.6600000000000000e+02, 1.0000000000000000e+00, 0.0000000000000000e+00
444, 1.6500000000000000e+02, 1.0000000000000000e+00, 0.0000000000000000e+00
445, 1.6500000000000000e+02, 0.0000000000000000e+00, 1.0000000000000000e+00
446, 1.6600000000000000e+02, 0.0000000000000000e+00, 1.0000000000000000e+00
447, 1.6600000000000000e+02, 1.0000000000000000e+00, 1.0000000000000000e+00
448, 1.6500000000000000e+02, 1.0000000000000000e+00, 1.0000000000000000e+00
449, 1.6800000000000000e+02, 0.0000000000000000e+00, 0.0000000000000000e+00
450, 1.6900000000000000e+02, 0.0000000000000000e+00, 0.0000000000000000e+00
451, 1.6900000000000000e+02, 1.0000000000000000e+00, 0.0000000000000000e+00
452, 1.6800000000000000e+02, 1.0000000000000000e+00, 0.0000000000000000e+00
453, 1.6800000000000000e+02, 0.0000000000000000e+00, 1.0000000000000000e+00
454, 1.6900000000000000e+02, 0.0000000000000000e+00, 1.0000000000000000e+00
455, 1.6900000000000000e+02, 1.0000000000000000e+00, 1.0000000000000000e+00
456, 1.6800000000000000e+02, 1.0000000000000000e+00, 1.0000000000000000e+00
457, 1.7100000000000000e+02, 0.0000000000000000e+00, 0.0000000000000000e+00
458, 1.7200000000000000e+02, 0.0000000000000000e+00, 0.0000000000000000e+00
459, 1.7200000000000000e+02, 1.0000000000000000e+00, 0.0000000000000000e+00
460, 1.7100000000000000e+02, 1.0000000000000000e+00, 0.0000000000000000e+00
461, 1.7100000000000000e+02, 0.0000000000000000e+00, 1.0000000000000000e+00
462, 1.7200000000000000e+02, 0.0000000000000000e+00, 1.0000000000000000e+00
463, 1.7200000000000000e+02, 1.0000000000000000e+00, 1.0000000000000000e+00
464, 1.7100000000000000e+02, 1.0000000000000000e+00, 1.0000000000000000e+00
465, 1.7400000000000000e+02, 0.0000000000000000e+00, 0.0000000000000000e+00
466, 1.7500000000000000e+02, 0.0000000000000000e+00, 0.0000000000000000e+00
467, 1.7500000000000000e+02, 1.0000000000000000e+00, 0.0000000000000000e+00
468, 1.7400000000000000e+02, 1.0000000000000000e+00, 0.0000000000000000e+00
469, 1.7400000000000000e+02, 0.0000000000000000e+00, 1.0000000000000000e+00
470, 1.7500000000000000e+02, 0.0000000000000000e+00, 1.0000000000000000e+00
471, 1.7500000000000000e+02, 1.0000000000000000e+00, 1.0000000000000000e+00
472, 1.7400000000000000e+02, 1.0000000000000000e+00, 1.0000000000000000e+00
473, 1.7700000000000000e+02, 0.0000000000000000e+00, 0.0000000000000000e+00
474, 1.7800000000000000e+02, 0.0000000000000000e+00, 0.0000000000000000e+00
475, 1.7800000000000000e+02, 1.0000000000000000e+00, 0.0000000000000000e+00
476, 1.7700000000000000e+02, 1.0000000000000000e+00, 0.0000000000000000e+00
477, 1.7700000000000000e+02, 0.0000000000000000e+00, 1.0000000000000000e+00
478, 1.7800000000000000e+02, 0.0000000000000000e+00, 1.0000000000000000e+00
479, 1.7800000000000000e+02, 1.0000000000000000e+00, 1.0000000000000000e+00
480, 1.7700000000000000e+02, 1.0000000000000000e+00, 1.0000000000000000e+00
481, 1.8000000000000000e+02, 0.0000000000000000e+00, 0.0000000000000000e+00
482, 1.8100000000000000e+02, 0.0000000000000000e+00, 0.0000000000000000e+00
483, 1.8100000000000000e+02, 1.0000000000000000e+00, 0.0000000000000000e+00
484, 1.8000000000000000e+02, 1.0000000000000000e+00, 0.0000000000000000e+00
485, 1.8000000000000000e+02, 0.0000000000000000e+00, 1.0000000000000000e+00
486, 1.8100000000000000e+02, 0.0000000000000000e+00, 1.0000000000000000e+00
487, 1.8100000000000000e+02, 1.0000000000000000e+00, 1.0000000000000000e+00
488, 1.8000000000000000e+02, 1.0000000000000000e+00, 1.0000000000000000e+00
489, 1.8300000000000000e+02, 0.0000000000000000e+00, 0.0000000000000000e+00
490, 1.8400000000000000e+02, 0.0000000000000000e+00, 0.0000000000000000e+00
491, 1.8400000000000000e+02, 1.0000000000000000e+00, 0.0000000000000000e+00
492, 1.8300000000000000e+02, 1.0000000000000000e+00, 0.0000000000000000e+00
493, 1.8300000000000000e+02, 0.0000000000000000e+00, 1.0000000000000000e+00
494, 1.8400000000000000e+02, 0.0000000000000000e+00, 1.0000000000000000e+00
495, 1.8400000000000000e+02, 1.0000000000000000e+00, 1.0000000000000000e+00
496, 1.8300000000000000e+02, 1.0000000000000000e+00, 1.0000000000000000e+00
497, 1.8600000000000000e+02, 0.0000000000000000e+00, 0.0000000000000000e+00
498, 1.8700000000000000e+02, 0.0000000000000000e+00, 0.0000000000000000e+00
499, 1.8700000000000000e+02, 1.0000000000000000e+00, 0.0000000000000000e+00
500, 1.8600000000000000e+02, 1.0000000000000000e+00, 0.0000000000000000e+00
501, 1.8600000000000000e+02, 0.0000000000000000e+00, 1.0000000000000000e+00
502, 1.8700000000000000e+02, 0.0000000000000000e+00, 1.0000000000000000e+00
503, 1.8700000000000000e+02, 1.0000000000000000e+00, 1.0000000000000000e+00
504, 1.8600000000000000e+02, 1.0000000000000000e+00, 1.0000000000000000e+00
505, 1.8900000000000000e+02, 0.0000000000000000e+00, 0.0000000000000000e+00
506, 1.9000000000000000e+02, 0.0000000000000000e+00, 0.0000000000000000e+00
507, 1.9000000000000000e+02, 1.0000000000000000e+00, 0.0000000000000000e+00
508, 1.8900000000000000e+02, 1.0000000000000000e+00, 0.0000000000000000e+00
509, 1.8900000000000000e+02, 0.0000000000000000e+00, 1.0000000000000000e+00
510, 1.9000000000000000e+02, 0.0000000000000000e+00, 1.0000000000000000e+00
511, 1.9000000000000000e+02, 1.0000000000000000e+00, 1.0000000000000000e+00
512, 1.8900000000000000e+02, 1.0000000000000000e+00, 1.0000000000000000e+00
513, 1.9200000000000000e+02, 0.0000000000000000e+00, 0.0000000000000000e+00
514, 1.9300000000000000e+02, 0.0000000000000000e+00, 0.0000000000000000e+00
515, 1.9300000000000000e+02, 1.0000000000000000e+00, 0.0000000000000000e+00
516, 1.9200000000000000e+02, 1.0000000000000000e+00, 0.0000000000000000e+00
517, 1.9200000000000000e+02, 0.0000000000000000e+00, 1.0000000000000000e+00
518, 1.9300000000000000e+02, 0.0000000000000000e+00, 1.0000000000000000e+00
519, 1.9300000000000000e+02, 1.0000000000000000e+00, 1.0000000000000000e+00
520, 1.9200000000000000e+02, 1.0000000000000000e+00, 1.0000000000000000e+00
*Element, type=C3D8RT, elset=VOLUME
1, 1, 2, 3, 4, 5, 6, 7, 8
2, 9, 10, 11, 12, 13, 14, 15, 16
3, 17, 18, 19, 20, 21, 22, 23, 24
4, 25, 26, 27, 28, 29, 30, 31, 32
5, 33, 34, 35, 36, 37, 38, 39, 40
6, 41, 42, 43, 44, 45, 46, 47, 48
7, 49, 50, 51, 52, 53, 54, 55, 56
8, 57, 58, 59, 60, 61, 62, 63, 64
9, 65, 66, 67, 68, 69, 70, 71, 72
10, 73, 74, 75, 76, 77, 78, 79, 80
11, 81, 82, 83, 84, 85, 86, 87, 88
12, 89, 90, 91, 92, 93, 94, 95, 96
13, 97, 98, 99, 100, 101, 102, 103, 104
14, 105, 106, 107, 108, 109, 110, 111, 112
15, 113, 114, 115, 116, 117, 118, 119, 120
16, 121, 122, 123, 124, 125, 126, 127, 128
17, 129, 130, 131, 132, 133, 134, 135, 136
18, 137, 138, 139, 140, 141, 142, 143, 144
19, 145, 146, 147, 148, 149, 150, 151, 152
20, 153, 154, 155, 156, 157, 158, 159, 160
21, 161, 162, 163, 164, 165, 166, 167, 168
22, 169, 170, 171, 172, 173, 174, 175, 176
23, 177, 178, 179, 180, 181, 182, 183, 184
24, 185, 186, 187, 188, 189, 190, 191, 192
25, 193, 194, 195, 196, 197, 198, 199, 200
26, 201, 202, 203, 204, 205, 206, 207, 208
27, 209, 210, 211, 212, 213, 214, 215, 216
28, 217, 218, 219, 220, 221, 222, 223, 224
29, 225, 226, 227, 228, 229, 230, 231, 232
30, 233, 234, 235, 236, 237, 238, 239, 240
31, 241, 242, 243, 244, 245, 246, 247, 248
32, 249, 250, 251, 252, 253, 254, 255, 256
33, 257, 258, 259, 260, 261, 262, 263, 264
34, 265, 266, 267, 268, 269, 270, 271, 272
35, 273, 274, 275, 276, 277, 278, 279, 280
36, 281, 282, 283, 284, 285, 286, 287, 288
37, 289, 290, 291, 292, 293, 294, 295, 296
38, 297, 298, 299, 300, 301, 302, 303, 304
39, 305, 306, 307, 308, 309, 310, 311, 312
40, 313, 314, 315, 316, 317, 318, 319, 320
41, 321, 322, 323, 324, 325, 326, 327, 328
42, 329, 330, 331, 332, 333, 334, 335, 336
43, 337, 338, 339, 340, 341, 342, 343, 344
44, 345, 346, 347, 348, 349, 350, 351, 352
45, 353, 354, 355, 356, 357, 358, 359, 360
46, 361, 362, 363, 364, 365, 366, 367, 368
47, 369, 370, 371, 372, 373, 374, 375, 376
48, 377, 378, 379, 380, 381, 382, 383, 384
49, 385, 386, 387, 388, 389, 390, 391, 392
50, 393, 394, 395, 396, 397, 398, 399, 400
51, 401, 402, 403, 404, 405, 406, 407, 408
52, 409, 410, 411, 412, 413, 414, 415, 416
53, 417, 418, 419, 420, 421, 422, 423, 424
54, 425, 426, 427, 428, 429, 430, 431, 432
55, 433, 434, 435, 436, 437, 438, 439, 440
56, 441, 442, 443, 444, 445, 446, 447, 448
57, 449, 450, 451, 452, 453, 454, 455, 456
58, 457, 458, 459, 460, 461, 462, 463, 464
59, 465, 466, 467, 468, 469, 470, 471, 472
60, 473, 474, 475, 476, 477, 478, 479, 480
61, 481, 482, 483, 484, 485, 486, 487, 488
62, 489, 490, 491, 492, 493, 494, 495, 496
63, 497, 498, 499, 500, 501, 502, 503, 504
64, 505, 506, 507, 508, 509, 510, 511, 512
65, 513, 514, 515, 516, 517, 518, 519, 520
*Nset, nset=ALL_NODES, generate
1, 520, 1
*Material, name=THERMOELASTIC
*Elastic
2.0000000000000000e11, 2.5000000000000000e-1
*Expansion, zero=3.0000000000000000e2
1.2000000000000000e-5
*Conductivity
4.0000000000000000e0
*Density
2.0000000000000000e3
*Specific Heat
3.0000000000000000e3
*Solid Section, elset=VOLUME, material=THERMOELASTIC
,
*Initial Conditions, type=TEMPERATURE
ALL_NODES, 3.0000000000000000e2
*Step, name=FINITE_OPERATOR, nlgeom=YES, inc=1
*Coupled Temperature-Displacement, steady state
1.0, 1.0, 1.0e-8, 1.0
*Boundary
1, 11, 11, 3.6000000000000000e+02
1, 1, 1, 0.0000000000000000e+00
1, 2, 2, 0.0000000000000000e+00
1, 3, 3, 0.0000000000000000e+00
2, 11, 11, 4.1000000000000000e+02
2, 1, 1, 4.8000000000000001e-02
2, 2, 2, -8.0000000000000002e-03
2, 3, 3, 1.2000000000000000e-02
3, 11, 11, 4.4500000000000000e+02
3, 1, 1, 6.8000000000000005e-02
3, 2, 2, 3.5999999999999997e-02
3, 3, 3, -1.6000000000000000e-02
4, 11, 11, 3.8500000000000000e+02
4, 1, 1, -1.6000000000000000e-02
4, 2, 2, 4.3999999999999997e-02
4, 3, 3, 8.0000000000000002e-03
5, 11, 11, 4.7000000000000000e+02
5, 1, 1, 1.2000000000000000e-02
5, 2, 2, -2.0000000000000000e-02
5, 3, 3, 5.6000000000000001e-02
6, 11, 11, 4.3000000000000000e+02
6, 1, 1, 4.0000000000000001e-02
6, 2, 2, 1.6000000000000000e-02
6, 3, 3, 4.0000000000000001e-02
7, 11, 11, 5.1500000000000000e+02
7, 1, 1, 9.1999999999999998e-02
7, 2, 2, 6.4000000000000001e-02
7, 3, 3, 7.1999999999999995e-02
8, 11, 11, 4.5500000000000000e+02
8, 1, 1, -3.2000000000000001e-02
8, 2, 2, 2.8000000000000001e-02
8, 3, 3, 4.3999999999999997e-02
9, 11, 11, 3.6000099999999998e+02
9, 1, 1, 0.0000000000000000e+00
9, 2, 2, 0.0000000000000000e+00
9, 3, 3, 0.0000000000000000e+00
10, 11, 11, 4.1000000000000000e+02
10, 1, 1, 4.8000000000000001e-02
10, 2, 2, -8.0000000000000002e-03
10, 3, 3, 1.2000000000000000e-02
11, 11, 11, 4.4500000000000000e+02
11, 1, 1, 6.8000000000000005e-02
11, 2, 2, 3.5999999999999997e-02
11, 3, 3, -1.6000000000000000e-02
12, 11, 11, 3.8500000000000000e+02
12, 1, 1, -1.6000000000000000e-02
12, 2, 2, 4.3999999999999997e-02
12, 3, 3, 8.0000000000000002e-03
13, 11, 11, 4.7000000000000000e+02
13, 1, 1, 1.2000000000000000e-02
13, 2, 2, -2.0000000000000000e-02
13, 3, 3, 5.6000000000000001e-02
14, 11, 11, 4.3000000000000000e+02
14, 1, 1, 4.0000000000000001e-02
14, 2, 2, 1.6000000000000000e-02
14, 3, 3, 4.0000000000000001e-02
15, 11, 11, 5.1500000000000000e+02
15, 1, 1, 9.1999999999999998e-02
15, 2, 2, 6.4000000000000001e-02
15, 3, 3, 7.1999999999999995e-02
16, 11, 11, 4.5500000000000000e+02
16, 1, 1, -3.2000000000000001e-02
16, 2, 2, 2.8000000000000001e-02
16, 3, 3, 4.3999999999999997e-02
17, 11, 11, 3.5999900000000002e+02
17, 1, 1, 0.0000000000000000e+00
17, 2, 2, 0.0000000000000000e+00
17, 3, 3, 0.0000000000000000e+00
18, 11, 11, 4.1000000000000000e+02
18, 1, 1, 4.8000000000000001e-02
18, 2, 2, -8.0000000000000002e-03
18, 3, 3, 1.2000000000000000e-02
19, 11, 11, 4.4500000000000000e+02
19, 1, 1, 6.8000000000000005e-02
19, 2, 2, 3.5999999999999997e-02
19, 3, 3, -1.6000000000000000e-02
20, 11, 11, 3.8500000000000000e+02
20, 1, 1, -1.6000000000000000e-02
20, 2, 2, 4.3999999999999997e-02
20, 3, 3, 8.0000000000000002e-03
21, 11, 11, 4.7000000000000000e+02
21, 1, 1, 1.2000000000000000e-02
21, 2, 2, -2.0000000000000000e-02
21, 3, 3, 5.6000000000000001e-02
22, 11, 11, 4.3000000000000000e+02
22, 1, 1, 4.0000000000000001e-02
22, 2, 2, 1.6000000000000000e-02
22, 3, 3, 4.0000000000000001e-02
23, 11, 11, 5.1500000000000000e+02
23, 1, 1, 9.1999999999999998e-02
23, 2, 2, 6.4000000000000001e-02
23, 3, 3, 7.1999999999999995e-02
24, 11, 11, 4.5500000000000000e+02
24, 1, 1, -3.2000000000000001e-02
24, 2, 2, 2.8000000000000001e-02
24, 3, 3, 4.3999999999999997e-02
25, 11, 11, 3.6000000000000000e+02
25, 1, 1, 0.0000000000000000e+00
25, 2, 2, 0.0000000000000000e+00
25, 3, 3, 0.0000000000000000e+00
26, 11, 11, 4.1000099999999998e+02
26, 1, 1, 4.8000000000000001e-02
26, 2, 2, -8.0000000000000002e-03
26, 3, 3, 1.2000000000000000e-02
27, 11, 11, 4.4500000000000000e+02
27, 1, 1, 6.8000000000000005e-02
27, 2, 2, 3.5999999999999997e-02
27, 3, 3, -1.6000000000000000e-02
28, 11, 11, 3.8500000000000000e+02
28, 1, 1, -1.6000000000000000e-02
28, 2, 2, 4.3999999999999997e-02
28, 3, 3, 8.0000000000000002e-03
29, 11, 11, 4.7000000000000000e+02
29, 1, 1, 1.2000000000000000e-02
29, 2, 2, -2.0000000000000000e-02
29, 3, 3, 5.6000000000000001e-02
30, 11, 11, 4.3000000000000000e+02
30, 1, 1, 4.0000000000000001e-02
30, 2, 2, 1.6000000000000000e-02
30, 3, 3, 4.0000000000000001e-02
31, 11, 11, 5.1500000000000000e+02
31, 1, 1, 9.1999999999999998e-02
31, 2, 2, 6.4000000000000001e-02
31, 3, 3, 7.1999999999999995e-02
32, 11, 11, 4.5500000000000000e+02
32, 1, 1, -3.2000000000000001e-02
32, 2, 2, 2.8000000000000001e-02
32, 3, 3, 4.3999999999999997e-02
33, 11, 11, 3.6000000000000000e+02
33, 1, 1, 0.0000000000000000e+00
33, 2, 2, 0.0000000000000000e+00
33, 3, 3, 0.0000000000000000e+00
34, 11, 11, 4.0999900000000002e+02
34, 1, 1, 4.8000000000000001e-02
34, 2, 2, -8.0000000000000002e-03
34, 3, 3, 1.2000000000000000e-02
35, 11, 11, 4.4500000000000000e+02
35, 1, 1, 6.8000000000000005e-02
35, 2, 2, 3.5999999999999997e-02
35, 3, 3, -1.6000000000000000e-02
36, 11, 11, 3.8500000000000000e+02
36, 1, 1, -1.6000000000000000e-02
36, 2, 2, 4.3999999999999997e-02
36, 3, 3, 8.0000000000000002e-03
37, 11, 11, 4.7000000000000000e+02
37, 1, 1, 1.2000000000000000e-02
37, 2, 2, -2.0000000000000000e-02
37, 3, 3, 5.6000000000000001e-02
38, 11, 11, 4.3000000000000000e+02
38, 1, 1, 4.0000000000000001e-02
38, 2, 2, 1.6000000000000000e-02
38, 3, 3, 4.0000000000000001e-02
39, 11, 11, 5.1500000000000000e+02
39, 1, 1, 9.1999999999999998e-02
39, 2, 2, 6.4000000000000001e-02
39, 3, 3, 7.1999999999999995e-02
40, 11, 11, 4.5500000000000000e+02
40, 1, 1, -3.2000000000000001e-02
40, 2, 2, 2.8000000000000001e-02
40, 3, 3, 4.3999999999999997e-02
41, 11, 11, 3.6000000000000000e+02
41, 1, 1, 0.0000000000000000e+00
41, 2, 2, 0.0000000000000000e+00
41, 3, 3, 0.0000000000000000e+00
42, 11, 11, 4.1000000000000000e+02
42, 1, 1, 4.8000000000000001e-02
42, 2, 2, -8.0000000000000002e-03
42, 3, 3, 1.2000000000000000e-02
43, 11, 11, 4.4500099999999998e+02
43, 1, 1, 6.8000000000000005e-02
43, 2, 2, 3.5999999999999997e-02
43, 3, 3, -1.6000000000000000e-02
44, 11, 11, 3.8500000000000000e+02
44, 1, 1, -1.6000000000000000e-02
44, 2, 2, 4.3999999999999997e-02
44, 3, 3, 8.0000000000000002e-03
45, 11, 11, 4.7000000000000000e+02
45, 1, 1, 1.2000000000000000e-02
45, 2, 2, -2.0000000000000000e-02
45, 3, 3, 5.6000000000000001e-02
46, 11, 11, 4.3000000000000000e+02
46, 1, 1, 4.0000000000000001e-02
46, 2, 2, 1.6000000000000000e-02
46, 3, 3, 4.0000000000000001e-02
47, 11, 11, 5.1500000000000000e+02
47, 1, 1, 9.1999999999999998e-02
47, 2, 2, 6.4000000000000001e-02
47, 3, 3, 7.1999999999999995e-02
48, 11, 11, 4.5500000000000000e+02
48, 1, 1, -3.2000000000000001e-02
48, 2, 2, 2.8000000000000001e-02
48, 3, 3, 4.3999999999999997e-02
49, 11, 11, 3.6000000000000000e+02
49, 1, 1, 0.0000000000000000e+00
49, 2, 2, 0.0000000000000000e+00
49, 3, 3, 0.0000000000000000e+00
50, 11, 11, 4.1000000000000000e+02
50, 1, 1, 4.8000000000000001e-02
50, 2, 2, -8.0000000000000002e-03
50, 3, 3, 1.2000000000000000e-02
51, 11, 11, 4.4499900000000002e+02
51, 1, 1, 6.8000000000000005e-02
51, 2, 2, 3.5999999999999997e-02
51, 3, 3, -1.6000000000000000e-02
52, 11, 11, 3.8500000000000000e+02
52, 1, 1, -1.6000000000000000e-02
52, 2, 2, 4.3999999999999997e-02
52, 3, 3, 8.0000000000000002e-03
53, 11, 11, 4.7000000000000000e+02
53, 1, 1, 1.2000000000000000e-02
53, 2, 2, -2.0000000000000000e-02
53, 3, 3, 5.6000000000000001e-02
54, 11, 11, 4.3000000000000000e+02
54, 1, 1, 4.0000000000000001e-02
54, 2, 2, 1.6000000000000000e-02
54, 3, 3, 4.0000000000000001e-02
55, 11, 11, 5.1500000000000000e+02
55, 1, 1, 9.1999999999999998e-02
55, 2, 2, 6.4000000000000001e-02
55, 3, 3, 7.1999999999999995e-02
56, 11, 11, 4.5500000000000000e+02
56, 1, 1, -3.2000000000000001e-02
56, 2, 2, 2.8000000000000001e-02
56, 3, 3, 4.3999999999999997e-02
57, 11, 11, 3.6000000000000000e+02
57, 1, 1, 0.0000000000000000e+00
57, 2, 2, 0.0000000000000000e+00
57, 3, 3, 0.0000000000000000e+00
58, 11, 11, 4.1000000000000000e+02
58, 1, 1, 4.8000000000000001e-02
58, 2, 2, -8.0000000000000002e-03
58, 3, 3, 1.2000000000000000e-02
59, 11, 11, 4.4500000000000000e+02
59, 1, 1, 6.8000000000000005e-02
59, 2, 2, 3.5999999999999997e-02
59, 3, 3, -1.6000000000000000e-02
60, 11, 11, 3.8500099999999998e+02
60, 1, 1, -1.6000000000000000e-02
60, 2, 2, 4.3999999999999997e-02
60, 3, 3, 8.0000000000000002e-03
61, 11, 11, 4.7000000000000000e+02
61, 1, 1, 1.2000000000000000e-02
61, 2, 2, -2.0000000000000000e-02
61, 3, 3, 5.6000000000000001e-02
62, 11, 11, 4.3000000000000000e+02
62, 1, 1, 4.0000000000000001e-02
62, 2, 2, 1.6000000000000000e-02
62, 3, 3, 4.0000000000000001e-02
63, 11, 11, 5.1500000000000000e+02
63, 1, 1, 9.1999999999999998e-02
63, 2, 2, 6.4000000000000001e-02
63, 3, 3, 7.1999999999999995e-02
64, 11, 11, 4.5500000000000000e+02
64, 1, 1, -3.2000000000000001e-02
64, 2, 2, 2.8000000000000001e-02
64, 3, 3, 4.3999999999999997e-02
65, 11, 11, 3.6000000000000000e+02
65, 1, 1, 0.0000000000000000e+00
65, 2, 2, 0.0000000000000000e+00
65, 3, 3, 0.0000000000000000e+00
66, 11, 11, 4.1000000000000000e+02
66, 1, 1, 4.8000000000000001e-02
66, 2, 2, -8.0000000000000002e-03
66, 3, 3, 1.2000000000000000e-02
67, 11, 11, 4.4500000000000000e+02
67, 1, 1, 6.8000000000000005e-02
67, 2, 2, 3.5999999999999997e-02
67, 3, 3, -1.6000000000000000e-02
68, 11, 11, 3.8499900000000002e+02
68, 1, 1, -1.6000000000000000e-02
68, 2, 2, 4.3999999999999997e-02
68, 3, 3, 8.0000000000000002e-03
69, 11, 11, 4.7000000000000000e+02
69, 1, 1, 1.2000000000000000e-02
69, 2, 2, -2.0000000000000000e-02
69, 3, 3, 5.6000000000000001e-02
70, 11, 11, 4.3000000000000000e+02
70, 1, 1, 4.0000000000000001e-02
70, 2, 2, 1.6000000000000000e-02
70, 3, 3, 4.0000000000000001e-02
71, 11, 11, 5.1500000000000000e+02
71, 1, 1, 9.1999999999999998e-02
71, 2, 2, 6.4000000000000001e-02
71, 3, 3, 7.1999999999999995e-02
72, 11, 11, 4.5500000000000000e+02
72, 1, 1, -3.2000000000000001e-02
72, 2, 2, 2.8000000000000001e-02
72, 3, 3, 4.3999999999999997e-02
73, 11, 11, 3.6000000000000000e+02
73, 1, 1, 0.0000000000000000e+00
73, 2, 2, 0.0000000000000000e+00
73, 3, 3, 0.0000000000000000e+00
74, 11, 11, 4.1000000000000000e+02
74, 1, 1, 4.8000000000000001e-02
74, 2, 2, -8.0000000000000002e-03
74, 3, 3, 1.2000000000000000e-02
75, 11, 11, 4.4500000000000000e+02
75, 1, 1, 6.8000000000000005e-02
75, 2, 2, 3.5999999999999997e-02
75, 3, 3, -1.6000000000000000e-02
76, 11, 11, 3.8500000000000000e+02
76, 1, 1, -1.6000000000000000e-02
76, 2, 2, 4.3999999999999997e-02
76, 3, 3, 8.0000000000000002e-03
77, 11, 11, 4.7000099999999998e+02
77, 1, 1, 1.2000000000000000e-02
77, 2, 2, -2.0000000000000000e-02
77, 3, 3, 5.6000000000000001e-02
78, 11, 11, 4.3000000000000000e+02
78, 1, 1, 4.0000000000000001e-02
78, 2, 2, 1.6000000000000000e-02
78, 3, 3, 4.0000000000000001e-02
79, 11, 11, 5.1500000000000000e+02
79, 1, 1, 9.1999999999999998e-02
79, 2, 2, 6.4000000000000001e-02
79, 3, 3, 7.1999999999999995e-02
80, 11, 11, 4.5500000000000000e+02
80, 1, 1, -3.2000000000000001e-02
80, 2, 2, 2.8000000000000001e-02
80, 3, 3, 4.3999999999999997e-02
81, 11, 11, 3.6000000000000000e+02
81, 1, 1, 0.0000000000000000e+00
81, 2, 2, 0.0000000000000000e+00
81, 3, 3, 0.0000000000000000e+00
82, 11, 11, 4.1000000000000000e+02
82, 1, 1, 4.8000000000000001e-02
82, 2, 2, -8.0000000000000002e-03
82, 3, 3, 1.2000000000000000e-02
83, 11, 11, 4.4500000000000000e+02
83, 1, 1, 6.8000000000000005e-02
83, 2, 2, 3.5999999999999997e-02
83, 3, 3, -1.6000000000000000e-02
84, 11, 11, 3.8500000000000000e+02
84, 1, 1, -1.6000000000000000e-02
84, 2, 2, 4.3999999999999997e-02
84, 3, 3, 8.0000000000000002e-03
85, 11, 11, 4.6999900000000002e+02
85, 1, 1, 1.2000000000000000e-02
85, 2, 2, -2.0000000000000000e-02
85, 3, 3, 5.6000000000000001e-02
86, 11, 11, 4.3000000000000000e+02
86, 1, 1, 4.0000000000000001e-02
86, 2, 2, 1.6000000000000000e-02
86, 3, 3, 4.0000000000000001e-02
87, 11, 11, 5.1500000000000000e+02
87, 1, 1, 9.1999999999999998e-02
87, 2, 2, 6.4000000000000001e-02
87, 3, 3, 7.1999999999999995e-02
88, 11, 11, 4.5500000000000000e+02
88, 1, 1, -3.2000000000000001e-02
88, 2, 2, 2.8000000000000001e-02
88, 3, 3, 4.3999999999999997e-02
89, 11, 11, 3.6000000000000000e+02
89, 1, 1, 0.0000000000000000e+00
89, 2, 2, 0.0000000000000000e+00
89, 3, 3, 0.0000000000000000e+00
90, 11, 11, 4.1000000000000000e+02
90, 1, 1, 4.8000000000000001e-02
90, 2, 2, -8.0000000000000002e-03
90, 3, 3, 1.2000000000000000e-02
91, 11, 11, 4.4500000000000000e+02
91, 1, 1, 6.8000000000000005e-02
91, 2, 2, 3.5999999999999997e-02
91, 3, 3, -1.6000000000000000e-02
92, 11, 11, 3.8500000000000000e+02
92, 1, 1, -1.6000000000000000e-02
92, 2, 2, 4.3999999999999997e-02
92, 3, 3, 8.0000000000000002e-03
93, 11, 11, 4.7000000000000000e+02
93, 1, 1, 1.2000000000000000e-02
93, 2, 2, -2.0000000000000000e-02
93, 3, 3, 5.6000000000000001e-02
94, 11, 11, 4.3000099999999998e+02
94, 1, 1, 4.0000000000000001e-02
94, 2, 2, 1.6000000000000000e-02
94, 3, 3, 4.0000000000000001e-02
95, 11, 11, 5.1500000000000000e+02
95, 1, 1, 9.1999999999999998e-02
95, 2, 2, 6.4000000000000001e-02
95, 3, 3, 7.1999999999999995e-02
96, 11, 11, 4.5500000000000000e+02
96, 1, 1, -3.2000000000000001e-02
96, 2, 2, 2.8000000000000001e-02
96, 3, 3, 4.3999999999999997e-02
97, 11, 11, 3.6000000000000000e+02
97, 1, 1, 0.0000000000000000e+00
97, 2, 2, 0.0000000000000000e+00
97, 3, 3, 0.0000000000000000e+00
98, 11, 11, 4.1000000000000000e+02
98, 1, 1, 4.8000000000000001e-02
98, 2, 2, -8.0000000000000002e-03
98, 3, 3, 1.2000000000000000e-02
99, 11, 11, 4.4500000000000000e+02
99, 1, 1, 6.8000000000000005e-02
99, 2, 2, 3.5999999999999997e-02
99, 3, 3, -1.6000000000000000e-02
100, 11, 11, 3.8500000000000000e+02
100, 1, 1, -1.6000000000000000e-02
100, 2, 2, 4.3999999999999997e-02
100, 3, 3, 8.0000000000000002e-03
101, 11, 11, 4.7000000000000000e+02
101, 1, 1, 1.2000000000000000e-02
101, 2, 2, -2.0000000000000000e-02
101, 3, 3, 5.6000000000000001e-02
102, 11, 11, 4.2999900000000002e+02
102, 1, 1, 4.0000000000000001e-02
102, 2, 2, 1.6000000000000000e-02
102, 3, 3, 4.0000000000000001e-02
103, 11, 11, 5.1500000000000000e+02
103, 1, 1, 9.1999999999999998e-02
103, 2, 2, 6.4000000000000001e-02
103, 3, 3, 7.1999999999999995e-02
104, 11, 11, 4.5500000000000000e+02
104, 1, 1, -3.2000000000000001e-02
104, 2, 2, 2.8000000000000001e-02
104, 3, 3, 4.3999999999999997e-02
105, 11, 11, 3.6000000000000000e+02
105, 1, 1, 0.0000000000000000e+00
105, 2, 2, 0.0000000000000000e+00
105, 3, 3, 0.0000000000000000e+00
106, 11, 11, 4.1000000000000000e+02
106, 1, 1, 4.8000000000000001e-02
106, 2, 2, -8.0000000000000002e-03
106, 3, 3, 1.2000000000000000e-02
107, 11, 11, 4.4500000000000000e+02
107, 1, 1, 6.8000000000000005e-02
107, 2, 2, 3.5999999999999997e-02
107, 3, 3, -1.6000000000000000e-02
108, 11, 11, 3.8500000000000000e+02
108, 1, 1, -1.6000000000000000e-02
108, 2, 2, 4.3999999999999997e-02
108, 3, 3, 8.0000000000000002e-03
109, 11, 11, 4.7000000000000000e+02
109, 1, 1, 1.2000000000000000e-02
109, 2, 2, -2.0000000000000000e-02
109, 3, 3, 5.6000000000000001e-02
110, 11, 11, 4.3000000000000000e+02
110, 1, 1, 4.0000000000000001e-02
110, 2, 2, 1.6000000000000000e-02
110, 3, 3, 4.0000000000000001e-02
111, 11, 11, 5.1500099999999998e+02
111, 1, 1, 9.1999999999999998e-02
111, 2, 2, 6.4000000000000001e-02
111, 3, 3, 7.1999999999999995e-02
112, 11, 11, 4.5500000000000000e+02
112, 1, 1, -3.2000000000000001e-02
112, 2, 2, 2.8000000000000001e-02
112, 3, 3, 4.3999999999999997e-02
113, 11, 11, 3.6000000000000000e+02
113, 1, 1, 0.0000000000000000e+00
113, 2, 2, 0.0000000000000000e+00
113, 3, 3, 0.0000000000000000e+00
114, 11, 11, 4.1000000000000000e+02
114, 1, 1, 4.8000000000000001e-02
114, 2, 2, -8.0000000000000002e-03
114, 3, 3, 1.2000000000000000e-02
115, 11, 11, 4.4500000000000000e+02
115, 1, 1, 6.8000000000000005e-02
115, 2, 2, 3.5999999999999997e-02
115, 3, 3, -1.6000000000000000e-02
116, 11, 11, 3.8500000000000000e+02
116, 1, 1, -1.6000000000000000e-02
116, 2, 2, 4.3999999999999997e-02
116, 3, 3, 8.0000000000000002e-03
117, 11, 11, 4.7000000000000000e+02
117, 1, 1, 1.2000000000000000e-02
117, 2, 2, -2.0000000000000000e-02
117, 3, 3, 5.6000000000000001e-02
118, 11, 11, 4.3000000000000000e+02
118, 1, 1, 4.0000000000000001e-02
118, 2, 2, 1.6000000000000000e-02
118, 3, 3, 4.0000000000000001e-02
119, 11, 11, 5.1499900000000002e+02
119, 1, 1, 9.1999999999999998e-02
119, 2, 2, 6.4000000000000001e-02
119, 3, 3, 7.1999999999999995e-02
120, 11, 11, 4.5500000000000000e+02
120, 1, 1, -3.2000000000000001e-02
120, 2, 2, 2.8000000000000001e-02
120, 3, 3, 4.3999999999999997e-02
121, 11, 11, 3.6000000000000000e+02
121, 1, 1, 0.0000000000000000e+00
121, 2, 2, 0.0000000000000000e+00
121, 3, 3, 0.0000000000000000e+00
122, 11, 11, 4.1000000000000000e+02
122, 1, 1, 4.8000000000000001e-02
122, 2, 2, -8.0000000000000002e-03
122, 3, 3, 1.2000000000000000e-02
123, 11, 11, 4.4500000000000000e+02
123, 1, 1, 6.8000000000000005e-02
123, 2, 2, 3.5999999999999997e-02
123, 3, 3, -1.6000000000000000e-02
124, 11, 11, 3.8500000000000000e+02
124, 1, 1, -1.6000000000000000e-02
124, 2, 2, 4.3999999999999997e-02
124, 3, 3, 8.0000000000000002e-03
125, 11, 11, 4.7000000000000000e+02
125, 1, 1, 1.2000000000000000e-02
125, 2, 2, -2.0000000000000000e-02
125, 3, 3, 5.6000000000000001e-02
126, 11, 11, 4.3000000000000000e+02
126, 1, 1, 4.0000000000000001e-02
126, 2, 2, 1.6000000000000000e-02
126, 3, 3, 4.0000000000000001e-02
127, 11, 11, 5.1500000000000000e+02
127, 1, 1, 9.1999999999999998e-02
127, 2, 2, 6.4000000000000001e-02
127, 3, 3, 7.1999999999999995e-02
128, 11, 11, 4.5500099999999998e+02
128, 1, 1, -3.2000000000000001e-02
128, 2, 2, 2.8000000000000001e-02
128, 3, 3, 4.3999999999999997e-02
129, 11, 11, 3.6000000000000000e+02
129, 1, 1, 0.0000000000000000e+00
129, 2, 2, 0.0000000000000000e+00
129, 3, 3, 0.0000000000000000e+00
130, 11, 11, 4.1000000000000000e+02
130, 1, 1, 4.8000000000000001e-02
130, 2, 2, -8.0000000000000002e-03
130, 3, 3, 1.2000000000000000e-02
131, 11, 11, 4.4500000000000000e+02
131, 1, 1, 6.8000000000000005e-02
131, 2, 2, 3.5999999999999997e-02
131, 3, 3, -1.6000000000000000e-02
132, 11, 11, 3.8500000000000000e+02
132, 1, 1, -1.6000000000000000e-02
132, 2, 2, 4.3999999999999997e-02
132, 3, 3, 8.0000000000000002e-03
133, 11, 11, 4.7000000000000000e+02
133, 1, 1, 1.2000000000000000e-02
133, 2, 2, -2.0000000000000000e-02
133, 3, 3, 5.6000000000000001e-02
134, 11, 11, 4.3000000000000000e+02
134, 1, 1, 4.0000000000000001e-02
134, 2, 2, 1.6000000000000000e-02
134, 3, 3, 4.0000000000000001e-02
135, 11, 11, 5.1500000000000000e+02
135, 1, 1, 9.1999999999999998e-02
135, 2, 2, 6.4000000000000001e-02
135, 3, 3, 7.1999999999999995e-02
136, 11, 11, 4.5499900000000002e+02
136, 1, 1, -3.2000000000000001e-02
136, 2, 2, 2.8000000000000001e-02
136, 3, 3, 4.3999999999999997e-02
137, 11, 11, 3.6000000000000000e+02
137, 1, 1, 9.9999999999999995e-08
137, 2, 2, 0.0000000000000000e+00
137, 3, 3, 0.0000000000000000e+00
138, 11, 11, 4.1000000000000000e+02
138, 1, 1, 4.8000000000000001e-02
138, 2, 2, -8.0000000000000002e-03
138, 3, 3, 1.2000000000000000e-02
139, 11, 11, 4.4500000000000000e+02
139, 1, 1, 6.8000000000000005e-02
139, 2, 2, 3.5999999999999997e-02
139, 3, 3, -1.6000000000000000e-02
140, 11, 11, 3.8500000000000000e+02
140, 1, 1, -1.6000000000000000e-02
140, 2, 2, 4.3999999999999997e-02
140, 3, 3, 8.0000000000000002e-03
141, 11, 11, 4.7000000000000000e+02
141, 1, 1, 1.2000000000000000e-02
141, 2, 2, -2.0000000000000000e-02
141, 3, 3, 5.6000000000000001e-02
142, 11, 11, 4.3000000000000000e+02
142, 1, 1, 4.0000000000000001e-02
142, 2, 2, 1.6000000000000000e-02
142, 3, 3, 4.0000000000000001e-02
143, 11, 11, 5.1500000000000000e+02
143, 1, 1, 9.1999999999999998e-02
143, 2, 2, 6.4000000000000001e-02
143, 3, 3, 7.1999999999999995e-02
144, 11, 11, 4.5500000000000000e+02
144, 1, 1, -3.2000000000000001e-02
144, 2, 2, 2.8000000000000001e-02
144, 3, 3, 4.3999999999999997e-02
145, 11, 11, 3.6000000000000000e+02
145, 1, 1, -9.9999999999999995e-08
145, 2, 2, 0.0000000000000000e+00
145, 3, 3, 0.0000000000000000e+00
146, 11, 11, 4.1000000000000000e+02
146, 1, 1, 4.8000000000000001e-02
146, 2, 2, -8.0000000000000002e-03
146, 3, 3, 1.2000000000000000e-02
147, 11, 11, 4.4500000000000000e+02
147, 1, 1, 6.8000000000000005e-02
147, 2, 2, 3.5999999999999997e-02
147, 3, 3, -1.6000000000000000e-02
148, 11, 11, 3.8500000000000000e+02
148, 1, 1, -1.6000000000000000e-02
148, 2, 2, 4.3999999999999997e-02
148, 3, 3, 8.0000000000000002e-03
149, 11, 11, 4.7000000000000000e+02
149, 1, 1, 1.2000000000000000e-02
149, 2, 2, -2.0000000000000000e-02
149, 3, 3, 5.6000000000000001e-02
150, 11, 11, 4.3000000000000000e+02
150, 1, 1, 4.0000000000000001e-02
150, 2, 2, 1.6000000000000000e-02
150, 3, 3, 4.0000000000000001e-02
151, 11, 11, 5.1500000000000000e+02
151, 1, 1, 9.1999999999999998e-02
151, 2, 2, 6.4000000000000001e-02
151, 3, 3, 7.1999999999999995e-02
152, 11, 11, 4.5500000000000000e+02
152, 1, 1, -3.2000000000000001e-02
152, 2, 2, 2.8000000000000001e-02
152, 3, 3, 4.3999999999999997e-02
153, 11, 11, 3.6000000000000000e+02
153, 1, 1, 0.0000000000000000e+00
153, 2, 2, 0.0000000000000000e+00
153, 3, 3, 0.0000000000000000e+00
154, 11, 11, 4.1000000000000000e+02
154, 1, 1, 4.8000100000000004e-02
154, 2, 2, -8.0000000000000002e-03
154, 3, 3, 1.2000000000000000e-02
155, 11, 11, 4.4500000000000000e+02
155, 1, 1, 6.8000000000000005e-02
155, 2, 2, 3.5999999999999997e-02
155, 3, 3, -1.6000000000000000e-02
156, 11, 11, 3.8500000000000000e+02
156, 1, 1, -1.6000000000000000e-02
156, 2, 2, 4.3999999999999997e-02
156, 3, 3, 8.0000000000000002e-03
157, 11, 11, 4.7000000000000000e+02
157, 1, 1, 1.2000000000000000e-02
157, 2, 2, -2.0000000000000000e-02
157, 3, 3, 5.6000000000000001e-02
158, 11, 11, 4.3000000000000000e+02
158, 1, 1, 4.0000000000000001e-02
158, 2, 2, 1.6000000000000000e-02
158, 3, 3, 4.0000000000000001e-02
159, 11, 11, 5.1500000000000000e+02
159, 1, 1, 9.1999999999999998e-02
159, 2, 2, 6.4000000000000001e-02
159, 3, 3, 7.1999999999999995e-02
160, 11, 11, 4.5500000000000000e+02
160, 1, 1, -3.2000000000000001e-02
160, 2, 2, 2.8000000000000001e-02
160, 3, 3, 4.3999999999999997e-02
161, 11, 11, 3.6000000000000000e+02
161, 1, 1, 0.0000000000000000e+00
161, 2, 2, 0.0000000000000000e+00
161, 3, 3, 0.0000000000000000e+00
162, 11, 11, 4.1000000000000000e+02
162, 1, 1, 4.7999899999999998e-02
162, 2, 2, -8.0000000000000002e-03
162, 3, 3, 1.2000000000000000e-02
163, 11, 11, 4.4500000000000000e+02
163, 1, 1, 6.8000000000000005e-02
163, 2, 2, 3.5999999999999997e-02
163, 3, 3, -1.6000000000000000e-02
164, 11, 11, 3.8500000000000000e+02
164, 1, 1, -1.6000000000000000e-02
164, 2, 2, 4.3999999999999997e-02
164, 3, 3, 8.0000000000000002e-03
165, 11, 11, 4.7000000000000000e+02
165, 1, 1, 1.2000000000000000e-02
165, 2, 2, -2.0000000000000000e-02
165, 3, 3, 5.6000000000000001e-02
166, 11, 11, 4.3000000000000000e+02
166, 1, 1, 4.0000000000000001e-02
166, 2, 2, 1.6000000000000000e-02
166, 3, 3, 4.0000000000000001e-02
167, 11, 11, 5.1500000000000000e+02
167, 1, 1, 9.1999999999999998e-02
167, 2, 2, 6.4000000000000001e-02
167, 3, 3, 7.1999999999999995e-02
168, 11, 11, 4.5500000000000000e+02
168, 1, 1, -3.2000000000000001e-02
168, 2, 2, 2.8000000000000001e-02
168, 3, 3, 4.3999999999999997e-02
169, 11, 11, 3.6000000000000000e+02
169, 1, 1, 0.0000000000000000e+00
169, 2, 2, 0.0000000000000000e+00
169, 3, 3, 0.0000000000000000e+00
170, 11, 11, 4.1000000000000000e+02
170, 1, 1, 4.8000000000000001e-02
170, 2, 2, -8.0000000000000002e-03
170, 3, 3, 1.2000000000000000e-02
171, 11, 11, 4.4500000000000000e+02
171, 1, 1, 6.8000100000000008e-02
171, 2, 2, 3.5999999999999997e-02
171, 3, 3, -1.6000000000000000e-02
172, 11, 11, 3.8500000000000000e+02
172, 1, 1, -1.6000000000000000e-02
172, 2, 2, 4.3999999999999997e-02
172, 3, 3, 8.0000000000000002e-03
173, 11, 11, 4.7000000000000000e+02
173, 1, 1, 1.2000000000000000e-02
173, 2, 2, -2.0000000000000000e-02
173, 3, 3, 5.6000000000000001e-02
174, 11, 11, 4.3000000000000000e+02
174, 1, 1, 4.0000000000000001e-02
174, 2, 2, 1.6000000000000000e-02
174, 3, 3, 4.0000000000000001e-02
175, 11, 11, 5.1500000000000000e+02
175, 1, 1, 9.1999999999999998e-02
175, 2, 2, 6.4000000000000001e-02
175, 3, 3, 7.1999999999999995e-02
176, 11, 11, 4.5500000000000000e+02
176, 1, 1, -3.2000000000000001e-02
176, 2, 2, 2.8000000000000001e-02
176, 3, 3, 4.3999999999999997e-02
177, 11, 11, 3.6000000000000000e+02
177, 1, 1, 0.0000000000000000e+00
177, 2, 2, 0.0000000000000000e+00
177, 3, 3, 0.0000000000000000e+00
178, 11, 11, 4.1000000000000000e+02
178, 1, 1, 4.8000000000000001e-02
178, 2, 2, -8.0000000000000002e-03
178, 3, 3, 1.2000000000000000e-02
179, 11, 11, 4.4500000000000000e+02
179, 1, 1, 6.7999900000000002e-02
179, 2, 2, 3.5999999999999997e-02
179, 3, 3, -1.6000000000000000e-02
180, 11, 11, 3.8500000000000000e+02
180, 1, 1, -1.6000000000000000e-02
180, 2, 2, 4.3999999999999997e-02
180, 3, 3, 8.0000000000000002e-03
181, 11, 11, 4.7000000000000000e+02
181, 1, 1, 1.2000000000000000e-02
181, 2, 2, -2.0000000000000000e-02
181, 3, 3, 5.6000000000000001e-02
182, 11, 11, 4.3000000000000000e+02
182, 1, 1, 4.0000000000000001e-02
182, 2, 2, 1.6000000000000000e-02
182, 3, 3, 4.0000000000000001e-02
183, 11, 11, 5.1500000000000000e+02
183, 1, 1, 9.1999999999999998e-02
183, 2, 2, 6.4000000000000001e-02
183, 3, 3, 7.1999999999999995e-02
184, 11, 11, 4.5500000000000000e+02
184, 1, 1, -3.2000000000000001e-02
184, 2, 2, 2.8000000000000001e-02
184, 3, 3, 4.3999999999999997e-02
185, 11, 11, 3.6000000000000000e+02
185, 1, 1, 0.0000000000000000e+00
185, 2, 2, 0.0000000000000000e+00
185, 3, 3, 0.0000000000000000e+00
186, 11, 11, 4.1000000000000000e+02
186, 1, 1, 4.8000000000000001e-02
186, 2, 2, -8.0000000000000002e-03
186, 3, 3, 1.2000000000000000e-02
187, 11, 11, 4.4500000000000000e+02
187, 1, 1, 6.8000000000000005e-02
187, 2, 2, 3.5999999999999997e-02
187, 3, 3, -1.6000000000000000e-02
188, 11, 11, 3.8500000000000000e+02
188, 1, 1, -1.5999900000000001e-02
188, 2, 2, 4.3999999999999997e-02
188, 3, 3, 8.0000000000000002e-03
189, 11, 11, 4.7000000000000000e+02
189, 1, 1, 1.2000000000000000e-02
189, 2, 2, -2.0000000000000000e-02
189, 3, 3, 5.6000000000000001e-02
190, 11, 11, 4.3000000000000000e+02
190, 1, 1, 4.0000000000000001e-02
190, 2, 2, 1.6000000000000000e-02
190, 3, 3, 4.0000000000000001e-02
191, 11, 11, 5.1500000000000000e+02
191, 1, 1, 9.1999999999999998e-02
191, 2, 2, 6.4000000000000001e-02
191, 3, 3, 7.1999999999999995e-02
192, 11, 11, 4.5500000000000000e+02
192, 1, 1, -3.2000000000000001e-02
192, 2, 2, 2.8000000000000001e-02
192, 3, 3, 4.3999999999999997e-02
193, 11, 11, 3.6000000000000000e+02
193, 1, 1, 0.0000000000000000e+00
193, 2, 2, 0.0000000000000000e+00
193, 3, 3, 0.0000000000000000e+00
194, 11, 11, 4.1000000000000000e+02
194, 1, 1, 4.8000000000000001e-02
194, 2, 2, -8.0000000000000002e-03
194, 3, 3, 1.2000000000000000e-02
195, 11, 11, 4.4500000000000000e+02
195, 1, 1, 6.8000000000000005e-02
195, 2, 2, 3.5999999999999997e-02
195, 3, 3, -1.6000000000000000e-02
196, 11, 11, 3.8500000000000000e+02
196, 1, 1, -1.6000100000000000e-02
196, 2, 2, 4.3999999999999997e-02
196, 3, 3, 8.0000000000000002e-03
197, 11, 11, 4.7000000000000000e+02
197, 1, 1, 1.2000000000000000e-02
197, 2, 2, -2.0000000000000000e-02
197, 3, 3, 5.6000000000000001e-02
198, 11, 11, 4.3000000000000000e+02
198, 1, 1, 4.0000000000000001e-02
198, 2, 2, 1.6000000000000000e-02
198, 3, 3, 4.0000000000000001e-02
199, 11, 11, 5.1500000000000000e+02
199, 1, 1, 9.1999999999999998e-02
199, 2, 2, 6.4000000000000001e-02
199, 3, 3, 7.1999999999999995e-02
200, 11, 11, 4.5500000000000000e+02
200, 1, 1, -3.2000000000000001e-02
200, 2, 2, 2.8000000000000001e-02
200, 3, 3, 4.3999999999999997e-02
201, 11, 11, 3.6000000000000000e+02
201, 1, 1, 0.0000000000000000e+00
201, 2, 2, 0.0000000000000000e+00
201, 3, 3, 0.0000000000000000e+00
202, 11, 11, 4.1000000000000000e+02
202, 1, 1, 4.8000000000000001e-02
202, 2, 2, -8.0000000000000002e-03
202, 3, 3, 1.2000000000000000e-02
203, 11, 11, 4.4500000000000000e+02
203, 1, 1, 6.8000000000000005e-02
203, 2, 2, 3.5999999999999997e-02
203, 3, 3, -1.6000000000000000e-02
204, 11, 11, 3.8500000000000000e+02
204, 1, 1, -1.6000000000000000e-02
204, 2, 2, 4.3999999999999997e-02
204, 3, 3, 8.0000000000000002e-03
205, 11, 11, 4.7000000000000000e+02
205, 1, 1, 1.2000100000000000e-02
205, 2, 2, -2.0000000000000000e-02
205, 3, 3, 5.6000000000000001e-02
206, 11, 11, 4.3000000000000000e+02
206, 1, 1, 4.0000000000000001e-02
206, 2, 2, 1.6000000000000000e-02
206, 3, 3, 4.0000000000000001e-02
207, 11, 11, 5.1500000000000000e+02
207, 1, 1, 9.1999999999999998e-02
207, 2, 2, 6.4000000000000001e-02
207, 3, 3, 7.1999999999999995e-02
208, 11, 11, 4.5500000000000000e+02
208, 1, 1, -3.2000000000000001e-02
208, 2, 2, 2.8000000000000001e-02
208, 3, 3, 4.3999999999999997e-02
209, 11, 11, 3.6000000000000000e+02
209, 1, 1, 0.0000000000000000e+00
209, 2, 2, 0.0000000000000000e+00
209, 3, 3, 0.0000000000000000e+00
210, 11, 11, 4.1000000000000000e+02
210, 1, 1, 4.8000000000000001e-02
210, 2, 2, -8.0000000000000002e-03
210, 3, 3, 1.2000000000000000e-02
211, 11, 11, 4.4500000000000000e+02
211, 1, 1, 6.8000000000000005e-02
211, 2, 2, 3.5999999999999997e-02
211, 3, 3, -1.6000000000000000e-02
212, 11, 11, 3.8500000000000000e+02
212, 1, 1, -1.6000000000000000e-02
212, 2, 2, 4.3999999999999997e-02
212, 3, 3, 8.0000000000000002e-03
213, 11, 11, 4.7000000000000000e+02
213, 1, 1, 1.1999900000000001e-02
213, 2, 2, -2.0000000000000000e-02
213, 3, 3, 5.6000000000000001e-02
214, 11, 11, 4.3000000000000000e+02
214, 1, 1, 4.0000000000000001e-02
214, 2, 2, 1.6000000000000000e-02
214, 3, 3, 4.0000000000000001e-02
215, 11, 11, 5.1500000000000000e+02
215, 1, 1, 9.1999999999999998e-02
215, 2, 2, 6.4000000000000001e-02
215, 3, 3, 7.1999999999999995e-02
216, 11, 11, 4.5500000000000000e+02
216, 1, 1, -3.2000000000000001e-02
216, 2, 2, 2.8000000000000001e-02
216, 3, 3, 4.3999999999999997e-02
217, 11, 11, 3.6000000000000000e+02
217, 1, 1, 0.0000000000000000e+00
217, 2, 2, 0.0000000000000000e+00
217, 3, 3, 0.0000000000000000e+00
218, 11, 11, 4.1000000000000000e+02
218, 1, 1, 4.8000000000000001e-02
218, 2, 2, -8.0000000000000002e-03
218, 3, 3, 1.2000000000000000e-02
219, 11, 11, 4.4500000000000000e+02
219, 1, 1, 6.8000000000000005e-02
219, 2, 2, 3.5999999999999997e-02
219, 3, 3, -1.6000000000000000e-02
220, 11, 11, 3.8500000000000000e+02
220, 1, 1, -1.6000000000000000e-02
220, 2, 2, 4.3999999999999997e-02
220, 3, 3, 8.0000000000000002e-03
221, 11, 11, 4.7000000000000000e+02
221, 1, 1, 1.2000000000000000e-02
221, 2, 2, -2.0000000000000000e-02
221, 3, 3, 5.6000000000000001e-02
222, 11, 11, 4.3000000000000000e+02
222, 1, 1, 4.0000100000000004e-02
222, 2, 2, 1.6000000000000000e-02
222, 3, 3, 4.0000000000000001e-02
223, 11, 11, 5.1500000000000000e+02
223, 1, 1, 9.1999999999999998e-02
223, 2, 2, 6.4000000000000001e-02
223, 3, 3, 7.1999999999999995e-02
224, 11, 11, 4.5500000000000000e+02
224, 1, 1, -3.2000000000000001e-02
224, 2, 2, 2.8000000000000001e-02
224, 3, 3, 4.3999999999999997e-02
225, 11, 11, 3.6000000000000000e+02
225, 1, 1, 0.0000000000000000e+00
225, 2, 2, 0.0000000000000000e+00
225, 3, 3, 0.0000000000000000e+00
226, 11, 11, 4.1000000000000000e+02
226, 1, 1, 4.8000000000000001e-02
226, 2, 2, -8.0000000000000002e-03
226, 3, 3, 1.2000000000000000e-02
227, 11, 11, 4.4500000000000000e+02
227, 1, 1, 6.8000000000000005e-02
227, 2, 2, 3.5999999999999997e-02
227, 3, 3, -1.6000000000000000e-02
228, 11, 11, 3.8500000000000000e+02
228, 1, 1, -1.6000000000000000e-02
228, 2, 2, 4.3999999999999997e-02
228, 3, 3, 8.0000000000000002e-03
229, 11, 11, 4.7000000000000000e+02
229, 1, 1, 1.2000000000000000e-02
229, 2, 2, -2.0000000000000000e-02
229, 3, 3, 5.6000000000000001e-02
230, 11, 11, 4.3000000000000000e+02
230, 1, 1, 3.9999899999999998e-02
230, 2, 2, 1.6000000000000000e-02
230, 3, 3, 4.0000000000000001e-02
231, 11, 11, 5.1500000000000000e+02
231, 1, 1, 9.1999999999999998e-02
231, 2, 2, 6.4000000000000001e-02
231, 3, 3, 7.1999999999999995e-02
232, 11, 11, 4.5500000000000000e+02
232, 1, 1, -3.2000000000000001e-02
232, 2, 2, 2.8000000000000001e-02
232, 3, 3, 4.3999999999999997e-02
233, 11, 11, 3.6000000000000000e+02
233, 1, 1, 0.0000000000000000e+00
233, 2, 2, 0.0000000000000000e+00
233, 3, 3, 0.0000000000000000e+00
234, 11, 11, 4.1000000000000000e+02
234, 1, 1, 4.8000000000000001e-02
234, 2, 2, -8.0000000000000002e-03
234, 3, 3, 1.2000000000000000e-02
235, 11, 11, 4.4500000000000000e+02
235, 1, 1, 6.8000000000000005e-02
235, 2, 2, 3.5999999999999997e-02
235, 3, 3, -1.6000000000000000e-02
236, 11, 11, 3.8500000000000000e+02
236, 1, 1, -1.6000000000000000e-02
236, 2, 2, 4.3999999999999997e-02
236, 3, 3, 8.0000000000000002e-03
237, 11, 11, 4.7000000000000000e+02
237, 1, 1, 1.2000000000000000e-02
237, 2, 2, -2.0000000000000000e-02
237, 3, 3, 5.6000000000000001e-02
238, 11, 11, 4.3000000000000000e+02
238, 1, 1, 4.0000000000000001e-02
238, 2, 2, 1.6000000000000000e-02
238, 3, 3, 4.0000000000000001e-02
239, 11, 11, 5.1500000000000000e+02
239, 1, 1, 9.2000100000000001e-02
239, 2, 2, 6.4000000000000001e-02
239, 3, 3, 7.1999999999999995e-02
240, 11, 11, 4.5500000000000000e+02
240, 1, 1, -3.2000000000000001e-02
240, 2, 2, 2.8000000000000001e-02
240, 3, 3, 4.3999999999999997e-02
241, 11, 11, 3.6000000000000000e+02
241, 1, 1, 0.0000000000000000e+00
241, 2, 2, 0.0000000000000000e+00
241, 3, 3, 0.0000000000000000e+00
242, 11, 11, 4.1000000000000000e+02
242, 1, 1, 4.8000000000000001e-02
242, 2, 2, -8.0000000000000002e-03
242, 3, 3, 1.2000000000000000e-02
243, 11, 11, 4.4500000000000000e+02
243, 1, 1, 6.8000000000000005e-02
243, 2, 2, 3.5999999999999997e-02
243, 3, 3, -1.6000000000000000e-02
244, 11, 11, 3.8500000000000000e+02
244, 1, 1, -1.6000000000000000e-02
244, 2, 2, 4.3999999999999997e-02
244, 3, 3, 8.0000000000000002e-03
245, 11, 11, 4.7000000000000000e+02
245, 1, 1, 1.2000000000000000e-02
245, 2, 2, -2.0000000000000000e-02
245, 3, 3, 5.6000000000000001e-02
246, 11, 11, 4.3000000000000000e+02
246, 1, 1, 4.0000000000000001e-02
246, 2, 2, 1.6000000000000000e-02
246, 3, 3, 4.0000000000000001e-02
247, 11, 11, 5.1500000000000000e+02
247, 1, 1, 9.1999899999999996e-02
247, 2, 2, 6.4000000000000001e-02
247, 3, 3, 7.1999999999999995e-02
248, 11, 11, 4.5500000000000000e+02
248, 1, 1, -3.2000000000000001e-02
248, 2, 2, 2.8000000000000001e-02
248, 3, 3, 4.3999999999999997e-02
249, 11, 11, 3.6000000000000000e+02
249, 1, 1, 0.0000000000000000e+00
249, 2, 2, 0.0000000000000000e+00
249, 3, 3, 0.0000000000000000e+00
250, 11, 11, 4.1000000000000000e+02
250, 1, 1, 4.8000000000000001e-02
250, 2, 2, -8.0000000000000002e-03
250, 3, 3, 1.2000000000000000e-02
251, 11, 11, 4.4500000000000000e+02
251, 1, 1, 6.8000000000000005e-02
251, 2, 2, 3.5999999999999997e-02
251, 3, 3, -1.6000000000000000e-02
252, 11, 11, 3.8500000000000000e+02
252, 1, 1, -1.6000000000000000e-02
252, 2, 2, 4.3999999999999997e-02
252, 3, 3, 8.0000000000000002e-03
253, 11, 11, 4.7000000000000000e+02
253, 1, 1, 1.2000000000000000e-02
253, 2, 2, -2.0000000000000000e-02
253, 3, 3, 5.6000000000000001e-02
254, 11, 11, 4.3000000000000000e+02
254, 1, 1, 4.0000000000000001e-02
254, 2, 2, 1.6000000000000000e-02
254, 3, 3, 4.0000000000000001e-02
255, 11, 11, 5.1500000000000000e+02
255, 1, 1, 9.1999999999999998e-02
255, 2, 2, 6.4000000000000001e-02
255, 3, 3, 7.1999999999999995e-02
256, 11, 11, 4.5500000000000000e+02
256, 1, 1, -3.1999899999999998e-02
256, 2, 2, 2.8000000000000001e-02
256, 3, 3, 4.3999999999999997e-02
257, 11, 11, 3.6000000000000000e+02
257, 1, 1, 0.0000000000000000e+00
257, 2, 2, 0.0000000000000000e+00
257, 3, 3, 0.0000000000000000e+00
258, 11, 11, 4.1000000000000000e+02
258, 1, 1, 4.8000000000000001e-02
258, 2, 2, -8.0000000000000002e-03
258, 3, 3, 1.2000000000000000e-02
259, 11, 11, 4.4500000000000000e+02
259, 1, 1, 6.8000000000000005e-02
259, 2, 2, 3.5999999999999997e-02
259, 3, 3, -1.6000000000000000e-02
260, 11, 11, 3.8500000000000000e+02
260, 1, 1, -1.6000000000000000e-02
260, 2, 2, 4.3999999999999997e-02
260, 3, 3, 8.0000000000000002e-03
261, 11, 11, 4.7000000000000000e+02
261, 1, 1, 1.2000000000000000e-02
261, 2, 2, -2.0000000000000000e-02
261, 3, 3, 5.6000000000000001e-02
262, 11, 11, 4.3000000000000000e+02
262, 1, 1, 4.0000000000000001e-02
262, 2, 2, 1.6000000000000000e-02
262, 3, 3, 4.0000000000000001e-02
263, 11, 11, 5.1500000000000000e+02
263, 1, 1, 9.1999999999999998e-02
263, 2, 2, 6.4000000000000001e-02
263, 3, 3, 7.1999999999999995e-02
264, 11, 11, 4.5500000000000000e+02
264, 1, 1, -3.2000100000000004e-02
264, 2, 2, 2.8000000000000001e-02
264, 3, 3, 4.3999999999999997e-02
265, 11, 11, 3.6000000000000000e+02
265, 1, 1, 0.0000000000000000e+00
265, 2, 2, 9.9999999999999995e-08
265, 3, 3, 0.0000000000000000e+00
266, 11, 11, 4.1000000000000000e+02
266, 1, 1, 4.8000000000000001e-02
266, 2, 2, -8.0000000000000002e-03
266, 3, 3, 1.2000000000000000e-02
267, 11, 11, 4.4500000000000000e+02
267, 1, 1, 6.8000000000000005e-02
267, 2, 2, 3.5999999999999997e-02
267, 3, 3, -1.6000000000000000e-02
268, 11, 11, 3.8500000000000000e+02
268, 1, 1, -1.6000000000000000e-02
268, 2, 2, 4.3999999999999997e-02
268, 3, 3, 8.0000000000000002e-03
269, 11, 11, 4.7000000000000000e+02
269, 1, 1, 1.2000000000000000e-02
269, 2, 2, -2.0000000000000000e-02
269, 3, 3, 5.6000000000000001e-02
270, 11, 11, 4.3000000000000000e+02
270, 1, 1, 4.0000000000000001e-02
270, 2, 2, 1.6000000000000000e-02
270, 3, 3, 4.0000000000000001e-02
271, 11, 11, 5.1500000000000000e+02
271, 1, 1, 9.1999999999999998e-02
271, 2, 2, 6.4000000000000001e-02
271, 3, 3, 7.1999999999999995e-02
272, 11, 11, 4.5500000000000000e+02
272, 1, 1, -3.2000000000000001e-02
272, 2, 2, 2.8000000000000001e-02
272, 3, 3, 4.3999999999999997e-02
273, 11, 11, 3.6000000000000000e+02
273, 1, 1, 0.0000000000000000e+00
273, 2, 2, -9.9999999999999995e-08
273, 3, 3, 0.0000000000000000e+00
274, 11, 11, 4.1000000000000000e+02
274, 1, 1, 4.8000000000000001e-02
274, 2, 2, -8.0000000000000002e-03
274, 3, 3, 1.2000000000000000e-02
275, 11, 11, 4.4500000000000000e+02
275, 1, 1, 6.8000000000000005e-02
275, 2, 2, 3.5999999999999997e-02
275, 3, 3, -1.6000000000000000e-02
276, 11, 11, 3.8500000000000000e+02
276, 1, 1, -1.6000000000000000e-02
276, 2, 2, 4.3999999999999997e-02
276, 3, 3, 8.0000000000000002e-03
277, 11, 11, 4.7000000000000000e+02
277, 1, 1, 1.2000000000000000e-02
277, 2, 2, -2.0000000000000000e-02
277, 3, 3, 5.6000000000000001e-02
278, 11, 11, 4.3000000000000000e+02
278, 1, 1, 4.0000000000000001e-02
278, 2, 2, 1.6000000000000000e-02
278, 3, 3, 4.0000000000000001e-02
279, 11, 11, 5.1500000000000000e+02
279, 1, 1, 9.1999999999999998e-02
279, 2, 2, 6.4000000000000001e-02
279, 3, 3, 7.1999999999999995e-02
280, 11, 11, 4.5500000000000000e+02
280, 1, 1, -3.2000000000000001e-02
280, 2, 2, 2.8000000000000001e-02
280, 3, 3, 4.3999999999999997e-02
281, 11, 11, 3.6000000000000000e+02
281, 1, 1, 0.0000000000000000e+00
281, 2, 2, 0.0000000000000000e+00
281, 3, 3, 0.0000000000000000e+00
282, 11, 11, 4.1000000000000000e+02
282, 1, 1, 4.8000000000000001e-02
282, 2, 2, -7.9999000000000008e-03
282, 3, 3, 1.2000000000000000e-02
283, 11, 11, 4.4500000000000000e+02
283, 1, 1, 6.8000000000000005e-02
283, 2, 2, 3.5999999999999997e-02
283, 3, 3, -1.6000000000000000e-02
284, 11, 11, 3.8500000000000000e+02
284, 1, 1, -1.6000000000000000e-02
284, 2, 2, 4.3999999999999997e-02
284, 3, 3, 8.0000000000000002e-03
285, 11, 11, 4.7000000000000000e+02
285, 1, 1, 1.2000000000000000e-02
285, 2, 2, -2.0000000000000000e-02
285, 3, 3, 5.6000000000000001e-02
286, 11, 11, 4.3000000000000000e+02
286, 1, 1, 4.0000000000000001e-02
286, 2, 2, 1.6000000000000000e-02
286, 3, 3, 4.0000000000000001e-02
287, 11, 11, 5.1500000000000000e+02
287, 1, 1, 9.1999999999999998e-02
287, 2, 2, 6.4000000000000001e-02
287, 3, 3, 7.1999999999999995e-02
288, 11, 11, 4.5500000000000000e+02
288, 1, 1, -3.2000000000000001e-02
288, 2, 2, 2.8000000000000001e-02
288, 3, 3, 4.3999999999999997e-02
289, 11, 11, 3.6000000000000000e+02
289, 1, 1, 0.0000000000000000e+00
289, 2, 2, 0.0000000000000000e+00
289, 3, 3, 0.0000000000000000e+00
290, 11, 11, 4.1000000000000000e+02
290, 1, 1, 4.8000000000000001e-02
290, 2, 2, -8.0000999999999996e-03
290, 3, 3, 1.2000000000000000e-02
291, 11, 11, 4.4500000000000000e+02
291, 1, 1, 6.8000000000000005e-02
291, 2, 2, 3.5999999999999997e-02
291, 3, 3, -1.6000000000000000e-02
292, 11, 11, 3.8500000000000000e+02
292, 1, 1, -1.6000000000000000e-02
292, 2, 2, 4.3999999999999997e-02
292, 3, 3, 8.0000000000000002e-03
293, 11, 11, 4.7000000000000000e+02
293, 1, 1, 1.2000000000000000e-02
293, 2, 2, -2.0000000000000000e-02
293, 3, 3, 5.6000000000000001e-02
294, 11, 11, 4.3000000000000000e+02
294, 1, 1, 4.0000000000000001e-02
294, 2, 2, 1.6000000000000000e-02
294, 3, 3, 4.0000000000000001e-02
295, 11, 11, 5.1500000000000000e+02
295, 1, 1, 9.1999999999999998e-02
295, 2, 2, 6.4000000000000001e-02
295, 3, 3, 7.1999999999999995e-02
296, 11, 11, 4.5500000000000000e+02
296, 1, 1, -3.2000000000000001e-02
296, 2, 2, 2.8000000000000001e-02
296, 3, 3, 4.3999999999999997e-02
297, 11, 11, 3.6000000000000000e+02
297, 1, 1, 0.0000000000000000e+00
297, 2, 2, 0.0000000000000000e+00
297, 3, 3, 0.0000000000000000e+00
298, 11, 11, 4.1000000000000000e+02
298, 1, 1, 4.8000000000000001e-02
298, 2, 2, -8.0000000000000002e-03
298, 3, 3, 1.2000000000000000e-02
299, 11, 11, 4.4500000000000000e+02
299, 1, 1, 6.8000000000000005e-02
299, 2, 2, 3.6000100000000000e-02
299, 3, 3, -1.6000000000000000e-02
300, 11, 11, 3.8500000000000000e+02
300, 1, 1, -1.6000000000000000e-02
300, 2, 2, 4.3999999999999997e-02
300, 3, 3, 8.0000000000000002e-03
301, 11, 11, 4.7000000000000000e+02
301, 1, 1, 1.2000000000000000e-02
301, 2, 2, -2.0000000000000000e-02
301, 3, 3, 5.6000000000000001e-02
302, 11, 11, 4.3000000000000000e+02
302, 1, 1, 4.0000000000000001e-02
302, 2, 2, 1.6000000000000000e-02
302, 3, 3, 4.0000000000000001e-02
303, 11, 11, 5.1500000000000000e+02
303, 1, 1, 9.1999999999999998e-02
303, 2, 2, 6.4000000000000001e-02
303, 3, 3, 7.1999999999999995e-02
304, 11, 11, 4.5500000000000000e+02
304, 1, 1, -3.2000000000000001e-02
304, 2, 2, 2.8000000000000001e-02
304, 3, 3, 4.3999999999999997e-02
305, 11, 11, 3.6000000000000000e+02
305, 1, 1, 0.0000000000000000e+00
305, 2, 2, 0.0000000000000000e+00
305, 3, 3, 0.0000000000000000e+00
306, 11, 11, 4.1000000000000000e+02
306, 1, 1, 4.8000000000000001e-02
306, 2, 2, -8.0000000000000002e-03
306, 3, 3, 1.2000000000000000e-02
307, 11, 11, 4.4500000000000000e+02
307, 1, 1, 6.8000000000000005e-02
307, 2, 2, 3.5999899999999994e-02
307, 3, 3, -1.6000000000000000e-02
308, 11, 11, 3.8500000000000000e+02
308, 1, 1, -1.6000000000000000e-02
308, 2, 2, 4.3999999999999997e-02
308, 3, 3, 8.0000000000000002e-03
309, 11, 11, 4.7000000000000000e+02
309, 1, 1, 1.2000000000000000e-02
309, 2, 2, -2.0000000000000000e-02
309, 3, 3, 5.6000000000000001e-02
310, 11, 11, 4.3000000000000000e+02
310, 1, 1, 4.0000000000000001e-02
310, 2, 2, 1.6000000000000000e-02
310, 3, 3, 4.0000000000000001e-02
311, 11, 11, 5.1500000000000000e+02
311, 1, 1, 9.1999999999999998e-02
311, 2, 2, 6.4000000000000001e-02
311, 3, 3, 7.1999999999999995e-02
312, 11, 11, 4.5500000000000000e+02
312, 1, 1, -3.2000000000000001e-02
312, 2, 2, 2.8000000000000001e-02
312, 3, 3, 4.3999999999999997e-02
313, 11, 11, 3.6000000000000000e+02
313, 1, 1, 0.0000000000000000e+00
313, 2, 2, 0.0000000000000000e+00
313, 3, 3, 0.0000000000000000e+00
314, 11, 11, 4.1000000000000000e+02
314, 1, 1, 4.8000000000000001e-02
314, 2, 2, -8.0000000000000002e-03
314, 3, 3, 1.2000000000000000e-02
315, 11, 11, 4.4500000000000000e+02
315, 1, 1, 6.8000000000000005e-02
315, 2, 2, 3.5999999999999997e-02
315, 3, 3, -1.6000000000000000e-02
316, 11, 11, 3.8500000000000000e+02
316, 1, 1, -1.6000000000000000e-02
316, 2, 2, 4.4000100000000000e-02
316, 3, 3, 8.0000000000000002e-03
317, 11, 11, 4.7000000000000000e+02
317, 1, 1, 1.2000000000000000e-02
317, 2, 2, -2.0000000000000000e-02
317, 3, 3, 5.6000000000000001e-02
318, 11, 11, 4.3000000000000000e+02
318, 1, 1, 4.0000000000000001e-02
318, 2, 2, 1.6000000000000000e-02
318, 3, 3, 4.0000000000000001e-02
319, 11, 11, 5.1500000000000000e+02
319, 1, 1, 9.1999999999999998e-02
319, 2, 2, 6.4000000000000001e-02
319, 3, 3, 7.1999999999999995e-02
320, 11, 11, 4.5500000000000000e+02
320, 1, 1, -3.2000000000000001e-02
320, 2, 2, 2.8000000000000001e-02
320, 3, 3, 4.3999999999999997e-02
321, 11, 11, 3.6000000000000000e+02
321, 1, 1, 0.0000000000000000e+00
321, 2, 2, 0.0000000000000000e+00
321, 3, 3, 0.0000000000000000e+00
322, 11, 11, 4.1000000000000000e+02
322, 1, 1, 4.8000000000000001e-02
322, 2, 2, -8.0000000000000002e-03
322, 3, 3, 1.2000000000000000e-02
323, 11, 11, 4.4500000000000000e+02
323, 1, 1, 6.8000000000000005e-02
323, 2, 2, 3.5999999999999997e-02
323, 3, 3, -1.6000000000000000e-02
324, 11, 11, 3.8500000000000000e+02
324, 1, 1, -1.6000000000000000e-02
324, 2, 2, 4.3999899999999995e-02
324, 3, 3, 8.0000000000000002e-03
325, 11, 11, 4.7000000000000000e+02
325, 1, 1, 1.2000000000000000e-02
325, 2, 2, -2.0000000000000000e-02
325, 3, 3, 5.6000000000000001e-02
326, 11, 11, 4.3000000000000000e+02
326, 1, 1, 4.0000000000000001e-02
326, 2, 2, 1.6000000000000000e-02
326, 3, 3, 4.0000000000000001e-02
327, 11, 11, 5.1500000000000000e+02
327, 1, 1, 9.1999999999999998e-02
327, 2, 2, 6.4000000000000001e-02
327, 3, 3, 7.1999999999999995e-02
328, 11, 11, 4.5500000000000000e+02
328, 1, 1, -3.2000000000000001e-02
328, 2, 2, 2.8000000000000001e-02
328, 3, 3, 4.3999999999999997e-02
329, 11, 11, 3.6000000000000000e+02
329, 1, 1, 0.0000000000000000e+00
329, 2, 2, 0.0000000000000000e+00
329, 3, 3, 0.0000000000000000e+00
330, 11, 11, 4.1000000000000000e+02
330, 1, 1, 4.8000000000000001e-02
330, 2, 2, -8.0000000000000002e-03
330, 3, 3, 1.2000000000000000e-02
331, 11, 11, 4.4500000000000000e+02
331, 1, 1, 6.8000000000000005e-02
331, 2, 2, 3.5999999999999997e-02
331, 3, 3, -1.6000000000000000e-02
332, 11, 11, 3.8500000000000000e+02
332, 1, 1, -1.6000000000000000e-02
332, 2, 2, 4.3999999999999997e-02
332, 3, 3, 8.0000000000000002e-03
333, 11, 11, 4.7000000000000000e+02
333, 1, 1, 1.2000000000000000e-02
333, 2, 2, -1.9999900000000001e-02
333, 3, 3, 5.6000000000000001e-02
334, 11, 11, 4.3000000000000000e+02
334, 1, 1, 4.0000000000000001e-02
334, 2, 2, 1.6000000000000000e-02
334, 3, 3, 4.0000000000000001e-02
335, 11, 11, 5.1500000000000000e+02
335, 1, 1, 9.1999999999999998e-02
335, 2, 2, 6.4000000000000001e-02
335, 3, 3, 7.1999999999999995e-02
336, 11, 11, 4.5500000000000000e+02
336, 1, 1, -3.2000000000000001e-02
336, 2, 2, 2.8000000000000001e-02
336, 3, 3, 4.3999999999999997e-02
337, 11, 11, 3.6000000000000000e+02
337, 1, 1, 0.0000000000000000e+00
337, 2, 2, 0.0000000000000000e+00
337, 3, 3, 0.0000000000000000e+00
338, 11, 11, 4.1000000000000000e+02
338, 1, 1, 4.8000000000000001e-02
338, 2, 2, -8.0000000000000002e-03
338, 3, 3, 1.2000000000000000e-02
339, 11, 11, 4.4500000000000000e+02
339, 1, 1, 6.8000000000000005e-02
339, 2, 2, 3.5999999999999997e-02
339, 3, 3, -1.6000000000000000e-02
340, 11, 11, 3.8500000000000000e+02
340, 1, 1, -1.6000000000000000e-02
340, 2, 2, 4.3999999999999997e-02
340, 3, 3, 8.0000000000000002e-03
341, 11, 11, 4.7000000000000000e+02
341, 1, 1, 1.2000000000000000e-02
341, 2, 2, -2.0000100000000000e-02
341, 3, 3, 5.6000000000000001e-02
342, 11, 11, 4.3000000000000000e+02
342, 1, 1, 4.0000000000000001e-02
342, 2, 2, 1.6000000000000000e-02
342, 3, 3, 4.0000000000000001e-02
343, 11, 11, 5.1500000000000000e+02
343, 1, 1, 9.1999999999999998e-02
343, 2, 2, 6.4000000000000001e-02
343, 3, 3, 7.1999999999999995e-02
344, 11, 11, 4.5500000000000000e+02
344, 1, 1, -3.2000000000000001e-02
344, 2, 2, 2.8000000000000001e-02
344, 3, 3, 4.3999999999999997e-02
345, 11, 11, 3.6000000000000000e+02
345, 1, 1, 0.0000000000000000e+00
345, 2, 2, 0.0000000000000000e+00
345, 3, 3, 0.0000000000000000e+00
346, 11, 11, 4.1000000000000000e+02
346, 1, 1, 4.8000000000000001e-02
346, 2, 2, -8.0000000000000002e-03
346, 3, 3, 1.2000000000000000e-02
347, 11, 11, 4.4500000000000000e+02
347, 1, 1, 6.8000000000000005e-02
347, 2, 2, 3.5999999999999997e-02
347, 3, 3, -1.6000000000000000e-02
348, 11, 11, 3.8500000000000000e+02
348, 1, 1, -1.6000000000000000e-02
348, 2, 2, 4.3999999999999997e-02
348, 3, 3, 8.0000000000000002e-03
349, 11, 11, 4.7000000000000000e+02
349, 1, 1, 1.2000000000000000e-02
349, 2, 2, -2.0000000000000000e-02
349, 3, 3, 5.6000000000000001e-02
350, 11, 11, 4.3000000000000000e+02
350, 1, 1, 4.0000000000000001e-02
350, 2, 2, 1.6000100000000000e-02
350, 3, 3, 4.0000000000000001e-02
351, 11, 11, 5.1500000000000000e+02
351, 1, 1, 9.1999999999999998e-02
351, 2, 2, 6.4000000000000001e-02
351, 3, 3, 7.1999999999999995e-02
352, 11, 11, 4.5500000000000000e+02
352, 1, 1, -3.2000000000000001e-02
352, 2, 2, 2.8000000000000001e-02
352, 3, 3, 4.3999999999999997e-02
353, 11, 11, 3.6000000000000000e+02
353, 1, 1, 0.0000000000000000e+00
353, 2, 2, 0.0000000000000000e+00
353, 3, 3, 0.0000000000000000e+00
354, 11, 11, 4.1000000000000000e+02
354, 1, 1, 4.8000000000000001e-02
354, 2, 2, -8.0000000000000002e-03
354, 3, 3, 1.2000000000000000e-02
355, 11, 11, 4.4500000000000000e+02
355, 1, 1, 6.8000000000000005e-02
355, 2, 2, 3.5999999999999997e-02
355, 3, 3, -1.6000000000000000e-02
356, 11, 11, 3.8500000000000000e+02
356, 1, 1, -1.6000000000000000e-02
356, 2, 2, 4.3999999999999997e-02
356, 3, 3, 8.0000000000000002e-03
357, 11, 11, 4.7000000000000000e+02
357, 1, 1, 1.2000000000000000e-02
357, 2, 2, -2.0000000000000000e-02
357, 3, 3, 5.6000000000000001e-02
358, 11, 11, 4.3000000000000000e+02
358, 1, 1, 4.0000000000000001e-02
358, 2, 2, 1.5999900000000001e-02
358, 3, 3, 4.0000000000000001e-02
359, 11, 11, 5.1500000000000000e+02
359, 1, 1, 9.1999999999999998e-02
359, 2, 2, 6.4000000000000001e-02
359, 3, 3, 7.1999999999999995e-02
360, 11, 11, 4.5500000000000000e+02
360, 1, 1, -3.2000000000000001e-02
360, 2, 2, 2.8000000000000001e-02
360, 3, 3, 4.3999999999999997e-02
361, 11, 11, 3.6000000000000000e+02
361, 1, 1, 0.0000000000000000e+00
361, 2, 2, 0.0000000000000000e+00
361, 3, 3, 0.0000000000000000e+00
362, 11, 11, 4.1000000000000000e+02
362, 1, 1, 4.8000000000000001e-02
362, 2, 2, -8.0000000000000002e-03
362, 3, 3, 1.2000000000000000e-02
363, 11, 11, 4.4500000000000000e+02
363, 1, 1, 6.8000000000000005e-02
363, 2, 2, 3.5999999999999997e-02
363, 3, 3, -1.6000000000000000e-02
364, 11, 11, 3.8500000000000000e+02
364, 1, 1, -1.6000000000000000e-02
364, 2, 2, 4.3999999999999997e-02
364, 3, 3, 8.0000000000000002e-03
365, 11, 11, 4.7000000000000000e+02
365, 1, 1, 1.2000000000000000e-02
365, 2, 2, -2.0000000000000000e-02
365, 3, 3, 5.6000000000000001e-02
366, 11, 11, 4.3000000000000000e+02
366, 1, 1, 4.0000000000000001e-02
366, 2, 2, 1.6000000000000000e-02
366, 3, 3, 4.0000000000000001e-02
367, 11, 11, 5.1500000000000000e+02
367, 1, 1, 9.1999999999999998e-02
367, 2, 2, 6.4000100000000004e-02
367, 3, 3, 7.1999999999999995e-02
368, 11, 11, 4.5500000000000000e+02
368, 1, 1, -3.2000000000000001e-02
368, 2, 2, 2.8000000000000001e-02
368, 3, 3, 4.3999999999999997e-02
369, 11, 11, 3.6000000000000000e+02
369, 1, 1, 0.0000000000000000e+00
369, 2, 2, 0.0000000000000000e+00
369, 3, 3, 0.0000000000000000e+00
370, 11, 11, 4.1000000000000000e+02
370, 1, 1, 4.8000000000000001e-02
370, 2, 2, -8.0000000000000002e-03
370, 3, 3, 1.2000000000000000e-02
371, 11, 11, 4.4500000000000000e+02
371, 1, 1, 6.8000000000000005e-02
371, 2, 2, 3.5999999999999997e-02
371, 3, 3, -1.6000000000000000e-02
372, 11, 11, 3.8500000000000000e+02
372, 1, 1, -1.6000000000000000e-02
372, 2, 2, 4.3999999999999997e-02
372, 3, 3, 8.0000000000000002e-03
373, 11, 11, 4.7000000000000000e+02
373, 1, 1, 1.2000000000000000e-02
373, 2, 2, -2.0000000000000000e-02
373, 3, 3, 5.6000000000000001e-02
374, 11, 11, 4.3000000000000000e+02
374, 1, 1, 4.0000000000000001e-02
374, 2, 2, 1.6000000000000000e-02
374, 3, 3, 4.0000000000000001e-02
375, 11, 11, 5.1500000000000000e+02
375, 1, 1, 9.1999999999999998e-02
375, 2, 2, 6.3999899999999998e-02
375, 3, 3, 7.1999999999999995e-02
376, 11, 11, 4.5500000000000000e+02
376, 1, 1, -3.2000000000000001e-02
376, 2, 2, 2.8000000000000001e-02
376, 3, 3, 4.3999999999999997e-02
377, 11, 11, 3.6000000000000000e+02
377, 1, 1, 0.0000000000000000e+00
377, 2, 2, 0.0000000000000000e+00
377, 3, 3, 0.0000000000000000e+00
378, 11, 11, 4.1000000000000000e+02
378, 1, 1, 4.8000000000000001e-02
378, 2, 2, -8.0000000000000002e-03
378, 3, 3, 1.2000000000000000e-02
379, 11, 11, 4.4500000000000000e+02
379, 1, 1, 6.8000000000000005e-02
379, 2, 2, 3.5999999999999997e-02
379, 3, 3, -1.6000000000000000e-02
380, 11, 11, 3.8500000000000000e+02
380, 1, 1, -1.6000000000000000e-02
380, 2, 2, 4.3999999999999997e-02
380, 3, 3, 8.0000000000000002e-03
381, 11, 11, 4.7000000000000000e+02
381, 1, 1, 1.2000000000000000e-02
381, 2, 2, -2.0000000000000000e-02
381, 3, 3, 5.6000000000000001e-02
382, 11, 11, 4.3000000000000000e+02
382, 1, 1, 4.0000000000000001e-02
382, 2, 2, 1.6000000000000000e-02
382, 3, 3, 4.0000000000000001e-02
383, 11, 11, 5.1500000000000000e+02
383, 1, 1, 9.1999999999999998e-02
383, 2, 2, 6.4000000000000001e-02
383, 3, 3, 7.1999999999999995e-02
384, 11, 11, 4.5500000000000000e+02
384, 1, 1, -3.2000000000000001e-02
384, 2, 2, 2.8000100000000000e-02
384, 3, 3, 4.3999999999999997e-02
385, 11, 11, 3.6000000000000000e+02
385, 1, 1, 0.0000000000000000e+00
385, 2, 2, 0.0000000000000000e+00
385, 3, 3, 0.0000000000000000e+00
386, 11, 11, 4.1000000000000000e+02
386, 1, 1, 4.8000000000000001e-02
386, 2, 2, -8.0000000000000002e-03
386, 3, 3, 1.2000000000000000e-02
387, 11, 11, 4.4500000000000000e+02
387, 1, 1, 6.8000000000000005e-02
387, 2, 2, 3.5999999999999997e-02
387, 3, 3, -1.6000000000000000e-02
388, 11, 11, 3.8500000000000000e+02
388, 1, 1, -1.6000000000000000e-02
388, 2, 2, 4.3999999999999997e-02
388, 3, 3, 8.0000000000000002e-03
389, 11, 11, 4.7000000000000000e+02
389, 1, 1, 1.2000000000000000e-02
389, 2, 2, -2.0000000000000000e-02
389, 3, 3, 5.6000000000000001e-02
390, 11, 11, 4.3000000000000000e+02
390, 1, 1, 4.0000000000000001e-02
390, 2, 2, 1.6000000000000000e-02
390, 3, 3, 4.0000000000000001e-02
391, 11, 11, 5.1500000000000000e+02
391, 1, 1, 9.1999999999999998e-02
391, 2, 2, 6.4000000000000001e-02
391, 3, 3, 7.1999999999999995e-02
392, 11, 11, 4.5500000000000000e+02
392, 1, 1, -3.2000000000000001e-02
392, 2, 2, 2.7999900000000001e-02
392, 3, 3, 4.3999999999999997e-02
393, 11, 11, 3.6000000000000000e+02
393, 1, 1, 0.0000000000000000e+00
393, 2, 2, 0.0000000000000000e+00
393, 3, 3, 9.9999999999999995e-08
394, 11, 11, 4.1000000000000000e+02
394, 1, 1, 4.8000000000000001e-02
394, 2, 2, -8.0000000000000002e-03
394, 3, 3, 1.2000000000000000e-02
395, 11, 11, 4.4500000000000000e+02
395, 1, 1, 6.8000000000000005e-02
395, 2, 2, 3.5999999999999997e-02
395, 3, 3, -1.6000000000000000e-02
396, 11, 11, 3.8500000000000000e+02
396, 1, 1, -1.6000000000000000e-02
396, 2, 2, 4.3999999999999997e-02
396, 3, 3, 8.0000000000000002e-03
397, 11, 11, 4.7000000000000000e+02
397, 1, 1, 1.2000000000000000e-02
397, 2, 2, -2.0000000000000000e-02
397, 3, 3, 5.6000000000000001e-02
398, 11, 11, 4.3000000000000000e+02
398, 1, 1, 4.0000000000000001e-02
398, 2, 2, 1.6000000000000000e-02
398, 3, 3, 4.0000000000000001e-02
399, 11, 11, 5.1500000000000000e+02
399, 1, 1, 9.1999999999999998e-02
399, 2, 2, 6.4000000000000001e-02
399, 3, 3, 7.1999999999999995e-02
400, 11, 11, 4.5500000000000000e+02
400, 1, 1, -3.2000000000000001e-02
400, 2, 2, 2.8000000000000001e-02
400, 3, 3, 4.3999999999999997e-02
401, 11, 11, 3.6000000000000000e+02
401, 1, 1, 0.0000000000000000e+00
401, 2, 2, 0.0000000000000000e+00
401, 3, 3, -9.9999999999999995e-08
402, 11, 11, 4.1000000000000000e+02
402, 1, 1, 4.8000000000000001e-02
402, 2, 2, -8.0000000000000002e-03
402, 3, 3, 1.2000000000000000e-02
403, 11, 11, 4.4500000000000000e+02
403, 1, 1, 6.8000000000000005e-02
403, 2, 2, 3.5999999999999997e-02
403, 3, 3, -1.6000000000000000e-02
404, 11, 11, 3.8500000000000000e+02
404, 1, 1, -1.6000000000000000e-02
404, 2, 2, 4.3999999999999997e-02
404, 3, 3, 8.0000000000000002e-03
405, 11, 11, 4.7000000000000000e+02
405, 1, 1, 1.2000000000000000e-02
405, 2, 2, -2.0000000000000000e-02
405, 3, 3, 5.6000000000000001e-02
406, 11, 11, 4.3000000000000000e+02
406, 1, 1, 4.0000000000000001e-02
406, 2, 2, 1.6000000000000000e-02
406, 3, 3, 4.0000000000000001e-02
407, 11, 11, 5.1500000000000000e+02
407, 1, 1, 9.1999999999999998e-02
407, 2, 2, 6.4000000000000001e-02
407, 3, 3, 7.1999999999999995e-02
408, 11, 11, 4.5500000000000000e+02
408, 1, 1, -3.2000000000000001e-02
408, 2, 2, 2.8000000000000001e-02
408, 3, 3, 4.3999999999999997e-02
409, 11, 11, 3.6000000000000000e+02
409, 1, 1, 0.0000000000000000e+00
409, 2, 2, 0.0000000000000000e+00
409, 3, 3, 0.0000000000000000e+00
410, 11, 11, 4.1000000000000000e+02
410, 1, 1, 4.8000000000000001e-02
410, 2, 2, -8.0000000000000002e-03
410, 3, 3, 1.2000100000000000e-02
411, 11, 11, 4.4500000000000000e+02
411, 1, 1, 6.8000000000000005e-02
411, 2, 2, 3.5999999999999997e-02
411, 3, 3, -1.6000000000000000e-02
412, 11, 11, 3.8500000000000000e+02
412, 1, 1, -1.6000000000000000e-02
412, 2, 2, 4.3999999999999997e-02
412, 3, 3, 8.0000000000000002e-03
413, 11, 11, 4.7000000000000000e+02
413, 1, 1, 1.2000000000000000e-02
413, 2, 2, -2.0000000000000000e-02
413, 3, 3, 5.6000000000000001e-02
414, 11, 11, 4.3000000000000000e+02
414, 1, 1, 4.0000000000000001e-02
414, 2, 2, 1.6000000000000000e-02
414, 3, 3, 4.0000000000000001e-02
415, 11, 11, 5.1500000000000000e+02
415, 1, 1, 9.1999999999999998e-02
415, 2, 2, 6.4000000000000001e-02
415, 3, 3, 7.1999999999999995e-02
416, 11, 11, 4.5500000000000000e+02
416, 1, 1, -3.2000000000000001e-02
416, 2, 2, 2.8000000000000001e-02
416, 3, 3, 4.3999999999999997e-02
417, 11, 11, 3.6000000000000000e+02
417, 1, 1, 0.0000000000000000e+00
417, 2, 2, 0.0000000000000000e+00
417, 3, 3, 0.0000000000000000e+00
418, 11, 11, 4.1000000000000000e+02
418, 1, 1, 4.8000000000000001e-02
418, 2, 2, -8.0000000000000002e-03
418, 3, 3, 1.1999900000000001e-02
419, 11, 11, 4.4500000000000000e+02
419, 1, 1, 6.8000000000000005e-02
419, 2, 2, 3.5999999999999997e-02
419, 3, 3, -1.6000000000000000e-02
420, 11, 11, 3.8500000000000000e+02
420, 1, 1, -1.6000000000000000e-02
420, 2, 2, 4.3999999999999997e-02
420, 3, 3, 8.0000000000000002e-03
421, 11, 11, 4.7000000000000000e+02
421, 1, 1, 1.2000000000000000e-02
421, 2, 2, -2.0000000000000000e-02
421, 3, 3, 5.6000000000000001e-02
422, 11, 11, 4.3000000000000000e+02
422, 1, 1, 4.0000000000000001e-02
422, 2, 2, 1.6000000000000000e-02
422, 3, 3, 4.0000000000000001e-02
423, 11, 11, 5.1500000000000000e+02
423, 1, 1, 9.1999999999999998e-02
423, 2, 2, 6.4000000000000001e-02
423, 3, 3, 7.1999999999999995e-02
424, 11, 11, 4.5500000000000000e+02
424, 1, 1, -3.2000000000000001e-02
424, 2, 2, 2.8000000000000001e-02
424, 3, 3, 4.3999999999999997e-02
425, 11, 11, 3.6000000000000000e+02
425, 1, 1, 0.0000000000000000e+00
425, 2, 2, 0.0000000000000000e+00
425, 3, 3, 0.0000000000000000e+00
426, 11, 11, 4.1000000000000000e+02
426, 1, 1, 4.8000000000000001e-02
426, 2, 2, -8.0000000000000002e-03
426, 3, 3, 1.2000000000000000e-02
427, 11, 11, 4.4500000000000000e+02
427, 1, 1, 6.8000000000000005e-02
427, 2, 2, 3.5999999999999997e-02
427, 3, 3, -1.5999900000000001e-02
428, 11, 11, 3.8500000000000000e+02
428, 1, 1, -1.6000000000000000e-02
428, 2, 2, 4.3999999999999997e-02
428, 3, 3, 8.0000000000000002e-03
429, 11, 11, 4.7000000000000000e+02
429, 1, 1, 1.2000000000000000e-02
429, 2, 2, -2.0000000000000000e-02
429, 3, 3, 5.6000000000000001e-02
430, 11, 11, 4.3000000000000000e+02
430, 1, 1, 4.0000000000000001e-02
430, 2, 2, 1.6000000000000000e-02
430, 3, 3, 4.0000000000000001e-02
431, 11, 11, 5.1500000000000000e+02
431, 1, 1, 9.1999999999999998e-02
431, 2, 2, 6.4000000000000001e-02
431, 3, 3, 7.1999999999999995e-02
432, 11, 11, 4.5500000000000000e+02
432, 1, 1, -3.2000000000000001e-02
432, 2, 2, 2.8000000000000001e-02
432, 3, 3, 4.3999999999999997e-02
433, 11, 11, 3.6000000000000000e+02
433, 1, 1, 0.0000000000000000e+00
433, 2, 2, 0.0000000000000000e+00
433, 3, 3, 0.0000000000000000e+00
434, 11, 11, 4.1000000000000000e+02
434, 1, 1, 4.8000000000000001e-02
434, 2, 2, -8.0000000000000002e-03
434, 3, 3, 1.2000000000000000e-02
435, 11, 11, 4.4500000000000000e+02
435, 1, 1, 6.8000000000000005e-02
435, 2, 2, 3.5999999999999997e-02
435, 3, 3, -1.6000100000000000e-02
436, 11, 11, 3.8500000000000000e+02
436, 1, 1, -1.6000000000000000e-02
436, 2, 2, 4.3999999999999997e-02
436, 3, 3, 8.0000000000000002e-03
437, 11, 11, 4.7000000000000000e+02
437, 1, 1, 1.2000000000000000e-02
437, 2, 2, -2.0000000000000000e-02
437, 3, 3, 5.6000000000000001e-02
438, 11, 11, 4.3000000000000000e+02
438, 1, 1, 4.0000000000000001e-02
438, 2, 2, 1.6000000000000000e-02
438, 3, 3, 4.0000000000000001e-02
439, 11, 11, 5.1500000000000000e+02
439, 1, 1, 9.1999999999999998e-02
439, 2, 2, 6.4000000000000001e-02
439, 3, 3, 7.1999999999999995e-02
440, 11, 11, 4.5500000000000000e+02
440, 1, 1, -3.2000000000000001e-02
440, 2, 2, 2.8000000000000001e-02
440, 3, 3, 4.3999999999999997e-02
441, 11, 11, 3.6000000000000000e+02
441, 1, 1, 0.0000000000000000e+00
441, 2, 2, 0.0000000000000000e+00
441, 3, 3, 0.0000000000000000e+00
442, 11, 11, 4.1000000000000000e+02
442, 1, 1, 4.8000000000000001e-02
442, 2, 2, -8.0000000000000002e-03
442, 3, 3, 1.2000000000000000e-02
443, 11, 11, 4.4500000000000000e+02
443, 1, 1, 6.8000000000000005e-02
443, 2, 2, 3.5999999999999997e-02
443, 3, 3, -1.6000000000000000e-02
444, 11, 11, 3.8500000000000000e+02
444, 1, 1, -1.6000000000000000e-02
444, 2, 2, 4.3999999999999997e-02
444, 3, 3, 8.0000999999999996e-03
445, 11, 11, 4.7000000000000000e+02
445, 1, 1, 1.2000000000000000e-02
445, 2, 2, -2.0000000000000000e-02
445, 3, 3, 5.6000000000000001e-02
446, 11, 11, 4.3000000000000000e+02
446, 1, 1, 4.0000000000000001e-02
446, 2, 2, 1.6000000000000000e-02
446, 3, 3, 4.0000000000000001e-02
447, 11, 11, 5.1500000000000000e+02
447, 1, 1, 9.1999999999999998e-02
447, 2, 2, 6.4000000000000001e-02
447, 3, 3, 7.1999999999999995e-02
448, 11, 11, 4.5500000000000000e+02
448, 1, 1, -3.2000000000000001e-02
448, 2, 2, 2.8000000000000001e-02
448, 3, 3, 4.3999999999999997e-02
449, 11, 11, 3.6000000000000000e+02
449, 1, 1, 0.0000000000000000e+00
449, 2, 2, 0.0000000000000000e+00
449, 3, 3, 0.0000000000000000e+00
450, 11, 11, 4.1000000000000000e+02
450, 1, 1, 4.8000000000000001e-02
450, 2, 2, -8.0000000000000002e-03
450, 3, 3, 1.2000000000000000e-02
451, 11, 11, 4.4500000000000000e+02
451, 1, 1, 6.8000000000000005e-02
451, 2, 2, 3.5999999999999997e-02
451, 3, 3, -1.6000000000000000e-02
452, 11, 11, 3.8500000000000000e+02
452, 1, 1, -1.6000000000000000e-02
452, 2, 2, 4.3999999999999997e-02
452, 3, 3, 7.9999000000000008e-03
453, 11, 11, 4.7000000000000000e+02
453, 1, 1, 1.2000000000000000e-02
453, 2, 2, -2.0000000000000000e-02
453, 3, 3, 5.6000000000000001e-02
454, 11, 11, 4.3000000000000000e+02
454, 1, 1, 4.0000000000000001e-02
454, 2, 2, 1.6000000000000000e-02
454, 3, 3, 4.0000000000000001e-02
455, 11, 11, 5.1500000000000000e+02
455, 1, 1, 9.1999999999999998e-02
455, 2, 2, 6.4000000000000001e-02
455, 3, 3, 7.1999999999999995e-02
456, 11, 11, 4.5500000000000000e+02
456, 1, 1, -3.2000000000000001e-02
456, 2, 2, 2.8000000000000001e-02
456, 3, 3, 4.3999999999999997e-02
457, 11, 11, 3.6000000000000000e+02
457, 1, 1, 0.0000000000000000e+00
457, 2, 2, 0.0000000000000000e+00
457, 3, 3, 0.0000000000000000e+00
458, 11, 11, 4.1000000000000000e+02
458, 1, 1, 4.8000000000000001e-02
458, 2, 2, -8.0000000000000002e-03
458, 3, 3, 1.2000000000000000e-02
459, 11, 11, 4.4500000000000000e+02
459, 1, 1, 6.8000000000000005e-02
459, 2, 2, 3.5999999999999997e-02
459, 3, 3, -1.6000000000000000e-02
460, 11, 11, 3.8500000000000000e+02
460, 1, 1, -1.6000000000000000e-02
460, 2, 2, 4.3999999999999997e-02
460, 3, 3, 8.0000000000000002e-03
461, 11, 11, 4.7000000000000000e+02
461, 1, 1, 1.2000000000000000e-02
461, 2, 2, -2.0000000000000000e-02
461, 3, 3, 5.6000100000000004e-02
462, 11, 11, 4.3000000000000000e+02
462, 1, 1, 4.0000000000000001e-02
462, 2, 2, 1.6000000000000000e-02
462, 3, 3, 4.0000000000000001e-02
463, 11, 11, 5.1500000000000000e+02
463, 1, 1, 9.1999999999999998e-02
463, 2, 2, 6.4000000000000001e-02
463, 3, 3, 7.1999999999999995e-02
464, 11, 11, 4.5500000000000000e+02
464, 1, 1, -3.2000000000000001e-02
464, 2, 2, 2.8000000000000001e-02
464, 3, 3, 4.3999999999999997e-02
465, 11, 11, 3.6000000000000000e+02
465, 1, 1, 0.0000000000000000e+00
465, 2, 2, 0.0000000000000000e+00
465, 3, 3, 0.0000000000000000e+00
466, 11, 11, 4.1000000000000000e+02
466, 1, 1, 4.8000000000000001e-02
466, 2, 2, -8.0000000000000002e-03
466, 3, 3, 1.2000000000000000e-02
467, 11, 11, 4.4500000000000000e+02
467, 1, 1, 6.8000000000000005e-02
467, 2, 2, 3.5999999999999997e-02
467, 3, 3, -1.6000000000000000e-02
468, 11, 11, 3.8500000000000000e+02
468, 1, 1, -1.6000000000000000e-02
468, 2, 2, 4.3999999999999997e-02
468, 3, 3, 8.0000000000000002e-03
469, 11, 11, 4.7000000000000000e+02
469, 1, 1, 1.2000000000000000e-02
469, 2, 2, -2.0000000000000000e-02
469, 3, 3, 5.5999899999999998e-02
470, 11, 11, 4.3000000000000000e+02
470, 1, 1, 4.0000000000000001e-02
470, 2, 2, 1.6000000000000000e-02
470, 3, 3, 4.0000000000000001e-02
471, 11, 11, 5.1500000000000000e+02
471, 1, 1, 9.1999999999999998e-02
471, 2, 2, 6.4000000000000001e-02
471, 3, 3, 7.1999999999999995e-02
472, 11, 11, 4.5500000000000000e+02
472, 1, 1, -3.2000000000000001e-02
472, 2, 2, 2.8000000000000001e-02
472, 3, 3, 4.3999999999999997e-02
473, 11, 11, 3.6000000000000000e+02
473, 1, 1, 0.0000000000000000e+00
473, 2, 2, 0.0000000000000000e+00
473, 3, 3, 0.0000000000000000e+00
474, 11, 11, 4.1000000000000000e+02
474, 1, 1, 4.8000000000000001e-02
474, 2, 2, -8.0000000000000002e-03
474, 3, 3, 1.2000000000000000e-02
475, 11, 11, 4.4500000000000000e+02
475, 1, 1, 6.8000000000000005e-02
475, 2, 2, 3.5999999999999997e-02
475, 3, 3, -1.6000000000000000e-02
476, 11, 11, 3.8500000000000000e+02
476, 1, 1, -1.6000000000000000e-02
476, 2, 2, 4.3999999999999997e-02
476, 3, 3, 8.0000000000000002e-03
477, 11, 11, 4.7000000000000000e+02
477, 1, 1, 1.2000000000000000e-02
477, 2, 2, -2.0000000000000000e-02
477, 3, 3, 5.6000000000000001e-02
478, 11, 11, 4.3000000000000000e+02
478, 1, 1, 4.0000000000000001e-02
478, 2, 2, 1.6000000000000000e-02
478, 3, 3, 4.0000100000000004e-02
479, 11, 11, 5.1500000000000000e+02
479, 1, 1, 9.1999999999999998e-02
479, 2, 2, 6.4000000000000001e-02
479, 3, 3, 7.1999999999999995e-02
480, 11, 11, 4.5500000000000000e+02
480, 1, 1, -3.2000000000000001e-02
480, 2, 2, 2.8000000000000001e-02
480, 3, 3, 4.3999999999999997e-02
481, 11, 11, 3.6000000000000000e+02
481, 1, 1, 0.0000000000000000e+00
481, 2, 2, 0.0000000000000000e+00
481, 3, 3, 0.0000000000000000e+00
482, 11, 11, 4.1000000000000000e+02
482, 1, 1, 4.8000000000000001e-02
482, 2, 2, -8.0000000000000002e-03
482, 3, 3, 1.2000000000000000e-02
483, 11, 11, 4.4500000000000000e+02
483, 1, 1, 6.8000000000000005e-02
483, 2, 2, 3.5999999999999997e-02
483, 3, 3, -1.6000000000000000e-02
484, 11, 11, 3.8500000000000000e+02
484, 1, 1, -1.6000000000000000e-02
484, 2, 2, 4.3999999999999997e-02
484, 3, 3, 8.0000000000000002e-03
485, 11, 11, 4.7000000000000000e+02
485, 1, 1, 1.2000000000000000e-02
485, 2, 2, -2.0000000000000000e-02
485, 3, 3, 5.6000000000000001e-02
486, 11, 11, 4.3000000000000000e+02
486, 1, 1, 4.0000000000000001e-02
486, 2, 2, 1.6000000000000000e-02
486, 3, 3, 3.9999899999999998e-02
487, 11, 11, 5.1500000000000000e+02
487, 1, 1, 9.1999999999999998e-02
487, 2, 2, 6.4000000000000001e-02
487, 3, 3, 7.1999999999999995e-02
488, 11, 11, 4.5500000000000000e+02
488, 1, 1, -3.2000000000000001e-02
488, 2, 2, 2.8000000000000001e-02
488, 3, 3, 4.3999999999999997e-02
489, 11, 11, 3.6000000000000000e+02
489, 1, 1, 0.0000000000000000e+00
489, 2, 2, 0.0000000000000000e+00
489, 3, 3, 0.0000000000000000e+00
490, 11, 11, 4.1000000000000000e+02
490, 1, 1, 4.8000000000000001e-02
490, 2, 2, -8.0000000000000002e-03
490, 3, 3, 1.2000000000000000e-02
491, 11, 11, 4.4500000000000000e+02
491, 1, 1, 6.8000000000000005e-02
491, 2, 2, 3.5999999999999997e-02
491, 3, 3, -1.6000000000000000e-02
492, 11, 11, 3.8500000000000000e+02
492, 1, 1, -1.6000000000000000e-02
492, 2, 2, 4.3999999999999997e-02
492, 3, 3, 8.0000000000000002e-03
493, 11, 11, 4.7000000000000000e+02
493, 1, 1, 1.2000000000000000e-02
493, 2, 2, -2.0000000000000000e-02
493, 3, 3, 5.6000000000000001e-02
494, 11, 11, 4.3000000000000000e+02
494, 1, 1, 4.0000000000000001e-02
494, 2, 2, 1.6000000000000000e-02
494, 3, 3, 4.0000000000000001e-02
495, 11, 11, 5.1500000000000000e+02
495, 1, 1, 9.1999999999999998e-02
495, 2, 2, 6.4000000000000001e-02
495, 3, 3, 7.2000099999999997e-02
496, 11, 11, 4.5500000000000000e+02
496, 1, 1, -3.2000000000000001e-02
496, 2, 2, 2.8000000000000001e-02
496, 3, 3, 4.3999999999999997e-02
497, 11, 11, 3.6000000000000000e+02
497, 1, 1, 0.0000000000000000e+00
497, 2, 2, 0.0000000000000000e+00
497, 3, 3, 0.0000000000000000e+00
498, 11, 11, 4.1000000000000000e+02
498, 1, 1, 4.8000000000000001e-02
498, 2, 2, -8.0000000000000002e-03
498, 3, 3, 1.2000000000000000e-02
499, 11, 11, 4.4500000000000000e+02
499, 1, 1, 6.8000000000000005e-02
499, 2, 2, 3.5999999999999997e-02
499, 3, 3, -1.6000000000000000e-02
500, 11, 11, 3.8500000000000000e+02
500, 1, 1, -1.6000000000000000e-02
500, 2, 2, 4.3999999999999997e-02
500, 3, 3, 8.0000000000000002e-03
501, 11, 11, 4.7000000000000000e+02
501, 1, 1, 1.2000000000000000e-02
501, 2, 2, -2.0000000000000000e-02
501, 3, 3, 5.6000000000000001e-02
502, 11, 11, 4.3000000000000000e+02
502, 1, 1, 4.0000000000000001e-02
502, 2, 2, 1.6000000000000000e-02
502, 3, 3, 4.0000000000000001e-02
503, 11, 11, 5.1500000000000000e+02
503, 1, 1, 9.1999999999999998e-02
503, 2, 2, 6.4000000000000001e-02
503, 3, 3, 7.1999899999999992e-02
504, 11, 11, 4.5500000000000000e+02
504, 1, 1, -3.2000000000000001e-02
504, 2, 2, 2.8000000000000001e-02
504, 3, 3, 4.3999999999999997e-02
505, 11, 11, 3.6000000000000000e+02
505, 1, 1, 0.0000000000000000e+00
505, 2, 2, 0.0000000000000000e+00
505, 3, 3, 0.0000000000000000e+00
506, 11, 11, 4.1000000000000000e+02
506, 1, 1, 4.8000000000000001e-02
506, 2, 2, -8.0000000000000002e-03
506, 3, 3, 1.2000000000000000e-02
507, 11, 11, 4.4500000000000000e+02
507, 1, 1, 6.8000000000000005e-02
507, 2, 2, 3.5999999999999997e-02
507, 3, 3, -1.6000000000000000e-02
508, 11, 11, 3.8500000000000000e+02
508, 1, 1, -1.6000000000000000e-02
508, 2, 2, 4.3999999999999997e-02
508, 3, 3, 8.0000000000000002e-03
509, 11, 11, 4.7000000000000000e+02
509, 1, 1, 1.2000000000000000e-02
509, 2, 2, -2.0000000000000000e-02
509, 3, 3, 5.6000000000000001e-02
510, 11, 11, 4.3000000000000000e+02
510, 1, 1, 4.0000000000000001e-02
510, 2, 2, 1.6000000000000000e-02
510, 3, 3, 4.0000000000000001e-02
511, 11, 11, 5.1500000000000000e+02
511, 1, 1, 9.1999999999999998e-02
511, 2, 2, 6.4000000000000001e-02
511, 3, 3, 7.1999999999999995e-02
512, 11, 11, 4.5500000000000000e+02
512, 1, 1, -3.2000000000000001e-02
512, 2, 2, 2.8000000000000001e-02
512, 3, 3, 4.4000100000000000e-02
513, 11, 11, 3.6000000000000000e+02
513, 1, 1, 0.0000000000000000e+00
513, 2, 2, 0.0000000000000000e+00
513, 3, 3, 0.0000000000000000e+00
514, 11, 11, 4.1000000000000000e+02
514, 1, 1, 4.8000000000000001e-02
514, 2, 2, -8.0000000000000002e-03
514, 3, 3, 1.2000000000000000e-02
515, 11, 11, 4.4500000000000000e+02
515, 1, 1, 6.8000000000000005e-02
515, 2, 2, 3.5999999999999997e-02
515, 3, 3, -1.6000000000000000e-02
516, 11, 11, 3.8500000000000000e+02
516, 1, 1, -1.6000000000000000e-02
516, 2, 2, 4.3999999999999997e-02
516, 3, 3, 8.0000000000000002e-03
517, 11, 11, 4.7000000000000000e+02
517, 1, 1, 1.2000000000000000e-02
517, 2, 2, -2.0000000000000000e-02
517, 3, 3, 5.6000000000000001e-02
518, 11, 11, 4.3000000000000000e+02
518, 1, 1, 4.0000000000000001e-02
518, 2, 2, 1.6000000000000000e-02
518, 3, 3, 4.0000000000000001e-02
519, 11, 11, 5.1500000000000000e+02
519, 1, 1, 9.1999999999999998e-02
519, 2, 2, 6.4000000000000001e-02
519, 3, 3, 7.1999999999999995e-02
520, 11, 11, 4.5500000000000000e+02
520, 1, 1, -3.2000000000000001e-02
520, 2, 2, 2.8000000000000001e-02
520, 3, 3, 4.3999899999999995e-02
*Output, field, frequency=1
*Node Output
COORD, NT, RF, RFL, U
*Element Output, directions=YES
COORD, HFL, IVOL, LE, S, TEMP
*End Step
