*Heading
** b540_nonmatching_contact_cycle: generated full-field Abaqus reference.
** through=1 tangential=1 step=2.0000000000000000e-02 distortion=0.0000000000000000e+00 initial_gap=5.0000000000000001e-04 path=nonmatching_contact_cycle
*Preprint, echo=NO, model=NO, history=NO, contact=YES
*Node
1, 0.0000000000000000e+00, 0.0000000000000000e+00, -1.0000000000000000e+00
2, 1.0000000000000000e+00, 0.0000000000000000e+00, -1.0000000000000000e+00
3, 0.0000000000000000e+00, 1.0000000000000000e+00, -1.0000000000000000e+00
4, 1.0000000000000000e+00, 1.0000000000000000e+00, -1.0000000000000000e+00
5, 0.0000000000000000e+00, 2.0000000000000000e+00, -1.0000000000000000e+00
6, 1.0000000000000000e+00, 2.0000000000000000e+00, -1.0000000000000000e+00
7, 0.0000000000000000e+00, 0.0000000000000000e+00, 2.0000000000000000e+00
8, 1.0000000000000000e+00, 0.0000000000000000e+00, 2.0000000000000000e+00
9, 0.0000000000000000e+00, 1.0000000000000000e+00, 2.0000000000000000e+00
10, 1.0000000000000000e+00, 1.0000000000000000e+00, 2.0000000000000000e+00
11, 0.0000000000000000e+00, 2.0000000000000000e+00, 2.0000000000000000e+00
12, 1.0000000000000000e+00, 2.0000000000000000e+00, 2.0000000000000000e+00
13, 1.0004999999999999e+00, 1.0000000000000001e-01, 1.0000000000000001e-01
14, 2.0004999999999997e+00, 1.0000000000000001e-01, 1.0000000000000001e-01
15, 1.0004999999999999e+00, 9.0000000000000002e-01, 1.0000000000000001e-01
16, 2.0004999999999997e+00, 9.0000000000000002e-01, 1.0000000000000001e-01
17, 1.0004999999999999e+00, 1.0000000000000001e-01, 9.0000000000000002e-01
18, 2.0004999999999997e+00, 1.0000000000000001e-01, 9.0000000000000002e-01
19, 1.0004999999999999e+00, 9.0000000000000002e-01, 9.0000000000000002e-01
20, 2.0004999999999997e+00, 9.0000000000000002e-01, 9.0000000000000002e-01
*Element, type=C3D8RT, elset=PRIMARY
1, 1, 2, 4, 3, 7, 8, 10, 9
2, 3, 4, 6, 5, 9, 10, 12, 11
*Element, type=C3D8RT, elset=SECONDARY
3, 13, 14, 16, 15, 17, 18, 20, 19
*Elset, elset=PRIMARY_CONTACT_ELEMENTS
1, 2
*Elset, elset=SECONDARY_CONTACT_ELEMENTS
3
*Elset, elset=SECONDARY_OUTER_ELEMENTS
3
*Nset, nset=ALL_NODES
1, 2, 3, 4, 5, 6, 7, 8, 9, 10, 11, 12, 13, 14, 15, 16
17, 18, 19, 20
*Nset, nset=PRIMARY_OUTER_NODES
1, 3, 5, 7, 9, 11
*Nset, nset=SECONDARY_OUTER_NODES
14, 16, 18, 20
*Nset, nset=SECONDARY_CONTACT_NODES
13, 15, 17, 19
*Nset, nset=SECONDARY_ALL_NODES
13, 14, 15, 16, 17, 18, 19, 20
*Surface, type=ELEMENT, name=PRIMARY_CONTACT
PRIMARY_CONTACT_ELEMENTS, S4
*Surface, type=ELEMENT, name=SECONDARY_CONTACT
SECONDARY_CONTACT_ELEMENTS, S6
*Surface, type=ELEMENT, name=SECONDARY_OUTER
SECONDARY_OUTER_ELEMENTS, S4
*Material, name=PRIMARY_MATERIAL
*Elastic
1.2000000000000000e8, 2.8000000000000003e-01, 3.0000000000000000e2
1.0000000000000000e8, 2.8000000000000003e-01, 5.0000000000000000e2
*Expansion, zero=3.0000000000000000e2
8.0000000000000007e-6
*Conductivity
1.5000000000000000e1, 3.0000000000000000e2
1.8000000000000000e1, 5.0000000000000000e2
*Density
1.0000000000000000e2
*Specific Heat
1.0000000000000000e0, 3.0000000000000000e2
1.2000000000000000e0, 5.0000000000000000e2
*Material, name=SECONDARY_MATERIAL
*Elastic
1.0000000000000000e8, 2.9999999999999999e-01, 3.0000000000000000e2
9.0000000000000000e7, 2.9999999999999999e-01, 5.0000000000000000e2
*Expansion, zero=3.0000000000000000e2
1.0000000000000001e-5
*Conductivity
1.0000000000000000e1, 3.0000000000000000e2
1.2000000000000000e1, 5.0000000000000000e2
*Density
1.0000000000000000e2
*Specific Heat
1.0000000000000000e0, 3.0000000000000000e2
1.2000000000000000e0, 5.0000000000000000e2
*Solid Section, elset=PRIMARY, material=PRIMARY_MATERIAL
,
*Solid Section, elset=SECONDARY, material=SECONDARY_MATERIAL
,
*Surface Interaction, name=COUPLED_CONTACT
*Surface Behavior, pressure-overclosure=LINEAR
1.0000000000000000e+09
*Friction, slip tolerance=5.0000000000000001e-03
5.0000000000000003e-02
*Gap Conductance, pressure
5.0000000000000000e+01, 0.0
5.5000000000000000e+02, 5.0e5
*Contact Pair, interaction=COUPLED_CONTACT, type=SURFACE TO SURFACE, adjust=0.
SECONDARY_CONTACT, PRIMARY_CONTACT
*Amplitude, name=TEMPERATURE_PATH, time=TOTAL TIME
0.0000000000000000e+00, 3.0000000000000000e+02, 8.0000000000000002e-02, 3.0800000000000000e+02, 1.0000000000000001e-01, 3.1000000000000000e+02, 1.7999999999999999e-01, 3.1000000000000000e+02
2.0000000000000001e-01, 3.1000000000000000e+02, 4.0000000000000002e-01, 3.1000000000000000e+02, 4.7999999999999998e-01, 3.1000000000000000e+02, 5.0000000000000000e-01, 3.1000000000000000e+02
5.7999999999999996e-01, 3.1000000000000000e+02, 5.9999999999999998e-01, 3.1000000000000000e+02, 8.0000000000000004e-01, 3.1000000000000000e+02, 8.8000000000000000e-01, 3.1000000000000000e+02
9.0000000000000002e-01, 3.1000000000000000e+02
*Amplitude, name=PRESSURE_PATH, time=TOTAL TIME
0.0000000000000000e+00, 0.0000000000000000e+00, 8.0000000000000002e-02, 0.0000000000000000e+00, 1.0000000000000001e-01, 0.0000000000000000e+00, 1.7999999999999999e-01, 0.0000000000000000e+00
2.0000000000000001e-01, 0.0000000000000000e+00, 4.0000000000000002e-01, 0.0000000000000000e+00, 4.7999999999999998e-01, 0.0000000000000000e+00, 5.0000000000000000e-01, 0.0000000000000000e+00
5.7999999999999996e-01, 0.0000000000000000e+00, 5.9999999999999998e-01, 0.0000000000000000e+00, 8.0000000000000004e-01, 0.0000000000000000e+00, 8.8000000000000000e-01, 0.0000000000000000e+00
9.0000000000000002e-01, 0.0000000000000000e+00
*Amplitude, name=NORMAL_PATH, time=TOTAL TIME
0.0000000000000000e+00, 0.0000000000000000e+00, 8.0000000000000002e-02, 0.0000000000000000e+00, 1.0000000000000001e-01, -5.0000000000000001e-04, 1.7999999999999999e-01, -5.0000000000000001e-04
2.0000000000000001e-01, 0.0000000000000000e+00, 4.0000000000000002e-01, 0.0000000000000000e+00, 4.7999999999999998e-01, 0.0000000000000000e+00, 5.0000000000000000e-01, -5.0000000000000001e-04
5.7999999999999996e-01, -5.0000000000000001e-04, 5.9999999999999998e-01, 0.0000000000000000e+00, 8.0000000000000004e-01, 0.0000000000000000e+00, 8.8000000000000000e-01, 0.0000000000000000e+00
9.0000000000000002e-01, -5.0000000000000001e-04
*Amplitude, name=TANGENTIAL_Y_PATH, time=TOTAL TIME
0.0000000000000000e+00, 0.0000000000000000e+00, 8.0000000000000002e-02, 4.0000000000000001e-02, 1.0000000000000001e-01, 5.0000000000000003e-02, 1.7999999999999999e-01, 5.0000000000000003e-02
2.0000000000000001e-01, 5.0000000000000003e-02, 4.0000000000000002e-01, 9.4999999999999996e-01, 4.7999999999999998e-01, 9.4999999999999996e-01, 5.0000000000000000e-01, 9.4999999999999996e-01
5.7999999999999996e-01, 9.4999999999999996e-01, 5.9999999999999998e-01, 9.4999999999999996e-01, 8.0000000000000004e-01, 5.0000000000000003e-02, 8.8000000000000000e-01, 5.0000000000000003e-02
9.0000000000000002e-01, 5.0000000000000003e-02
*Amplitude, name=TANGENTIAL_Z_PATH, time=TOTAL TIME
0.0000000000000000e+00, 0.0000000000000000e+00, 8.0000000000000002e-02, 3.2000000000000001e-02, 1.0000000000000001e-01, 4.0000000000000001e-02, 1.7999999999999999e-01, 4.0000000000000001e-02
2.0000000000000001e-01, 4.0000000000000001e-02, 4.0000000000000002e-01, 2.0000000000000001e-01, 4.7999999999999998e-01, 2.0000000000000001e-01, 5.0000000000000000e-01, 2.0000000000000001e-01
5.7999999999999996e-01, 2.0000000000000001e-01, 5.9999999999999998e-01, 2.0000000000000001e-01, 8.0000000000000004e-01, 4.0000000000000002e-01, 8.8000000000000000e-01, 4.0000000000000002e-01
9.0000000000000002e-01, 4.0000000000000002e-01
*Amplitude, name=BENDING_PATH, time=TOTAL TIME
0.0000000000000000e+00, 0.0000000000000000e+00, 8.0000000000000002e-02, 8.3333333333333329e-02, 1.0000000000000001e-01, 1.6666666666666666e-01, 1.7999999999999999e-01, 2.5000000000000000e-01
2.0000000000000001e-01, 3.3333333333333331e-01, 4.0000000000000002e-01, 4.1666666666666669e-01, 4.7999999999999998e-01, 5.0000000000000000e-01, 5.0000000000000000e-01, 5.8333333333333337e-01
5.7999999999999996e-01, 6.6666666666666663e-01, 5.9999999999999998e-01, 7.5000000000000000e-01, 8.0000000000000004e-01, 8.3333333333333337e-01, 8.8000000000000000e-01, 9.1666666666666663e-01
9.0000000000000002e-01, 1.0000000000000000e+00
*Initial Conditions, type=TEMPERATURE
ALL_NODES, 3.0000000000000000e2
*Diagnostics, nonhybrid=WARNING
*Step, name=PATH, nlgeom=YES, inc=160
*Coupled Temperature-Displacement
2.0000000000000000e-02, 9.0000000000000002e-01, 2.0000000000000000e-02, 2.0000000000000000e-02
*Controls, parameters=FIELD, field=DISPLACEMENT
1.0000000000000000e-10, 1.0000000000000000e-10, , , , 1.0000000000000000e-10
*Boundary
PRIMARY_OUTER_NODES, 1, 3, 0.0
PRIMARY_OUTER_NODES, 11, 11, 3.0000000000000000e2
*Boundary, amplitude=TEMPERATURE_PATH
SECONDARY_OUTER_NODES, 11, 11, 1.0
*Boundary, amplitude=NORMAL_PATH
SECONDARY_OUTER_NODES, 1, 1, 1.0
*Boundary, amplitude=TANGENTIAL_Y_PATH
SECONDARY_ALL_NODES, 2, 2, 1.0
*Boundary, amplitude=TANGENTIAL_Z_PATH
SECONDARY_ALL_NODES, 3, 3, 1.0
*Output, field, frequency=1
*Node Output
COORD, NT, RF, RFL, U
*Element Output, directions=YES
CE, CEEQ, COORD, EE, HFL, IVOL, LE, PE, PEEQ, S, TEMP
*Contact Output
CDISP, CFORCE, CSTRESS, CTANDIR, CSTATUS, HFL
*Output, history, frequency=1
*Energy Output
ALLAE, ALLCD, ALLFD, ALLIE, ALLPD, ALLSE, ALLWK
*End Step
