*Heading
** Manual native-operator identification: independent radial translation, aspect ratio and skew.
*Preprint, echo=NO, model=NO, history=NO, contact=NO
*Node
1, 2, 0
2, 3, 0
3, 3, 1
4, 2, 1
5, 1, 0
6, 3, 0
7, 3, 1
8, 1, 1
9, 1, 0
10, 2, 0
11, 2, 2
12, 1, 2
13, 1, 0
14, 2, 0
15, 2.5, 1
16, 1.5, 1
17, 1, 0
18, 2, 0
19, 2, 1
20, 1, 1
21, 1, 3
22, 2, 3
23, 2.5, 4
24, 1.5, 4
*Element, type=CAX4RT, elset=SOLID
1, 1, 2, 3, 4
2, 5, 6, 7, 8
3, 9, 10, 11, 12
4, 13, 14, 15, 16
5, 17, 18, 19, 20
6, 22, 23, 24, 21
*Nset, nset=ALL, generate
1, 24, 1
*Nset, nset=T1
1, 5, 9, 13, 17, 21
*Nset, nset=T2
2, 6, 10, 14, 18, 22
*Nset, nset=T3
3, 7, 11, 15, 19, 23
*Nset, nset=T4
4, 8, 12, 16, 20, 24
*Material, name=SOLID
*Elastic
1e6, 0.25
*Conductivity
10
*Density
1000
*Specific Heat
100
*Solid Section, elset=SOLID, material=SOLID
,
*Initial Conditions, type=TEMPERATURE
ALL, 600
*Step, name=PROBE, nlgeom=NO, inc=1
*Coupled Temperature-Displacement, steady state
0.1, 0.1, 0.1, 0.1
*Boundary
ALL, 1, 2, 0
T1, 11, 11, 600
T2, 11, 11, 620
T3, 11, 11, 590
T4, 11, 11, 610
*Output, field, frequency=1
*Node Output
NT, U, RF, RFL
*Element Output
S, EE, COORD, IVOL, HFL
*Output, history, frequency=0
*End Step
*Step, name=LINEAR, nlgeom=NO, inc=1
*Coupled Temperature-Displacement, steady state
0.1, 0.1, 0.1, 0.1
*Boundary
T1, 11, 11, 600
T2, 11, 11, 620
T3, 11, 11, 610
T4, 11, 11, 590
*End Step
