*Heading
** Rectangular CAX4RT identification of default hourglass and heat integration.
*Preprint, echo=NO, model=NO, history=NO, contact=NO
*Node
1, 0.001, 0
2, 0.002, 0
3, 0.002, 0.001
4, 0.001, 0.001
*Element, type=CAX4RT, elset=SOLID
1, 1, 2, 3, 4
*Nset, nset=ALL
1, 2, 3, 4
*Material, name=SOLID
*Elastic
1e6, 0.25
*Expansion, zero=600
1e-5
*Conductivity
10
*Density
1000
*Specific Heat
100
*Solid Section, elset=SOLID, material=SOLID
,
*Initial Conditions, type=TEMPERATURE
ALL, 600
*Step, name=PROBE, nlgeom=NO, inc=1
*Coupled Temperature-Displacement, steady state
0.1, 0.1, 0.1, 0.1
*Boundary
1, 1, 1, 0.00001
1, 2, 2, 0.00002
2, 1, 1, 0.00003
2, 2, 2, -0.00001
3, 1, 1, 0.00006
3, 2, 2, 0.00007
4, 1, 1, -0.00002
4, 2, 2, 0.00005
1, 11, 11, 600
2, 11, 11, 620
3, 11, 11, 590
4, 11, 11, 610
*Output, field, frequency=1
*Node Output
NT, U, RF, RFL
*Element Output
S, EE, COORD, IVOL, HFL
*Output, history, frequency=0
*End Step
