*Heading
** C3D20RT nonmatching surface-to-surface thermal contact and friction reversal.
** Generated from the same Fuelsim mesh that is stored as the tracked Exodus reference.
*Node
1, 0,-0.10000000000000001, 0
2, 1,-0.10000000000000001, 0
3, 1,0.45000000000000007, 0
4, 0,0.45000000000000007, 0
5, 0,-0.10000000000000001, 1
6, 1,-0.10000000000000001, 1
7, 1,0.45000000000000007, 1
8, 0,0.45000000000000007, 1
9, 0.5,-0.10000000000000001, 0
10, 1,0.17500000000000002, 0
11, 0.5,0.45000000000000007, 0
12, 0,0.17500000000000002, 0
13, 0,-0.10000000000000001, 0.5
14, 1,-0.10000000000000001, 0.5
15, 1,0.45000000000000007, 0.5
16, 0,0.45000000000000007, 0.5
17, 0.5,-0.10000000000000001, 1
18, 1,0.17500000000000002, 1
19, 0.5,0.45000000000000007, 1
20, 0,0.17500000000000002, 1
21, 1,1, 0
22, 0,1, 0
23, 1,1, 1
24, 0,1, 1
25, 1,0.72500000000000009, 0
26, 0.5,1, 0
27, 0,0.72500000000000009, 0
28, 1,1, 0.5
29, 0,1, 0.5
30, 1,0.72500000000000009, 1
31, 0.5,1, 1
32, 0,0.72500000000000009, 1
33, 1,1.55, 0
34, 0,1.55, 0
35, 1,1.55, 1
36, 0,1.55, 1
37, 1,1.2749999999999999, 0
38, 0.5,1.55, 0
39, 0,1.2749999999999999, 0
40, 1,1.55, 0.5
41, 0,1.55, 0.5
42, 1,1.2749999999999999, 1
43, 0.5,1.55, 1
44, 0,1.2749999999999999, 1
45, 1,2.1000000000000001, 0
46, 0,2.1000000000000001, 0
47, 1,2.1000000000000001, 1
48, 0,2.1000000000000001, 1
49, 1,1.8250000000000002, 0
50, 0.5,2.1000000000000001, 0
51, 0,1.8250000000000002, 0
52, 1,2.1000000000000001, 0.5
53, 0,2.1000000000000001, 0.5
54, 1,1.8250000000000002, 1
55, 0.5,2.1000000000000001, 1
56, 0,1.8250000000000002, 1
57, 1, 0, 0
58, 2, 0, 0
59, 2, 1.2, 0
60, 1, 1.2, 0
61, 1, 0, 1
62, 2, 0, 1
63, 2, 1.2, 1
64, 1, 1.2, 1
65, 1.5, 0, 0
66, 2, 0.6, 0
67, 1.5, 1.2, 0
68, 1, 0.6, 0
69, 1, 0, 0.5
70, 2, 0, 0.5
71, 2, 1.2, 0.5
72, 1, 1.2, 0.5
73, 1.5, 0, 1
74, 2, 0.6, 1
75, 1.5, 1.2, 1
76, 1, 0.6, 1
77, 2, 2, 0
78, 1, 2, 0
79, 2, 2, 1
80, 1, 2, 1
81, 2, 1.6, 0
82, 1.5, 2, 0
83, 1, 1.6, 0
84, 2, 2, 0.5
85, 1, 2, 0.5
86, 2, 1.6, 1
87, 1.5, 2, 1
88, 1, 1.6, 1
*Element, type=C3D20RT, elset=PRIMARY
1, 1, 2, 3, 4, 5, 6, 7, 8, 9, 10, 11, 12, 17, 18, 19, 20, 13, 14, 15, 16
2, 4, 3, 21, 22, 8, 7, 23, 24, 11, 25, 26, 27, 19, 30, 31, 32, 16, 15, 28, 29
3, 22, 21, 33, 34, 24, 23, 35, 36, 26, 37, 38, 39, 31, 42, 43, 44, 29, 28, 40, 41
4, 34, 33, 45, 46, 36, 35, 47, 48, 38, 49, 50, 51, 43, 54, 55, 56, 41, 40, 52, 53
*Element, type=C3D20RT, elset=SECONDARY
5, 57, 58, 59, 60, 61, 62, 63, 64, 65, 66, 67, 68, 73, 74, 75, 76, 69, 70, 71, 72
6, 60, 59, 77, 78, 64, 63, 79, 80, 67, 81, 82, 83, 75, 86, 87, 88, 72, 71, 84, 85
*Elset, elset=ALL
PRIMARY, SECONDARY
*Nset, nset=PRIMARY_X0
1, 4, 5, 8, 12, 13, 16, 20, 22, 24, 27, 29, 32, 34, 36, 39
41, 44, 46, 48, 51, 53, 56
*Nset, nset=SECONDARY_X2
58, 59, 62, 63, 66, 70, 71, 74, 77, 79, 81, 84, 86
*Nset, nset=SECONDARY_Y0
57, 58, 61, 62, 65, 69, 70, 73
*Nset, nset=SECONDARY_Z0
57, 58, 59, 60, 65, 66, 67, 68, 77, 78, 81, 82, 83
*Surface, type=ELEMENT, name=PRIMARY_CONTACT
PRIMARY, S4
*Surface, type=ELEMENT, name=SECONDARY_CONTACT
SECONDARY, S6
*Nset, nset=ALL_NODES, generate
1, 88, 1
*Nset, nset=SECONDARY_NODES, generate
57, 88, 1
*Material, name=ELASTIC
*Elastic
1.e9, 0.
*Conductivity
10
*Density
1
*Specific Heat
1
*Solid Section, elset=ALL, material=ELASTIC
,
*Surface Interaction, name=PENALTY_CONTACT
*Surface Behavior, pressure-overclosure=LINEAR
1.e11,
*Friction
0.,
*Gap Conductance
100, 0
100, 1e-5
*Gap Heat Generation
0, 0.5
*Contact Pair, interaction=PENALTY_CONTACT, type=SURFACE TO SURFACE, adjust=0.
SECONDARY_CONTACT, PRIMARY_CONTACT
*Initial Conditions, type=TEMPERATURE
ALL_NODES, 300
SECONDARY_NODES, 400
*Time Points, name=OUTPUT_TIMES, generate
0.025, 1., 0.025
*Step, name=INITIAL_STICK, nlgeom=YES, unsymm=YES, extrapolation=NO, inc=10000
*Coupled Temperature-Displacement, deltmx=100
0.025, 1., 1e-7, 0.025
*Controls, parameters=FIELD, field=DISPLACEMENT
1e-10, 1e-10, , , , 1e-10
*Controls, analysis=DISCONTINUOUS
*Controls, parameters=LINE SEARCH
5
*Boundary
PRIMARY_X0, 11, 11, 300
SECONDARY_X2, 11, 11, 400
PRIMARY_X0, 1, 3, 0.
SECONDARY_X2, 1, 1, -0.02
SECONDARY_X2, 2, 2, 0.005
SECONDARY_Z0, 3, 3, 0.
*Output, field, time points=OUTPUT_TIMES, time marks=YES
*Node Output
COORD, RF, U, NT, RFL
*Element Output, directions=YES
S, EE, COORD, IVOL
*Contact Output
CSTRESS, CDISP, CFORCE, HFLA, CTANDIR
*End Step
*Step, name=STICK, nlgeom=YES, unsymm=YES, extrapolation=NO, inc=10000
*Coupled Temperature-Displacement, deltmx=100
0.025, 1., 1e-7, 0.025
*Controls, parameters=FIELD, field=DISPLACEMENT
1e-10, 1e-10, , , , 1e-10
*Controls, analysis=DISCONTINUOUS
*Controls, parameters=LINE SEARCH
5
*Boundary
SECONDARY_X2, 1, 1, -0.02
SECONDARY_X2, 2, 2, 0.01
*Output, field, time points=OUTPUT_TIMES, time marks=YES
*Node Output
COORD, RF, U, NT, RFL
*Element Output, directions=YES
S, EE, COORD, IVOL
*Contact Output
CSTRESS, CDISP, CFORCE, HFLA, CTANDIR
*End Step
*Step, name=MIXED, nlgeom=YES, unsymm=YES, extrapolation=NO, inc=10000
*Coupled Temperature-Displacement, deltmx=100
0.025, 1., 1e-7, 0.025
*Controls, parameters=FIELD, field=DISPLACEMENT
1e-10, 1e-10, , , , 1e-10
*Controls, analysis=DISCONTINUOUS
*Controls, parameters=LINE SEARCH
5
*Boundary
SECONDARY_X2, 1, 1, -0.02
SECONDARY_X2, 2, 2, 0.03
*Output, field, time points=OUTPUT_TIMES, time marks=YES
*Node Output
COORD, RF, U, NT, RFL
*Element Output, directions=YES
S, EE, COORD, IVOL
*Contact Output
CSTRESS, CDISP, CFORCE, HFLA, CTANDIR
*End Step
*Step, name=FORWARD_SLIDE, nlgeom=YES, unsymm=YES, extrapolation=NO, inc=10000
*Coupled Temperature-Displacement, deltmx=100
0.025, 1., 1e-7, 0.025
*Controls, parameters=FIELD, field=DISPLACEMENT
1e-10, 1e-10, , , , 1e-10
*Controls, analysis=DISCONTINUOUS
*Controls, parameters=LINE SEARCH
5
*Boundary
SECONDARY_X2, 1, 1, -0.02
SECONDARY_X2, 2, 2, 0.06
*Output, field, time points=OUTPUT_TIMES, time marks=YES
*Node Output
COORD, RF, U, NT, RFL
*Element Output, directions=YES
S, EE, COORD, IVOL
*Contact Output
CSTRESS, CDISP, CFORCE, HFLA, CTANDIR
*End Step
*Step, name=UNLOAD, nlgeom=YES, unsymm=YES, extrapolation=NO, inc=10000
*Coupled Temperature-Displacement, deltmx=100
0.025, 1., 1e-7, 0.025
*Controls, parameters=FIELD, field=DISPLACEMENT
1e-10, 1e-10, , , , 1e-10
*Controls, analysis=DISCONTINUOUS
*Controls, parameters=LINE SEARCH
5
*Boundary
SECONDARY_X2, 1, 1, -0.02
SECONDARY_X2, 2, 2, 0.01
*Output, field, time points=OUTPUT_TIMES, time marks=YES
*Node Output
COORD, RF, U, NT, RFL
*Element Output, directions=YES
S, EE, COORD, IVOL
*Contact Output
CSTRESS, CDISP, CFORCE, HFLA, CTANDIR
*End Step
*Step, name=REVERSE_SLIDE, nlgeom=YES, unsymm=YES, extrapolation=NO, inc=10000
*Coupled Temperature-Displacement, deltmx=100
0.025, 1., 1e-7, 0.025
*Controls, parameters=FIELD, field=DISPLACEMENT
1e-10, 1e-10, , , , 1e-10
*Controls, analysis=DISCONTINUOUS
*Controls, parameters=LINE SEARCH
5
*Boundary
SECONDARY_X2, 1, 1, -0.02
SECONDARY_X2, 2, 2, -0.05
*Output, field, time points=OUTPUT_TIMES, time marks=YES
*Node Output
COORD, RF, U, NT, RFL
*Element Output, directions=YES
S, EE, COORD, IVOL
*Contact Output
CSTRESS, CDISP, CFORCE, HFLA, CTANDIR
*End Step
*Step, name=RESTICK, nlgeom=YES, unsymm=YES, extrapolation=NO, inc=10000
*Coupled Temperature-Displacement, deltmx=100
0.025, 1., 1e-7, 0.025
*Controls, parameters=FIELD, field=DISPLACEMENT
1e-10, 1e-10, , , , 1e-10
*Controls, analysis=DISCONTINUOUS
*Controls, parameters=LINE SEARCH
5
*Boundary
SECONDARY_X2, 1, 1, -0.02
SECONDARY_X2, 2, 2, -0.045
*Output, field, time points=OUTPUT_TIMES, time marks=YES
*Node Output
COORD, RF, U, NT, RFL
*Element Output, directions=YES
S, EE, COORD, IVOL
*Contact Output
CSTRESS, CDISP, CFORCE, HFLA, CTANDIR
*End Step
