*Heading
** H20.40 true-quadratic curved HEX20 finite-sliding friction path.
*Preprint, echo=NO, model=NO, history=NO, contact=YES
*Node
1, 0.6363961030678928, -0.6363961030678927, -0.5
2, 0.7071067811865476, -0.7071067811865475, -0.5
3, 0.8314696123025452, -0.5555702330196022, -0.5
4, 0.7483226510722907, -0.500013209717642, -0.5
5, 0.6363961030678928, -0.6363961030678927, 1.5
6, 0.7071067811865476, -0.7071067811865475, 1.5
7, 0.8314696123025452, -0.5555702330196022, 1.5
8, 0.7483226510722907, -0.500013209717642, 1.5
9, 0.6717514421272202, -0.67175144212722, -0.5
10, 0.773010453362737, -0.6343932841636455, -0.5
11, 0.7898961316874179, -0.5277917213686221, -0.5
12, 0.6957094080264633, -0.5709539557472809, -0.5
13, 0.6363961030678928, -0.6363961030678927, 0.5
14, 0.7071067811865476, -0.7071067811865475, 0.5
15, 0.8314696123025452, -0.5555702330196022, 0.5
16, 0.7483226510722907, -0.500013209717642, 0.5
17, 0.6717514421272202, -0.67175144212722, 1.5
18, 0.773010453362737, -0.6343932841636455, 1.5
19, 0.7898961316874179, -0.5277917213686221, 1.5
20, 0.6957094080264633, -0.5709539557472809, 1.5
21, 0.9238795325112867, -0.3826834323650898, -0.5
22, 0.831491579260158, -0.3444150891285808, -0.5
23, 0.9238795325112867, -0.3826834323650898, 1.5
24, 0.831491579260158, -0.3444150891285808, 1.5
25, 0.881921264348355, -0.4713967368259976, -0.5
26, 0.8776855558857224, -0.3635492607468353, -0.5
27, 0.7937291379135195, -0.4242570631433979, -0.5
28, 0.9238795325112867, -0.3826834323650898, 0.5
29, 0.831491579260158, -0.3444150891285808, 0.5
30, 0.881921264348355, -0.4713967368259976, 1.5
31, 0.8776855558857224, -0.3635492607468353, 1.5
32, 0.7937291379135195, -0.4242570631433979, 1.5
33, 0.9807852804032304, -0.1950903220161282, -0.5
34, 0.8827067523629074, -0.1755812898145154, -0.5
35, 0.9807852804032304, -0.1950903220161282, 1.5
36, 0.8827067523629074, -0.1755812898145154, 1.5
37, 0.9569403357322088, -0.2902846772544623, -0.5
38, 0.9317460163830689, -0.1853358059153218, -0.5
39, 0.861246302158988, -0.2612562095290161, -0.5
40, 0.9807852804032304, -0.1950903220161282, 0.5
41, 0.8827067523629074, -0.1755812898145154, 0.5
42, 0.9569403357322088, -0.2902846772544623, 1.5
43, 0.9317460163830689, -0.1853358059153218, 1.5
44, 0.861246302158988, -0.2612562095290161, 1.5
45, 1, 0, -0.5
46, 0.9, 0, -0.5
47, 1, 0, 1.5
48, 0.9, 0, 1.5
49, 0.9951847266721969, -0.0980171403295606, -0.5
50, 0.95, 0, -0.5
51, 0.8956662540049772, -0.08821542629660455, -0.5
52, 1, 0, 0.5
53, 0.9, 0, 0.5
54, 0.9951847266721969, -0.0980171403295606, 1.5
55, 0.95, 0, 1.5
56, 0.8956662540049772, -0.08821542629660455, 1.5
57, 0.9807852804032304, 0.1950903220161282, -0.5
58, 0.8827067523629074, 0.1755812898145154, -0.5
59, 0.9807852804032304, 0.1950903220161282, 1.5
60, 0.8827067523629074, 0.1755812898145154, 1.5
61, 0.9951847266721969, 0.0980171403295606, -0.5
62, 0.9317460163830689, 0.1853358059153218, -0.5
63, 0.8956662540049772, 0.08821542629660455, -0.5
64, 0.9807852804032304, 0.1950903220161282, 0.5
65, 0.8827067523629074, 0.1755812898145154, 0.5
66, 0.9951847266721969, 0.0980171403295606, 1.5
67, 0.9317460163830689, 0.1853358059153218, 1.5
68, 0.8956662540049772, 0.08821542629660455, 1.5
69, 0.9238795325112867, 0.3826834323650898, -0.5
70, 0.831491579260158, 0.3444150891285808, -0.5
71, 0.9238795325112867, 0.3826834323650898, 1.5
72, 0.831491579260158, 0.3444150891285808, 1.5
73, 0.9569403357322088, 0.2902846772544623, -0.5
74, 0.8776855558857224, 0.3635492607468353, -0.5
75, 0.861246302158988, 0.2612562095290161, -0.5
76, 0.9238795325112867, 0.3826834323650898, 0.5
77, 0.831491579260158, 0.3444150891285808, 0.5
78, 0.9569403357322088, 0.2902846772544623, 1.5
79, 0.8776855558857224, 0.3635492607468353, 1.5
80, 0.861246302158988, 0.2612562095290161, 1.5
81, 0.8314696123025452, 0.5555702330196022, -0.5
82, 0.7483226510722907, 0.500013209717642, -0.5
83, 0.8314696123025452, 0.5555702330196022, 1.5
84, 0.7483226510722907, 0.500013209717642, 1.5
85, 0.881921264348355, 0.4713967368259976, -0.5
86, 0.7898961316874179, 0.5277917213686221, -0.5
87, 0.7937291379135195, 0.4242570631433979, -0.5
88, 0.8314696123025452, 0.5555702330196022, 0.5
89, 0.7483226510722907, 0.500013209717642, 0.5
90, 0.881921264348355, 0.4713967368259976, 1.5
91, 0.7898961316874179, 0.5277917213686221, 1.5
92, 0.7937291379135195, 0.4242570631433979, 1.5
93, 0.7071067811865476, 0.7071067811865475, -0.5
94, 0.6363961030678928, 0.6363961030678927, -0.5
95, 0.7071067811865476, 0.7071067811865475, 1.5
96, 0.6363961030678928, 0.6363961030678927, 1.5
97, 0.773010453362737, 0.6343932841636455, -0.5
98, 0.6717514421272202, 0.67175144212722, -0.5
99, 0.6957094080264633, 0.5709539557472809, -0.5
100, 0.7071067811865476, 0.7071067811865475, 0.5
101, 0.6363961030678928, 0.6363961030678927, 0.5
102, 0.773010453362737, 0.6343932841636455, 1.5
103, 0.6717514421272202, 0.67175144212722, 1.5
104, 0.6957094080264633, 0.5709539557472809, 1.5
105, 0.5555702330196023, 0.8314696123025452, -0.5
106, 0.5000132097176421, 0.7483226510722907, -0.5
107, 0.5555702330196023, 0.8314696123025452, 1.5
108, 0.5000132097176421, 0.7483226510722907, 1.5
109, 0.6343932841636455, 0.773010453362737, -0.5
110, 0.5277917213686222, 0.7898961316874179, -0.5
111, 0.5709539557472809, 0.6957094080264633, -0.5
112, 0.5555702330196023, 0.8314696123025452, 0.5
113, 0.5000132097176421, 0.7483226510722907, 0.5
114, 0.6343932841636455, 0.773010453362737, 1.5
115, 0.5277917213686222, 0.7898961316874179, 1.5
116, 0.5709539557472809, 0.6957094080264633, 1.5
117, 0.3826834323650898, 0.9238795325112867, -0.5
118, 0.3444150891285809, 0.831491579260158, -0.5
119, 0.3826834323650898, 0.9238795325112867, 1.5
120, 0.3444150891285809, 0.831491579260158, 1.5
121, 0.4713967368259978, 0.8819212643483549, -0.5
122, 0.3635492607468353, 0.8776855558857224, -0.5
123, 0.4242570631433981, 0.7937291379135195, -0.5
124, 0.3826834323650898, 0.9238795325112867, 0.5
125, 0.3444150891285809, 0.831491579260158, 0.5
126, 0.4713967368259978, 0.8819212643483549, 1.5
127, 0.3635492607468353, 0.8776855558857224, 1.5
128, 0.4242570631433981, 0.7937291379135195, 1.5
129, 0.1950903220161283, 0.9807852804032304, -0.5
130, 0.1755812898145155, 0.8827067523629074, -0.5
131, 0.1950903220161283, 0.9807852804032304, 1.5
132, 0.1755812898145155, 0.8827067523629074, 1.5
133, 0.2902846772544623, 0.9569403357322089, -0.5
134, 0.1853358059153219, 0.9317460163830689, -0.5
135, 0.2612562095290161, 0.861246302158988, -0.5
136, 0.1950903220161283, 0.9807852804032304, 0.5
137, 0.1755812898145155, 0.8827067523629074, 0.5
138, 0.2902846772544623, 0.9569403357322089, 1.5
139, 0.1853358059153219, 0.9317460163830689, 1.5
140, 0.2612562095290161, 0.861246302158988, 1.5
141, 2.83276944882399e-16, 1, -0.5
142, 2.549492503941591e-16, 0.9, -0.5
143, 2.83276944882399e-16, 1, 1.5
144, 2.549492503941591e-16, 0.9, 1.5
145, 0.09801714032956077, 0.9951847266721968, -0.5
146, 2.69113097638279e-16, 0.95, -0.5
147, 0.0882154262966047, 0.8956662540049771, -0.5
148, 2.83276944882399e-16, 1, 0.5
149, 2.549492503941591e-16, 0.9, 0.5
150, 0.09801714032956077, 0.9951847266721968, 1.5
151, 2.69113097638279e-16, 0.95, 1.5
152, 0.0882154262966047, 0.8956662540049771, 1.5
153, -0.1950903220161282, 0.9807852804032304, -0.5
154, -0.1755812898145154, 0.8827067523629074, -0.5
155, -0.1950903220161282, 0.9807852804032304, 1.5
156, -0.1755812898145154, 0.8827067523629074, 1.5
157, -0.09801714032956065, 0.9951847266721969, -0.5
158, -0.1853358059153218, 0.9317460163830689, -0.5
159, -0.08821542629660459, 0.8956662540049772, -0.5
160, -0.1950903220161282, 0.9807852804032304, 0.5
161, -0.1755812898145154, 0.8827067523629074, 0.5
162, -0.09801714032956065, 0.9951847266721969, 1.5
163, -0.1853358059153218, 0.9317460163830689, 1.5
164, -0.08821542629660459, 0.8956662540049772, 1.5
165, -0.3826834323650899, 0.9238795325112867, -0.5
166, -0.3444150891285809, 0.831491579260158, -0.5
167, -0.3826834323650899, 0.9238795325112867, 1.5
168, -0.3444150891285809, 0.831491579260158, 1.5
169, -0.2902846772544626, 0.9569403357322088, -0.5
170, -0.3635492607468354, 0.8776855558857224, -0.5
171, -0.2612562095290163, 0.861246302158988, -0.5
172, -0.3826834323650899, 0.9238795325112867, 0.5
173, -0.3444150891285809, 0.831491579260158, 0.5
174, -0.2902846772544626, 0.9569403357322088, 1.5
175, -0.3635492607468354, 0.8776855558857224, 1.5
176, -0.2612562095290163, 0.861246302158988, 1.5
177, -0.555570233019602, 0.8314696123025455, -0.5
178, -0.5000132097176417, 0.7483226510722909, -0.5
179, -0.555570233019602, 0.8314696123025455, 1.5
180, -0.5000132097176417, 0.7483226510722909, 1.5
181, -0.4713967368259977, 0.881921264348355, -0.5
182, -0.5277917213686218, 0.7898961316874181, -0.5
183, -0.424257063143398, 0.7937291379135195, -0.5
184, -0.555570233019602, 0.8314696123025455, 0.5
185, -0.5000132097176417, 0.7483226510722909, 0.5
186, -0.4713967368259977, 0.881921264348355, 1.5
187, -0.5277917213686218, 0.7898961316874181, 1.5
188, -0.424257063143398, 0.7937291379135195, 1.5
189, -0.7071067811865475, 0.7071067811865476, -0.5
190, -0.6363961030678927, 0.6363961030678928, -0.5
191, -0.7071067811865475, 0.7071067811865476, 1.5
192, -0.6363961030678927, 0.6363961030678928, 1.5
193, -0.6343932841636454, 0.7730104533627371, -0.5
194, -0.67175144212722, 0.6717514421272202, -0.5
195, -0.5709539557472808, 0.6957094080264634, -0.5
196, -0.7071067811865475, 0.7071067811865476, 0.5
197, -0.6363961030678927, 0.6363961030678928, 0.5
198, -0.6343932841636454, 0.7730104533627371, 1.5
199, -0.67175144212722, 0.6717514421272202, 1.5
200, -0.5709539557472808, 0.6957094080264634, 1.5
201, 1, 0, 0
202, 1.1, 0, 0
203, 1.078863808443554, 0.2145993542177411, 0
204, 0.9807852804032304, 0.1950903220161282, 0
205, 1, 0, 1
206, 1.1, 0, 1
207, 1.078863808443554, 0.2145993542177411, 1
208, 0.9807852804032304, 0.1950903220161282, 1
209, 1.05, 0, 0
210, 1.094703199339417, 0.1078188543625167, 0
211, 1.029824544423392, 0.2048448381169347, 0
212, 0.9951847266721969, 0.0980171403295606, 0
213, 1, 0, 0.5
214, 1.1, 0, 0.5
215, 1.078863808443554, 0.2145993542177411, 0.5
216, 0.9807852804032304, 0.1950903220161282, 0.5
217, 1.05, 0, 1
218, 1.094703199339417, 0.1078188543625167, 1
219, 1.029824544423392, 0.2048448381169347, 1
220, 0.9951847266721969, 0.0980171403295606, 1
221, 1.016267485762415, 0.4209517756015988, 0
222, 0.9238795325112867, 0.3826834323650898, 0
223, 1.016267485762415, 0.4209517756015988, 1
224, 0.9238795325112867, 0.3826834323650898, 1
225, 1.05263436930543, 0.3193131449799086, 0
226, 0.9700735091368511, 0.4018176039833443, 0
227, 0.9569403357322088, 0.2902846772544623, 0
228, 1.016267485762415, 0.4209517756015988, 0.5
229, 0.9238795325112867, 0.3826834323650898, 0.5
230, 1.05263436930543, 0.3193131449799086, 1
231, 0.9700735091368511, 0.4018176039833443, 1
232, 0.9569403357322088, 0.2902846772544623, 1
233, 0.9146165735327998, 0.6111272563215624, 0
234, 0.8314696123025452, 0.5555702330196022, 0
235, 0.9146165735327998, 0.6111272563215624, 1
236, 0.8314696123025452, 0.5555702330196022, 1
237, 0.9701133907831906, 0.5185364105085974, 0
238, 0.8730430929176726, 0.5833487446705823, 0
239, 0.881921264348355, 0.4713967368259976, 0
240, 0.9146165735327998, 0.6111272563215624, 0.5
241, 0.8314696123025452, 0.5555702330196022, 0.5
242, 0.9701133907831906, 0.5185364105085974, 1
243, 0.8730430929176726, 0.5833487446705823, 1
244, 0.881921264348355, 0.4713967368259976, 1
245, 0.7778174593052024, 0.7778174593052023, 0
246, 0.7071067811865476, 0.7071067811865475, 0
247, 0.7778174593052024, 0.7778174593052023, 1
248, 0.7071067811865476, 0.7071067811865475, 1
249, 0.8503114986990108, 0.6978326125800101, 0
250, 0.742462120245875, 0.7424621202458749, 0
251, 0.773010453362737, 0.6343932841636455, 0
252, 0.7778174593052024, 0.7778174593052023, 0.5
253, 0.7071067811865476, 0.7071067811865475, 0.5
254, 0.8503114986990108, 0.6978326125800101, 1
255, 0.742462120245875, 0.7424621202458749, 1
256, 0.773010453362737, 0.6343932841636455, 1
257, 0.6111272563215626, 0.9146165735327998, 0
258, 0.5555702330196023, 0.8314696123025452, 0
259, 0.6111272563215626, 0.9146165735327998, 1
260, 0.5555702330196023, 0.8314696123025452, 1
261, 0.6978326125800101, 0.8503114986990108, 0
262, 0.5833487446705824, 0.8730430929176726, 0
263, 0.6343932841636455, 0.773010453362737, 0
264, 0.6111272563215626, 0.9146165735327998, 0.5
265, 0.5555702330196023, 0.8314696123025452, 0.5
266, 0.6978326125800101, 0.8503114986990108, 1
267, 0.5833487446705824, 0.8730430929176726, 1
268, 0.6343932841636455, 0.773010453362737, 1
269, 0.4209517756015989, 1.016267485762415, 0
270, 0.3826834323650898, 0.9238795325112867, 0
271, 0.4209517756015989, 1.016267485762415, 1
272, 0.3826834323650898, 0.9238795325112867, 1
273, 0.5185364105085977, 0.9701133907831905, 0
274, 0.4018176039833444, 0.9700735091368511, 0
275, 0.4713967368259978, 0.8819212643483549, 0
276, 0.4209517756015989, 1.016267485762415, 0.5
277, 0.3826834323650898, 0.9238795325112867, 0.5
278, 0.5185364105085977, 0.9701133907831905, 1
279, 0.4018176039833444, 0.9700735091368511, 1
280, 0.4713967368259978, 0.8819212643483549, 1
281, 0.2145993542177412, 1.078863808443554, 0
282, 0.1950903220161283, 0.9807852804032304, 0
283, 0.2145993542177412, 1.078863808443554, 1
284, 0.1950903220161283, 0.9807852804032304, 1
285, 0.3193131449799086, 1.05263436930543, 0
286, 0.2048448381169348, 1.029824544423392, 0
287, 0.2902846772544623, 0.9569403357322089, 0
288, 0.2145993542177412, 1.078863808443554, 0.5
289, 0.1950903220161283, 0.9807852804032304, 0.5
290, 0.3193131449799086, 1.05263436930543, 1
291, 0.2048448381169348, 1.029824544423392, 1
292, 0.2902846772544623, 0.9569403357322089, 1
293, 6.735557395310444e-17, 1.1, 0
294, 6.123233995736766e-17, 1, 0
295, 6.735557395310444e-17, 1.1, 1
296, 6.123233995736766e-17, 1, 1
297, 0.1078188543625169, 1.094703199339417, 0
298, 6.429395695523605e-17, 1.05, 0
299, 0.09801714032956077, 0.9951847266721968, 0
300, 6.735557395310444e-17, 1.1, 0.5
301, 6.123233995736766e-17, 1, 0.5
302, 0.1078188543625169, 1.094703199339417, 1
303, 6.429395695523605e-17, 1.05, 1
304, 0.09801714032956077, 0.9951847266721968, 1
*Element, type=C3D20, elset=PRIMARY
1, 1, 2, 3, 4, 5, 6, 7, 8, 9, 10, 11, 12, 17, 18, 19, 20, 13, 14, 15, 16
2, 4, 3, 21, 22, 8, 7, 23, 24, 11, 25, 26, 27, 19, 30, 31, 32, 16, 15, 28, 29
3, 22, 21, 33, 34, 24, 23, 35, 36, 26, 37, 38, 39, 31, 42, 43, 44, 29, 28, 40, 41
4, 34, 33, 45, 46, 36, 35, 47, 48, 38, 49, 50, 51, 43, 54, 55, 56, 41, 40, 52, 53
5, 46, 45, 57, 58, 48, 47, 59, 60, 50, 61, 62, 63, 55, 66, 67, 68, 53, 52, 64, 65
6, 58, 57, 69, 70, 60, 59, 71, 72, 62, 73, 74, 75, 67, 78, 79, 80, 65, 64, 76, 77
7, 70, 69, 81, 82, 72, 71, 83, 84, 74, 85, 86, 87, 79, 90, 91, 92, 77, 76, 88, 89
8, 82, 81, 93, 94, 84, 83, 95, 96, 86, 97, 98, 99, 91, 102, 103, 104, 89, 88, 100, 101
9, 94, 93, 105, 106, 96, 95, 107, 108, 98, 109, 110, 111, 103, 114, 115, 116, 101, 100, 112, 113
10, 106, 105, 117, 118, 108, 107, 119, 120, 110, 121, 122, 123, 115, 126, 127, 128, 113, 112, 124, 125
11, 118, 117, 129, 130, 120, 119, 131, 132, 122, 133, 134, 135, 127, 138, 139, 140, 125, 124, 136, 137
12, 130, 129, 141, 142, 132, 131, 143, 144, 134, 145, 146, 147, 139, 150, 151, 152, 137, 136, 148, 149
13, 142, 141, 153, 154, 144, 143, 155, 156, 146, 157, 158, 159, 151, 162, 163, 164, 149, 148, 160, 161
14, 154, 153, 165, 166, 156, 155, 167, 168, 158, 169, 170, 171, 163, 174, 175, 176, 161, 160, 172, 173
15, 166, 165, 177, 178, 168, 167, 179, 180, 170, 181, 182, 183, 175, 186, 187, 188, 173, 172, 184, 185
16, 178, 177, 189, 190, 180, 179, 191, 192, 182, 193, 194, 195, 187, 198, 199, 200, 185, 184, 196, 197
*Element, type=C3D20, elset=SECONDARY
17, 201, 202, 203, 204, 205, 206, 207, 208, 209, 210, 211, 212, 217, 218, 219, 220, 213, 214, 215, 216
18, 204, 203, 221, 222, 208, 207, 223, 224, 211, 225, 226, 227, 219, 230, 231, 232, 216, 215, 228, 229
19, 222, 221, 233, 234, 224, 223, 235, 236, 226, 237, 238, 239, 231, 242, 243, 244, 229, 228, 240, 241
20, 234, 233, 245, 246, 236, 235, 247, 248, 238, 249, 250, 251, 243, 254, 255, 256, 241, 240, 252, 253
21, 246, 245, 257, 258, 248, 247, 259, 260, 250, 261, 262, 263, 255, 266, 267, 268, 253, 252, 264, 265
22, 258, 257, 269, 270, 260, 259, 271, 272, 262, 273, 274, 275, 267, 278, 279, 280, 265, 264, 276, 277
23, 270, 269, 281, 282, 272, 271, 283, 284, 274, 285, 286, 287, 279, 290, 291, 292, 277, 276, 288, 289
24, 282, 281, 293, 294, 284, 283, 295, 296, 286, 297, 298, 299, 291, 302, 303, 304, 289, 288, 300, 301
*Nset, nset=primary_all
1, 2, 3, 4, 5, 6, 7, 8, 9, 10, 11, 12, 13, 14, 15, 16
17, 18, 19, 20, 21, 22, 23, 24, 25, 26, 27, 28, 29, 30, 31, 32
33, 34, 35, 36, 37, 38, 39, 40, 41, 42, 43, 44, 45, 46, 47, 48
49, 50, 51, 52, 53, 54, 55, 56, 57, 58, 59, 60, 61, 62, 63, 64
65, 66, 67, 68, 69, 70, 71, 72, 73, 74, 75, 76, 77, 78, 79, 80
81, 82, 83, 84, 85, 86, 87, 88, 89, 90, 91, 92, 93, 94, 95, 96
97, 98, 99, 100, 101, 102, 103, 104, 105, 106, 107, 108, 109, 110, 111, 112
113, 114, 115, 116, 117, 118, 119, 120, 121, 122, 123, 124, 125, 126, 127, 128
129, 130, 131, 132, 133, 134, 135, 136, 137, 138, 139, 140, 141, 142, 143, 144
145, 146, 147, 148, 149, 150, 151, 152, 153, 154, 155, 156, 157, 158, 159, 160
161, 162, 163, 164, 165, 166, 167, 168, 169, 170, 171, 172, 173, 174, 175, 176
177, 178, 179, 180, 181, 182, 183, 184, 185, 186, 187, 188, 189, 190, 191, 192
193, 194, 195, 196, 197, 198, 199, 200
*Nset, nset=secondary_all
201, 202, 203, 204, 205, 206, 207, 208, 209, 210, 211, 212, 213, 214, 215, 216
217, 218, 219, 220, 221, 222, 223, 224, 225, 226, 227, 228, 229, 230, 231, 232
233, 234, 235, 236, 237, 238, 239, 240, 241, 242, 243, 244, 245, 246, 247, 248
249, 250, 251, 252, 253, 254, 255, 256, 257, 258, 259, 260, 261, 262, 263, 264
265, 266, 267, 268, 269, 270, 271, 272, 273, 274, 275, 276, 277, 278, 279, 280
281, 282, 283, 284, 285, 286, 287, 288, 289, 290, 291, 292, 293, 294, 295, 296
297, 298, 299, 300, 301, 302, 303, 304
*Nset, nset=secondary_contact_nodes
201, 204, 205, 208, 212, 213, 216, 220, 222, 224, 227, 229, 232, 234, 236, 239
241, 244, 246, 248, 251, 253, 256, 258, 260, 263, 265, 268, 270, 272, 275, 277
280, 282, 284, 287, 289, 292, 294, 296, 299, 301, 304
*Surface, type=ELEMENT, name=PRIMARY_CONTACT
PRIMARY, S4
*Surface, type=ELEMENT, name=SECONDARY_CONTACT
SECONDARY, S6
*Material, name=ELASTIC
*Elastic
1.e9, 0.25
*Solid Section, elset=PRIMARY, material=ELASTIC
,
*Solid Section, elset=SECONDARY, material=ELASTIC
,
*Surface Interaction, name=CONTACT
*Surface Behavior, pressure-overclosure=LINEAR
1.e6,
*Friction, slip tolerance=1.e-4
0.5,
*Contact Pair, interaction=CONTACT, type=SURFACE TO SURFACE, adjust=0.
SECONDARY_CONTACT, PRIMARY_CONTACT
*Step, name=CLOSE, nlgeom=NO, inc=100
*Static
0.025, 1., 1.e-8, 0.025
*Boundary
primary_all, 1, 3, 0.
201, 1, 1, -0.001449516284761421
201, 2, 2, 0.02996550470229317
201, 3, 3, 0.04
202, 1, 1, -0.001494512909862689
202, 2, 2, 0.03296505472254273
202, 3, 3, 0.04
203, 1, 1, -0.007896959404465997
203, 2, 2, 0.03204007543471457
203, 3, 3, 0.04
204, 1, 1, -0.007267644197544998
204, 2, 2, 0.02910693933310118
204, 3, 3, 0.04
205, 1, 1, -0.001449516284761421
205, 2, 2, 0.02996550470229317
205, 3, 3, 0.04
206, 1, 1, -0.001494512909862689
206, 2, 2, 0.03296505472254273
206, 3, 3, 0.04
207, 1, 1, -0.007896959404465997
207, 2, 2, 0.03204007543471457
207, 3, 3, 0.04
208, 1, 1, -0.007267644197544998
208, 2, 2, 0.02910693933310118
208, 3, 3, 0.04
209, 1, 1, -0.001472014597311944
209, 2, 2, 0.03146527971241795
209, 3, 3, 0.04
210, 1, 1, -0.004718456816420913
210, 2, 2, 0.03265983109217735
210, 3, 3, 0.04
211, 1, 1, -0.007582301801005498
211, 2, 2, 0.03057350738390788
211, 3, 3, 0.04
212, 1, 1, -0.004379669547108112
212, 2, 2, 0.0296791351656526
212, 3, 3, 0.04
213, 1, 1, -0.001449516284761421
213, 2, 2, 0.02996550470229317
213, 3, 3, 0.04
214, 1, 1, -0.001494512909862689
214, 2, 2, 0.03296505472254273
214, 3, 3, 0.04
215, 1, 1, -0.007896959404465997
215, 2, 2, 0.03204007543471457
215, 3, 3, 0.04
216, 1, 1, -0.007267644197544998
216, 2, 2, 0.02910693933310118
216, 3, 3, 0.04
217, 1, 1, -0.001472014597311944
217, 2, 2, 0.03146527971241795
217, 3, 3, 0.04
218, 1, 1, -0.004718456816420913
218, 2, 2, 0.03265983109217735
218, 3, 3, 0.04
219, 1, 1, -0.007582301801005498
219, 2, 2, 0.03057350738390788
219, 3, 3, 0.04
220, 1, 1, -0.004379669547108112
220, 2, 2, 0.0296791351656526
220, 3, 3, 0.04
221, 1, 1, -0.01399593017782141
221, 2, 2, 0.0298838140162116
221, 3, 3, 0.04
222, 1, 1, -0.01280648061955869
222, 2, 2, 0.02712981060869779
222, 3, 3, 0.04
223, 1, 1, -0.01399593017782141
223, 2, 2, 0.0298838140162116
223, 3, 3, 0.04
224, 1, 1, -0.01280648061955869
224, 2, 2, 0.02712981060869779
224, 3, 3, 0.04
225, 1, 1, -0.01099940995652915
225, 2, 2, 0.03111175633592855
225, 3, 3, 0.04
226, 1, 1, -0.01340120539869005
226, 2, 2, 0.02850681231245472
226, 3, 3, 0.04
227, 1, 1, -0.01008562746146113
227, 2, 2, 0.02825442776330045
227, 3, 3, 0.04
228, 1, 1, -0.01399593017782141
228, 2, 2, 0.0298838140162116
228, 3, 3, 0.04
229, 1, 1, -0.01280648061955869
229, 2, 2, 0.02712981060869779
229, 3, 3, 0.04
230, 1, 1, -0.01099940995652915
230, 2, 2, 0.03111175633592855
230, 3, 3, 0.04
231, 1, 1, -0.01340120539869005
231, 2, 2, 0.02850681231245472
231, 3, 3, 0.04
232, 1, 1, -0.01008562746146113
232, 2, 2, 0.02825442776330045
232, 3, 3, 0.04
233, 1, 1, -0.01955704520345158
233, 2, 2, 0.02657913438410175
233, 3, 3, 0.04
234, 1, 1, -0.01785317117331986
234, 2, 2, 0.02411009847717527
234, 3, 3, 0.04
235, 1, 1, -0.01955704520345158
235, 2, 2, 0.02657913438410175
235, 3, 3, 0.04
236, 1, 1, -0.01785317117331986
236, 2, 2, 0.02411009847717527
236, 3, 3, 0.04
237, 1, 1, -0.01685766194054805
237, 2, 2, 0.028368074231364
237, 3, 3, 0.04
238, 1, 1, -0.01870510818838567
238, 2, 2, 0.02534461643063857
238, 3, 3, 0.04
239, 1, 1, -0.01540400036855549
239, 2, 2, 0.02574391854727026
239, 3, 3, 0.04
240, 1, 1, -0.01955704520345158
240, 2, 2, 0.02657913438410175
240, 3, 3, 0.04
241, 1, 1, -0.01785317117331986
241, 2, 2, 0.02411009847717527
241, 3, 3, 0.04
242, 1, 1, -0.01685766194054805
242, 2, 2, 0.028368074231364
242, 3, 3, 0.04
243, 1, 1, -0.01870510818838567
243, 2, 2, 0.02534461643063857
243, 3, 3, 0.04
244, 1, 1, -0.01540400036855549
244, 2, 2, 0.02574391854727026
244, 3, 3, 0.04
245, 1, 1, -0.02436659394963037
245, 2, 2, 0.02225303352336083
245, 3, 3, 0.04
246, 1, 1, -0.02221377437106409
246, 2, 2, 0.02016384878227373
246, 3, 3, 0.04
247, 1, 1, -0.02436659394963037
247, 2, 2, 0.02225303352336083
247, 3, 3, 0.04
248, 1, 1, -0.02221377437106409
248, 2, 2, 0.02016384878227373
248, 3, 3, 0.04
249, 1, 1, -0.0220680834300776
249, 2, 2, 0.02453422294308749
249, 3, 3, 0.04
250, 1, 1, -0.02329018416034723
250, 2, 2, 0.02120844115281739
250, 3, 3, 0.04
251, 1, 1, -0.02013040618014905
251, 2, 2, 0.02224408497882435
251, 3, 3, 0.04
252, 1, 1, -0.02436659394963037
252, 2, 2, 0.02225303352336083
252, 3, 3, 0.04
253, 1, 1, -0.02221377437106409
253, 2, 2, 0.02016384878227373
253, 3, 3, 0.04
254, 1, 1, -0.0220680834300776
254, 2, 2, 0.02453422294308749
254, 3, 3, 0.04
255, 1, 1, -0.02329018416034723
255, 2, 2, 0.02120844115281739
255, 3, 3, 0.04
256, 1, 1, -0.02013040618014905
256, 2, 2, 0.02224408497882435
256, 3, 3, 0.04
257, 1, 1, -0.02823974815526786
257, 2, 2, 0.01707176106396235
257, 3, 3, 0.04
258, 1, 1, -0.02572071467735648
258, 2, 2, 0.01544271368668615
258, 3, 3, 0.04
259, 1, 1, -0.02823974815526786
259, 2, 2, 0.01707176106396235
259, 3, 3, 0.04
260, 1, 1, -0.02572071467735648
260, 2, 2, 0.01544271368668615
260, 3, 3, 0.04
261, 1, 1, -0.02643044084931301
261, 2, 2, 0.01975753522605883
261, 3, 3, 0.04
262, 1, 1, -0.02698023141631223
262, 2, 2, 0.01625723737532436
262, 3, 3, 0.04
263, 1, 1, -0.02408321177150152
263, 2, 2, 0.01788942369926882
263, 3, 3, 0.04
264, 1, 1, -0.02823974815526786
264, 2, 2, 0.01707176106396235
264, 3, 3, 0.04
265, 1, 1, -0.02572071467735648
265, 2, 2, 0.01544271368668615
265, 3, 3, 0.04
266, 1, 1, -0.02643044084931301
266, 2, 2, 0.01975753522605883
266, 3, 3, 0.04
267, 1, 1, -0.02698023141631223
267, 2, 2, 0.01625723737532436
267, 3, 3, 0.04
268, 1, 1, -0.02408321177150152
268, 2, 2, 0.01788942369926882
268, 3, 3, 0.04
269, 1, 1, -0.03102766467633195
269, 2, 2, 0.01123443040082983
269, 3, 3, 0.04
270, 1, 1, -0.02823922234294102
270, 2, 2, 0.0101281237644929
270, 3, 3, 0.04
271, 1, 1, -0.03102766467633195
271, 2, 2, 0.01123443040082983
271, 3, 3, 0.04
272, 1, 1, -0.02823922234294102
272, 2, 2, 0.0101281237644929
272, 3, 3, 0.04
273, 1, 1, -0.02977709124907124
273, 2, 2, 0.0142215765104462
273, 3, 3, 0.04
274, 1, 1, -0.02963344350963648
274, 2, 2, 0.01068127708266142
274, 3, 3, 0.04
275, 1, 1, -0.02711051304049572
275, 2, 2, 0.01284728189945472
275, 3, 3, 0.04
276, 1, 1, -0.03102766467633195
276, 2, 2, 0.01123443040082983
276, 3, 3, 0.04
277, 1, 1, -0.02823922234294102
277, 2, 2, 0.0101281237644929
277, 3, 3, 0.04
278, 1, 1, -0.02977709124907124
278, 2, 2, 0.0142215765104462
278, 3, 3, 0.04
279, 1, 1, -0.02963344350963648
279, 2, 2, 0.01068127708266142
279, 3, 3, 0.04
280, 1, 1, -0.02711051304049572
280, 2, 2, 0.01284728189945472
280, 3, 3, 0.04
281, 1, 1, -0.03262320544439928
281, 2, 2, 0.004965366877734301
281, 3, 3, 0.04
282, 1, 1, -0.0296725125306247
282, 2, 2, 0.00442431572594737
282, 3, 3, 0.04
283, 1, 1, -0.03262320544439928
283, 2, 2, 0.004965366877734301
283, 3, 3, 0.04
284, 1, 1, -0.0296725125306247
284, 2, 2, 0.00442431572594737
284, 3, 3, 0.04
285, 1, 1, -0.03197942473131288
285, 2, 2, 0.008139090585088882
285, 3, 3, 0.04
286, 1, 1, -0.03114785898751199
286, 2, 2, 0.004694841301840835
286, 3, 3, 0.04
287, 1, 1, -0.02909597249709467
287, 2, 2, 0.007311426261083276
287, 3, 3, 0.04
288, 1, 1, -0.03262320544439928
288, 2, 2, 0.004965366877734301
288, 3, 3, 0.04
289, 1, 1, -0.0296725125306247
289, 2, 2, 0.00442431572594737
289, 3, 3, 0.04
290, 1, 1, -0.03197942473131288
290, 2, 2, 0.008139090585088882
290, 3, 3, 0.04
291, 1, 1, -0.03114785898751199
291, 2, 2, 0.004694841301840835
291, 3, 3, 0.04
292, 1, 1, -0.02909597249709467
292, 2, 2, 0.007311426261083276
292, 3, 3, 0.04
293, 1, 1, -0.03296505472254277
293, 2, 2, -0.001494512909862689
293, 3, 3, 0.04
294, 1, 1, -0.02996550470229319
294, 2, 2, -0.001449516284761421
294, 3, 3, 0.04
295, 1, 1, -0.03296505472254277
295, 2, 2, -0.001494512909862689
295, 3, 3, 0.04
296, 1, 1, -0.02996550470229319
296, 2, 2, -0.001449516284761421
296, 3, 3, 0.04
297, 1, 1, -0.03295280685539809
297, 2, 2, 0.001743823973001213
297, 3, 3, 0.04
298, 1, 1, -0.03146527971241798
298, 2, 2, -0.001472014597311944
298, 3, 3, 0.04
299, 1, 1, -0.02996329004783953
299, 2, 2, 0.001494596611793519
299, 3, 3, 0.04
300, 1, 1, -0.03296505472254277
300, 2, 2, -0.001494512909862689
300, 3, 3, 0.04
301, 1, 1, -0.02996550470229319
301, 2, 2, -0.001449516284761421
301, 3, 3, 0.04
302, 1, 1, -0.03295280685539809
302, 2, 2, 0.001743823973001213
302, 3, 3, 0.04
303, 1, 1, -0.03146527971241798
303, 2, 2, -0.001472014597311944
303, 3, 3, 0.04
304, 1, 1, -0.02996329004783953
304, 2, 2, 0.001494596611793519
304, 3, 3, 0.04
*Output, field, frequency=1
*Node Output
COORD, RF, U
*Contact Output
CSTRESS, CDISP, CFORCE
*End Step
*Step, name=CROSS, nlgeom=NO, inc=100
*Static
0.025, 1., 1.e-8, 0.025
*Boundary, op=MOD
201, 1, 1, -0.293600325594639
201, 2, 2, 0.7063996744053609
201, 3, 3, 0.3
202, 1, 1, -0.3228896474759841
202, 2, 2, 0.7771103525240158
202, 3, 3, 0.3
203, 1, 1, -0.4682921223550105
203, 2, 2, 0.6991857497027563
203, 3, 3, 0.3
204, 1, 1, -0.4257706176166477
204, 2, 2, 0.6355478206741145
204, 3, 3, 0.3
205, 1, 1, -0.293600325594639
205, 2, 2, 0.7063996744053609
205, 3, 3, 0.3
206, 1, 1, -0.3228896474759841
206, 2, 2, 0.7771103525240158
206, 3, 3, 0.3
207, 1, 1, -0.4682921223550105
207, 2, 2, 0.6991857497027563
207, 3, 3, 0.3
208, 1, 1, -0.4257706176166477
208, 2, 2, 0.6355478206741145
208, 3, 3, 0.3
209, 1, 1, -0.3082449865353115
209, 2, 2, 0.7417550134646884
209, 3, 3, 0.3
210, 1, 1, -0.3975049800435703
210, 2, 2, 0.7417196338831314
210, 3, 3, 0.3
211, 1, 1, -0.4470313699858292
211, 2, 2, 0.6673667851884354
211, 3, 3, 0.3
212, 1, 1, -0.361425835792715
212, 2, 2, 0.6742203025798137
212, 3, 3, 0.3
213, 1, 1, -0.293600325594639
213, 2, 2, 0.7063996744053609
213, 3, 3, 0.3
214, 1, 1, -0.3228896474759841
214, 2, 2, 0.7771103525240158
214, 3, 3, 0.3
215, 1, 1, -0.4682921223550105
215, 2, 2, 0.6991857497027563
215, 3, 3, 0.3
216, 1, 1, -0.4257706176166477
216, 2, 2, 0.6355478206741145
216, 3, 3, 0.3
217, 1, 1, -0.3082449865353115
217, 2, 2, 0.7417550134646884
217, 3, 3, 0.3
218, 1, 1, -0.3975049800435703
218, 2, 2, 0.7417196338831314
218, 3, 3, 0.3
219, 1, 1, -0.4470313699858292
219, 2, 2, 0.6673667851884354
219, 3, 3, 0.3
220, 1, 1, -0.361425835792715
220, 2, 2, 0.6742203025798137
220, 3, 3, 0.3
221, 1, 1, -0.5956983935931817
221, 2, 2, 0.5943918306283056
221, 3, 3, 0.3
222, 1, 1, -0.5415787835785619
222, 2, 2, 0.5402722206136856
222, 3, 3, 0.3
223, 1, 1, -0.5956983935931817
223, 2, 2, 0.5943918306283056
223, 3, 3, 0.3
224, 1, 1, -0.5415787835785619
224, 2, 2, 0.5402722206136856
224, 3, 3, 0.3
225, 1, 1, -0.5345693555336581
225, 2, 2, 0.6499183245389336
225, 3, 3, 0.3
226, 1, 1, -0.5686385885858718
226, 2, 2, 0.5673320256209957
226, 3, 3, 0.3
227, 1, 1, -0.486014995643037
227, 2, 2, 0.5907546658295442
227, 3, 3, 0.3
228, 1, 1, -0.5956983935931817
228, 2, 2, 0.5943918306283056
228, 3, 3, 0.3
229, 1, 1, -0.5415787835785619
229, 2, 2, 0.5402722206136856
229, 3, 3, 0.3
230, 1, 1, -0.5345693555336581
230, 2, 2, 0.6499183245389336
230, 3, 3, 0.3
231, 1, 1, -0.5686385885858718
231, 2, 2, 0.5673320256209957
231, 3, 3, 0.3
232, 1, 1, -0.486014995643037
232, 2, 2, 0.5907546658295442
232, 3, 3, 0.3
233, 1, 1, -0.7002123096370747
233, 2, 2, 0.466755766841588
233, 3, 3, 0.3
234, 1, 1, -0.636574380608433
234, 2, 2, 0.424234262103225
234, 3, 3, 0.3
235, 1, 1, -0.7002123096370747
235, 2, 2, 0.466755766841588
235, 3, 3, 0.3
236, 1, 1, -0.636574380608433
236, 2, 2, 0.424234262103225
236, 3, 3, 0.3
237, 1, 1, -0.6510905304805364
237, 2, 2, 0.5331410184611003
237, 3, 3, 0.3
238, 1, 1, -0.6683933451227539
238, 2, 2, 0.4454950144724066
238, 3, 3, 0.3
239, 1, 1, -0.5919268717711472
239, 2, 2, 0.4845866585704791
239, 3, 3, 0.3
240, 1, 1, -0.7002123096370747
240, 2, 2, 0.466755766841588
240, 3, 3, 0.3
241, 1, 1, -0.636574380608433
241, 2, 2, 0.424234262103225
241, 3, 3, 0.3
242, 1, 1, -0.6510905304805364
242, 2, 2, 0.5331410184611003
242, 3, 3, 0.3
243, 1, 1, -0.6683933451227539
243, 2, 2, 0.4454950144724066
243, 3, 3, 0.3
244, 1, 1, -0.5919268717711472
244, 2, 2, 0.4845866585704791
244, 3, 3, 0.3
245, 1, 1, -0.7778174593052023
245, 2, 2, 0.3211825406947979
245, 3, 3, 0.3
246, 1, 1, -0.7071067811865475
246, 2, 2, 0.2918932188134525
246, 3, 3, 0.3
247, 1, 1, -0.7778174593052023
247, 2, 2, 0.3211825406947979
247, 3, 3, 0.3
248, 1, 1, -0.7071067811865475
248, 2, 2, 0.2918932188134525
248, 3, 3, 0.3
249, 1, 1, -0.7425906614768235
249, 2, 2, 0.3958754020327344
249, 3, 3, 0.3
250, 1, 1, -0.7424621202458749
250, 2, 2, 0.3065378797541253
250, 3, 3, 0.3
251, 1, 1, -0.6750913301735058
251, 2, 2, 0.3597962577818792
251, 3, 3, 0.3
252, 1, 1, -0.7778174593052023
252, 2, 2, 0.3211825406947979
252, 3, 3, 0.3
253, 1, 1, -0.7071067811865475
253, 2, 2, 0.2918932188134525
253, 3, 3, 0.3
254, 1, 1, -0.7425906614768235
254, 2, 2, 0.3958754020327344
254, 3, 3, 0.3
255, 1, 1, -0.7424621202458749
255, 2, 2, 0.3065378797541253
255, 3, 3, 0.3
256, 1, 1, -0.6750913301735058
256, 2, 2, 0.3597962577818792
256, 3, 3, 0.3
257, 1, 1, -0.8255315202172873
257, 2, 2, 0.1632664496303509
257, 3, 3, 0.3
258, 1, 1, -0.7504654647137143
258, 2, 2, 0.148334882820282
258, 3, 3, 0.3
259, 1, 1, -0.8255315202172873
259, 2, 2, 0.1632664496303509
259, 3, 3, 0.3
260, 1, 1, -0.7504654647137143
260, 2, 2, 0.148334882820282
260, 3, 3, 0.3
261, 1, 1, -0.8055534498021972
261, 2, 2, 0.2433965159137339
261, 3, 3, 0.3
262, 1, 1, -0.7879984924655009
262, 2, 2, 0.1558006662253163
262, 3, 3, 0.3
263, 1, 1, -0.7323124073528766
263, 2, 2, 0.2211790885827878
263, 3, 3, 0.3
264, 1, 1, -0.8255315202172873
264, 2, 2, 0.1632664496303509
264, 3, 3, 0.3
265, 1, 1, -0.7504654647137143
265, 2, 2, 0.148334882820282
265, 3, 3, 0.3
266, 1, 1, -0.8055534498021972
266, 2, 2, 0.2433965159137339
266, 3, 3, 0.3
267, 1, 1, -0.7879984924655009
267, 2, 2, 0.1558006662253163
267, 3, 3, 0.3
268, 1, 1, -0.7323124073528766
268, 2, 2, 0.2211790885827878
268, 3, 3, 0.3
269, 1, 1, -0.8415208677708326
269, 2, 2, -0.0009238795325110516
269, 3, 3, 0.3
270, 1, 1, -0.7649841812978144
270, 2, 2, -0.0009238795325112736
270, 3, 3, 0.3
271, 1, 1, -0.8415208677708326
271, 2, 2, -0.0009238795325110516
271, 3, 3, 0.3
272, 1, 1, -0.7649841812978144
272, 2, 2, -0.0009238795325112736
272, 3, 3, 0.3
273, 1, 1, -0.8375592708112516
273, 2, 2, 0.08156403818650726
273, 3, 3, 0.3
274, 1, 1, -0.8032525245343236
274, 2, 2, -0.0009238795325111626
274, 3, 3, 0.3
275, 1, 1, -0.7613911294032055
275, 2, 2, 0.07406213104812176
275, 3, 3, 0.3
276, 1, 1, -0.8415208677708326
276, 2, 2, -0.0009238795325110516
276, 3, 3, 0.3
277, 1, 1, -0.7649841812978144
277, 2, 2, -0.0009238795325112736
277, 3, 3, 0.3
278, 1, 1, -0.8375592708112516
278, 2, 2, 0.08156403818650726
278, 3, 3, 0.3
279, 1, 1, -0.8032525245343236
279, 2, 2, -0.0009238795325111626
279, 3, 3, 0.3
280, 1, 1, -0.7613911294032055
280, 2, 2, 0.07406213104812176
280, 3, 3, 0.3
281, 1, 1, -0.8251710403062837
281, 2, 2, -0.165078704523056
281, 3, 3, 0.3
282, 1, 1, -0.7501049848027107
282, 2, 2, -0.1501471377129875
282, 3, 3, 0.3
283, 1, 1, -0.8251710403062837
283, 2, 2, -0.165078704523056
283, 3, 3, 0.3
284, 1, 1, -0.7501049848027107
284, 2, 2, -0.1501471377129875
284, 3, 3, 0.3
285, 1, 1, -0.8373781587516802
285, 2, 2, -0.08340289978658744
285, 3, 3, 0.3
286, 1, 1, -0.7876380125544973
286, 2, 2, -0.1576129211180217
286, 3, 3, 0.3
287, 1, 1, -0.761210017343634
287, 2, 2, -0.07590099264820227
287, 3, 3, 0.3
288, 1, 1, -0.8251710403062837
288, 2, 2, -0.165078704523056
288, 3, 3, 0.3
289, 1, 1, -0.7501049848027107
289, 2, 2, -0.1501471377129875
289, 3, 3, 0.3
290, 1, 1, -0.8373781587516802
290, 2, 2, -0.08340289978658744
290, 3, 3, 0.3
291, 1, 1, -0.7876380125544973
291, 2, 2, -0.1576129211180217
291, 3, 3, 0.3
292, 1, 1, -0.761210017343634
292, 2, 2, -0.07590099264820227
292, 3, 3, 0.3
293, 1, 1, -0.7771103525240159
293, 2, 2, -0.3228896474759841
293, 3, 3, 0.3
294, 1, 1, -0.706399674405361
294, 2, 2, -0.293600325594639
294, 3, 3, 0.3
295, 1, 1, -0.7771103525240159
295, 2, 2, -0.3228896474759841
295, 3, 3, 0.3
296, 1, 1, -0.706399674405361
296, 2, 2, -0.293600325594639
296, 3, 3, 0.3
297, 1, 1, -0.8050170736583631
297, 2, 2, -0.2451647110937685
297, 3, 3, 0.3
298, 1, 1, -0.7417550134646885
298, 2, 2, -0.3082449865353115
298, 3, 3, 0.3
299, 1, 1, -0.7317760312090426
299, 2, 2, -0.2229472837628225
299, 3, 3, 0.3
300, 1, 1, -0.7771103525240159
300, 2, 2, -0.3228896474759841
300, 3, 3, 0.3
301, 1, 1, -0.706399674405361
301, 2, 2, -0.293600325594639
301, 3, 3, 0.3
302, 1, 1, -0.8050170736583631
302, 2, 2, -0.2451647110937685
302, 3, 3, 0.3
303, 1, 1, -0.7417550134646885
303, 2, 2, -0.3082449865353115
303, 3, 3, 0.3
304, 1, 1, -0.7317760312090426
304, 2, 2, -0.2229472837628225
304, 3, 3, 0.3
*Output, field, frequency=1
*Node Output
COORD, RF, U
*Contact Output
CSTRESS, CDISP, CFORCE
*End Step
*Step, name=STRADDLE, nlgeom=NO, inc=100
*Static
0.025, 1., 1.e-8, 0.025
*Boundary, op=MOD
201, 1, 1, -0.00581045805447522
201, 2, 2, 0.09791912318923104
201, 3, 3, -0.2
202, 1, 1, -0.006291985387255394
202, 2, 2, 0.1077208372221871
202, 3, 3, -0.2
203, 1, 1, -0.02718637947385583
203, 2, 2, 0.104423506084913
203, 3, 3, -0.2
204, 1, 1, -0.02480188500675384
204, 2, 2, 0.09490407056107963
204, 3, 3, -0.2
205, 1, 1, -0.00581045805447522
205, 2, 2, 0.09791912318923104
205, 3, 3, -0.2
206, 1, 1, -0.006291985387255394
206, 2, 2, 0.1077208372221871
206, 3, 3, -0.2
207, 1, 1, -0.02718637947385583
207, 2, 2, 0.104423506084913
207, 3, 3, -0.2
208, 1, 1, -0.02480188500675384
208, 2, 2, 0.09490407056107963
208, 3, 3, -0.2
209, 1, 1, -0.006051221720865252
209, 2, 2, 0.1028199802057091
209, 3, 3, -0.2
210, 1, 1, -0.0168201761762663
210, 2, 2, 0.1065854095332083
210, 3, 3, -0.2
211, 1, 1, -0.02599413224030478
211, 2, 2, 0.09966378832299638
211, 3, 3, -0.2
212, 1, 1, -0.01538023154936974
212, 2, 2, 0.09687809136455153
212, 3, 3, -0.2
213, 1, 1, -0.00581045805447522
213, 2, 2, 0.09791912318923104
213, 3, 3, -0.2
214, 1, 1, -0.006291985387255394
214, 2, 2, 0.1077208372221871
214, 3, 3, -0.2
215, 1, 1, -0.02718637947385583
215, 2, 2, 0.104423506084913
215, 3, 3, -0.2
216, 1, 1, -0.02480188500675384
216, 2, 2, 0.09490407056107963
216, 3, 3, -0.2
217, 1, 1, -0.006051221720865252
217, 2, 2, 0.1028199802057091
217, 3, 3, -0.2
218, 1, 1, -0.0168201761762663
218, 2, 2, 0.1065854095332083
218, 3, 3, -0.2
219, 1, 1, -0.02599413224030478
219, 2, 2, 0.09966378832299638
219, 3, 3, -0.2
220, 1, 1, -0.01538023154936974
220, 2, 2, 0.09687809136455153
220, 3, 3, -0.2
221, 1, 1, -0.04703601624357301
221, 2, 2, 0.09711323817017281
221, 3, 3, -0.2
222, 1, 1, -0.04284018942728007
222, 2, 2, 0.08824190772408191
222, 3, 3, -0.2
223, 1, 1, -0.04703601624357301
223, 2, 2, 0.09711323817017281
223, 3, 3, -0.2
224, 1, 1, -0.04284018942728007
224, 2, 2, 0.08824190772408191
224, 3, 3, -0.2
225, 1, 1, -0.03729076307552548
225, 2, 2, 0.1012559471893251
225, 3, 3, -0.2
226, 1, 1, -0.04493810283542654
226, 2, 2, 0.09267757294712736
226, 3, 3, -0.2
227, 1, 1, -0.03398468275343336
227, 2, 2, 0.09201607167826237
227, 3, 3, -0.2
228, 1, 1, -0.04703601624357301
228, 2, 2, 0.09711323817017281
228, 3, 3, -0.2
229, 1, 1, -0.04284018942728007
229, 2, 2, 0.08824190772408191
229, 3, 3, -0.2
230, 1, 1, -0.03729076307552548
230, 2, 2, 0.1012559471893251
230, 3, 3, -0.2
231, 1, 1, -0.04493810283542654
231, 2, 2, 0.09267757294712736
231, 3, 3, -0.2
232, 1, 1, -0.03398468275343336
232, 2, 2, 0.09201607167826237
232, 3, 3, -0.2
233, 1, 1, -0.06507808528715164
233, 2, 2, 0.08607096297428407
233, 3, 3, -0.2
234, 1, 1, -0.059232169393171
234, 2, 2, 0.07818865785987972
234, 3, 3, -0.2
235, 1, 1, -0.06507808528715164
235, 2, 2, 0.08607096297428407
235, 3, 3, -0.2
236, 1, 1, -0.059232169393171
236, 2, 2, 0.07818865785987972
236, 3, 3, -0.2
237, 1, 1, -0.0563282868626932
237, 2, 2, 0.09203527557994551
237, 3, 3, -0.2
238, 1, 1, -0.06215512734016138
238, 2, 2, 0.08212981041708189
238, 3, 3, -0.2
239, 1, 1, -0.05128312165811233
239, 2, 2, 0.08361792596058498
239, 3, 3, -0.2
240, 1, 1, -0.06507808528715164
240, 2, 2, 0.08607096297428407
240, 3, 3, -0.2
241, 1, 1, -0.059232169393171
241, 2, 2, 0.07818865785987972
241, 3, 3, -0.2
242, 1, 1, -0.0563282868626932
242, 2, 2, 0.09203527557994551
242, 3, 3, -0.2
243, 1, 1, -0.06215512734016138
243, 2, 2, 0.08212981041708189
243, 3, 3, -0.2
244, 1, 1, -0.05128312165811233
244, 2, 2, 0.08361792596058498
244, 3, 3, -0.2
245, 1, 1, -0.08061924000935594
245, 2, 2, 0.07172102894044585
245, 3, 3, -0.2
246, 1, 1, -0.07334789030706568
246, 2, 2, 0.06513066172282678
246, 3, 3, -0.2
247, 1, 1, -0.08061924000935594
247, 2, 2, 0.07172102894044585
247, 3, 3, -0.2
248, 1, 1, -0.07334789030706568
248, 2, 2, 0.06513066172282678
248, 3, 3, -0.2
249, 1, 1, -0.07320114617499485
249, 2, 2, 0.07927773994400578
249, 3, 3, -0.2
250, 1, 1, -0.07698356515821081
250, 2, 2, 0.06842584533163631
250, 3, 3, -0.2
251, 1, 1, -0.06661077895737599
251, 2, 2, 0.0720063902417154
251, 3, 3, -0.2
252, 1, 1, -0.08061924000935594
252, 2, 2, 0.07172102894044585
252, 3, 3, -0.2
253, 1, 1, -0.07334789030706568
253, 2, 2, 0.06513066172282678
253, 3, 3, -0.2
254, 1, 1, -0.07320114617499485
254, 2, 2, 0.07927773994400578
254, 3, 3, -0.2
255, 1, 1, -0.07698356515821081
255, 2, 2, 0.06842584533163631
255, 3, 3, -0.2
256, 1, 1, -0.06661077895737599
256, 2, 2, 0.0720063902417154
256, 3, 3, -0.2
257, 1, 1, -0.0930622425497909
257, 2, 2, 0.05461489598604241
257, 3, 3, -0.2
258, 1, 1, -0.08464489293043048
258, 2, 2, 0.04956973078146132
258, 3, 3, -0.2
259, 1, 1, -0.0930622425497909
259, 2, 2, 0.05461489598604241
259, 3, 3, -0.2
260, 1, 1, -0.08464489293043048
260, 2, 2, 0.04956973078146132
260, 3, 3, -0.2
261, 1, 1, -0.08726092649146711
261, 2, 2, 0.0634736052214866
261, 3, 3, -0.2
262, 1, 1, -0.08885356774011061
262, 2, 2, 0.05209231338375186
262, 3, 3, -0.2
263, 1, 1, -0.07937862137706286
263, 2, 2, 0.05762768932750573
263, 3, 3, -0.2
264, 1, 1, -0.0930622425497909
264, 2, 2, 0.05461489598604241
264, 3, 3, -0.2
265, 1, 1, -0.08464489293043048
265, 2, 2, 0.04956973078146132
265, 3, 3, -0.2
266, 1, 1, -0.08726092649146711
266, 2, 2, 0.0634736052214866
266, 3, 3, -0.2
267, 1, 1, -0.08885356774011061
267, 2, 2, 0.05209231338375186
267, 3, 3, -0.2
268, 1, 1, -0.07937862137706286
268, 2, 2, 0.05762768932750573
268, 3, 3, -0.2
269, 1, 1, -0.1019289152989447
269, 2, 2, 0.0354099432072823
269, 3, 3, -0.2
270, 1, 1, -0.09268903978788195
270, 2, 2, 0.03210386288518996
270, 3, 3, -0.2
271, 1, 1, -0.1019289152989447
271, 2, 2, 0.0354099432072823
271, 3, 3, -0.2
272, 1, 1, -0.09268903978788195
272, 2, 2, 0.03210386288518996
272, 3, 3, -0.2
273, 1, 1, -0.09796731833936384
273, 2, 2, 0.04523021544671391
273, 3, 3, -0.2
274, 1, 1, -0.09730897754341333
274, 2, 2, 0.03375690304623613
274, 3, 3, -0.2
275, 1, 1, -0.08909598789327305
275, 2, 2, 0.04103438863042053
275, 3, 3, -0.2
276, 1, 1, -0.1019289152989447
276, 2, 2, 0.0354099432072823
276, 3, 3, -0.2
277, 1, 1, -0.09268903978788195
277, 2, 2, 0.03210386288518996
277, 3, 3, -0.2
278, 1, 1, -0.09796731833936384
278, 2, 2, 0.04523021544671391
278, 3, 3, -0.2
279, 1, 1, -0.09730897754341333
279, 2, 2, 0.03375690304623613
279, 3, 3, -0.2
280, 1, 1, -0.08909598789327305
280, 2, 2, 0.04103438863042053
280, 3, 3, -0.2
281, 1, 1, -0.1068785169955539
281, 2, 2, 0.01484420616919091
281, 3, 3, -0.2
282, 1, 1, -0.09717119882689712
282, 2, 2, 0.01340426154229424
282, 3, 3, -0.2
283, 1, 1, -0.1068785169955539
283, 2, 2, 0.01484420616919091
283, 3, 3, -0.2
284, 1, 1, -0.09717119882689712
284, 2, 2, 0.01340426154229424
284, 3, 3, -0.2
285, 1, 1, -0.1049088810841838
285, 2, 2, 0.02524865385772057
285, 3, 3, -0.2
286, 1, 1, -0.1020248579112255
286, 2, 2, 0.01412423385574257
286, 3, 3, -0.2
287, 1, 1, -0.09538944556035034
287, 2, 2, 0.02286415939061825
287, 3, 3, -0.2
288, 1, 1, -0.1068785169955539
288, 2, 2, 0.01484420616919091
288, 3, 3, -0.2
289, 1, 1, -0.09717119882689712
289, 2, 2, 0.01340426154229424
289, 3, 3, -0.2
290, 1, 1, -0.1049088810841838
290, 2, 2, 0.02524865385772057
290, 3, 3, -0.2
291, 1, 1, -0.1020248579112255
291, 2, 2, 0.01412423385574257
291, 3, 3, -0.2
292, 1, 1, -0.09538944556035034
292, 2, 2, 0.02286415939061825
292, 3, 3, -0.2
293, 1, 1, -0.1077208372221872
293, 2, 2, -0.006291985387255394
293, 3, 3, -0.2
294, 1, 1, -0.09791912318923114
294, 2, 2, -0.00581045805447522
294, 3, 3, -0.2
295, 1, 1, -0.1077208372221872
295, 2, 2, -0.006291985387255394
295, 3, 3, -0.2
296, 1, 1, -0.09791912318923114
296, 2, 2, -0.00581045805447522
296, 3, 3, -0.2
297, 1, 1, -0.1078188543625168
297, 2, 2, 0.004296800660583466
297, 3, 3, -0.2
298, 1, 1, -0.1028199802057092
298, 2, 2, -0.006051221720865252
298, 3, 3, -0.2
299, 1, 1, -0.09801714032956071
299, 2, 2, 0.003815273327803181
299, 3, 3, -0.2
300, 1, 1, -0.1077208372221872
300, 2, 2, -0.006291985387255394
300, 3, 3, -0.2
301, 1, 1, -0.09791912318923114
301, 2, 2, -0.00581045805447522
301, 3, 3, -0.2
302, 1, 1, -0.1078188543625168
302, 2, 2, 0.004296800660583466
302, 3, 3, -0.2
303, 1, 1, -0.1028199802057092
303, 2, 2, -0.006051221720865252
303, 3, 3, -0.2
304, 1, 1, -0.09801714032956071
304, 2, 2, 0.003815273327803181
304, 3, 3, -0.2
*Output, field, frequency=1
*Node Output
COORD, RF, U
*Contact Output
CSTRESS, CDISP, CFORCE
*End Step
*Step, name=RETURN, nlgeom=NO, inc=100
*Static
0.025, 1., 1.e-8, 0.025
*Boundary, op=MOD
201, 1, 1, -0.001000000000000001
201, 2, 2, 0
201, 3, 3, 0.1
202, 1, 1, -0.0009999999999998899
202, 2, 2, 0
202, 3, 3, 0.1
203, 1, 1, -0.0009807852804031292
203, 2, 2, -0.0001950903220161171
203, 3, 3, 0.1
204, 1, 1, -0.0009807852804032402
204, 2, 2, -0.0001950903220161171
204, 3, 3, 0.1
205, 1, 1, -0.001000000000000001
205, 2, 2, 0
205, 3, 3, 0.1
206, 1, 1, -0.0009999999999998899
206, 2, 2, 0
206, 3, 3, 0.1
207, 1, 1, -0.0009807852804031292
207, 2, 2, -0.0001950903220161171
207, 3, 3, 0.1
208, 1, 1, -0.0009807852804032402
208, 2, 2, -0.0001950903220161171
208, 3, 3, 0.1
209, 1, 1, -0.0009999999999998899
209, 2, 2, 0
209, 3, 3, 0.1
210, 1, 1, -0.0009951847266720382
210, 2, 2, -9.801714032954545e-05
210, 3, 3, 0.1
211, 1, 1, -0.0009807852804031292
211, 2, 2, -0.0001950903220161171
211, 3, 3, 0.1
212, 1, 1, -0.0009951847266721492
212, 2, 2, -9.801714032955933e-05
212, 3, 3, 0.1
213, 1, 1, -0.001000000000000001
213, 2, 2, 0
213, 3, 3, 0.1
214, 1, 1, -0.0009999999999998899
214, 2, 2, 0
214, 3, 3, 0.1
215, 1, 1, -0.0009807852804031292
215, 2, 2, -0.0001950903220161171
215, 3, 3, 0.1
216, 1, 1, -0.0009807852804032402
216, 2, 2, -0.0001950903220161171
216, 3, 3, 0.1
217, 1, 1, -0.0009999999999998899
217, 2, 2, 0
217, 3, 3, 0.1
218, 1, 1, -0.0009951847266720382
218, 2, 2, -9.801714032954545e-05
218, 3, 3, 0.1
219, 1, 1, -0.0009807852804031292
219, 2, 2, -0.0001950903220161171
219, 3, 3, 0.1
220, 1, 1, -0.0009951847266721492
220, 2, 2, -9.801714032955933e-05
220, 3, 3, 0.1
221, 1, 1, -0.0009238795325110516
221, 2, 2, -0.0003826834323650274
221, 3, 3, 0.1
222, 1, 1, -0.0009238795325112736
222, 2, 2, -0.000382683432365083
222, 3, 3, 0.1
223, 1, 1, -0.0009238795325110516
223, 2, 2, -0.0003826834323650274
223, 3, 3, 0.1
224, 1, 1, -0.0009238795325112736
224, 2, 2, -0.000382683432365083
224, 3, 3, 0.1
225, 1, 1, -0.000956940335732126
225, 2, 2, -0.0002902846772544487
225, 3, 3, 0.1
226, 1, 1, -0.0009238795325111626
226, 2, 2, -0.0003826834323650274
226, 3, 3, 0.1
227, 1, 1, -0.000956940335732237
227, 2, 2, -0.0002902846772544487
227, 3, 3, 0.1
228, 1, 1, -0.0009238795325110516
228, 2, 2, -0.0003826834323650274
228, 3, 3, 0.1
229, 1, 1, -0.0009238795325112736
229, 2, 2, -0.000382683432365083
229, 3, 3, 0.1
230, 1, 1, -0.000956940335732126
230, 2, 2, -0.0002902846772544487
230, 3, 3, 0.1
231, 1, 1, -0.0009238795325111626
231, 2, 2, -0.0003826834323650274
231, 3, 3, 0.1
232, 1, 1, -0.000956940335732237
232, 2, 2, -0.0002902846772544487
232, 3, 3, 0.1
233, 1, 1, -0.0008314696123024046
233, 2, 2, -0.0005555702330194423
233, 3, 3, 0.1
234, 1, 1, -0.0008314696123025156
234, 2, 2, -0.0005555702330195533
234, 3, 3, 0.1
235, 1, 1, -0.0008314696123024046
235, 2, 2, -0.0005555702330194423
235, 3, 3, 0.1
236, 1, 1, -0.0008314696123025156
236, 2, 2, -0.0005555702330195533
236, 3, 3, 0.1
237, 1, 1, -0.0008819212643481622
237, 2, 2, -0.0004713967368259464
237, 3, 3, 0.1
238, 1, 1, -0.0008314696123025156
238, 2, 2, -0.0005555702330195533
238, 3, 3, 0.1
239, 1, 1, -0.0008819212643483842
239, 2, 2, -0.0004713967368260019
239, 3, 3, 0.1
240, 1, 1, -0.0008314696123024046
240, 2, 2, -0.0005555702330194423
240, 3, 3, 0.1
241, 1, 1, -0.0008314696123025156
241, 2, 2, -0.0005555702330195533
241, 3, 3, 0.1
242, 1, 1, -0.0008819212643481622
242, 2, 2, -0.0004713967368259464
242, 3, 3, 0.1
243, 1, 1, -0.0008314696123025156
243, 2, 2, -0.0005555702330195533
243, 3, 3, 0.1
244, 1, 1, -0.0008819212643483842
244, 2, 2, -0.0004713967368260019
244, 3, 3, 0.1
245, 1, 1, -0.0007071067811864618
245, 2, 2, -0.0007071067811864618
245, 3, 3, 0.1
246, 1, 1, -0.0007071067811865728
246, 2, 2, -0.0007071067811865728
246, 3, 3, 0.1
247, 1, 1, -0.0007071067811864618
247, 2, 2, -0.0007071067811864618
247, 3, 3, 0.1
248, 1, 1, -0.0007071067811865728
248, 2, 2, -0.0007071067811865728
248, 3, 3, 0.1
249, 1, 1, -0.0007730104533626436
249, 2, 2, -0.0006343932841635924
249, 3, 3, 0.1
250, 1, 1, -0.0007071067811864618
250, 2, 2, -0.0007071067811864618
250, 3, 3, 0.1
251, 1, 1, -0.0007730104533627546
251, 2, 2, -0.0006343932841635924
251, 3, 3, 0.1
252, 1, 1, -0.0007071067811864618
252, 2, 2, -0.0007071067811864618
252, 3, 3, 0.1
253, 1, 1, -0.0007071067811865728
253, 2, 2, -0.0007071067811865728
253, 3, 3, 0.1
254, 1, 1, -0.0007730104533626436
254, 2, 2, -0.0006343932841635924
254, 3, 3, 0.1
255, 1, 1, -0.0007071067811864618
255, 2, 2, -0.0007071067811864618
255, 3, 3, 0.1
256, 1, 1, -0.0007730104533627546
256, 2, 2, -0.0006343932841635924
256, 3, 3, 0.1
257, 1, 1, -0.0005555702330194423
257, 2, 2, -0.0008314696123025156
257, 3, 3, 0.1
258, 1, 1, -0.0005555702330195533
258, 2, 2, -0.0008314696123025156
258, 3, 3, 0.1
259, 1, 1, -0.0005555702330194423
259, 2, 2, -0.0008314696123025156
259, 3, 3, 0.1
260, 1, 1, -0.0005555702330195533
260, 2, 2, -0.0008314696123025156
260, 3, 3, 0.1
261, 1, 1, -0.0006343932841635924
261, 2, 2, -0.0007730104533626436
261, 3, 3, 0.1
262, 1, 1, -0.0005555702330195533
262, 2, 2, -0.0008314696123025156
262, 3, 3, 0.1
263, 1, 1, -0.0006343932841635924
263, 2, 2, -0.0007730104533627546
263, 3, 3, 0.1
264, 1, 1, -0.0005555702330194423
264, 2, 2, -0.0008314696123025156
264, 3, 3, 0.1
265, 1, 1, -0.0005555702330195533
265, 2, 2, -0.0008314696123025156
265, 3, 3, 0.1
266, 1, 1, -0.0006343932841635924
266, 2, 2, -0.0007730104533626436
266, 3, 3, 0.1
267, 1, 1, -0.0005555702330195533
267, 2, 2, -0.0008314696123025156
267, 3, 3, 0.1
268, 1, 1, -0.0006343932841635924
268, 2, 2, -0.0007730104533627546
268, 3, 3, 0.1
269, 1, 1, -0.0003826834323650274
269, 2, 2, -0.0009238795325110516
269, 3, 3, 0.1
270, 1, 1, -0.000382683432365083
270, 2, 2, -0.0009238795325112736
270, 3, 3, 0.1
271, 1, 1, -0.0003826834323650274
271, 2, 2, -0.0009238795325110516
271, 3, 3, 0.1
272, 1, 1, -0.000382683432365083
272, 2, 2, -0.0009238795325112736
272, 3, 3, 0.1
273, 1, 1, -0.0004713967368259464
273, 2, 2, -0.0008819212643482732
273, 3, 3, 0.1
274, 1, 1, -0.000382683432365083
274, 2, 2, -0.0009238795325111626
274, 3, 3, 0.1
275, 1, 1, -0.0004713967368260019
275, 2, 2, -0.0008819212643483842
275, 3, 3, 0.1
276, 1, 1, -0.0003826834323650274
276, 2, 2, -0.0009238795325110516
276, 3, 3, 0.1
277, 1, 1, -0.000382683432365083
277, 2, 2, -0.0009238795325112736
277, 3, 3, 0.1
278, 1, 1, -0.0004713967368259464
278, 2, 2, -0.0008819212643482732
278, 3, 3, 0.1
279, 1, 1, -0.000382683432365083
279, 2, 2, -0.0009238795325111626
279, 3, 3, 0.1
280, 1, 1, -0.0004713967368260019
280, 2, 2, -0.0008819212643483842
280, 3, 3, 0.1
281, 1, 1, -0.0001950903220161171
281, 2, 2, -0.0009807852804031292
281, 3, 3, 0.1
282, 1, 1, -0.0001950903220161171
282, 2, 2, -0.0009807852804032402
282, 3, 3, 0.1
283, 1, 1, -0.0001950903220161171
283, 2, 2, -0.0009807852804031292
283, 3, 3, 0.1
284, 1, 1, -0.0001950903220161171
284, 2, 2, -0.0009807852804032402
284, 3, 3, 0.1
285, 1, 1, -0.0002902846772544487
285, 2, 2, -0.000956940335732126
285, 3, 3, 0.1
286, 1, 1, -0.0001950903220161171
286, 2, 2, -0.0009807852804031292
286, 3, 3, 0.1
287, 1, 1, -0.0002902846772544487
287, 2, 2, -0.000956940335732237
287, 3, 3, 0.1
288, 1, 1, -0.0001950903220161171
288, 2, 2, -0.0009807852804031292
288, 3, 3, 0.1
289, 1, 1, -0.0001950903220161171
289, 2, 2, -0.0009807852804032402
289, 3, 3, 0.1
290, 1, 1, -0.0002902846772544487
290, 2, 2, -0.000956940335732126
290, 3, 3, 0.1
291, 1, 1, -0.0001950903220161171
291, 2, 2, -0.0009807852804031292
291, 3, 3, 0.1
292, 1, 1, -0.0002902846772544487
292, 2, 2, -0.000956940335732237
292, 3, 3, 0.1
293, 1, 1, -6.123233995736136e-20
293, 2, 2, -0.0009999999999998899
293, 3, 3, 0.1
294, 1, 1, -6.123233995737369e-20
294, 2, 2, -0.001000000000000001
294, 3, 3, 0.1
295, 1, 1, -6.123233995736136e-20
295, 2, 2, -0.0009999999999998899
295, 3, 3, 0.1
296, 1, 1, -6.123233995737369e-20
296, 2, 2, -0.001000000000000001
296, 3, 3, 0.1
297, 1, 1, -9.80171403295732e-05
297, 2, 2, -0.0009951847266722602
297, 3, 3, 0.1
298, 1, 1, -6.123233995736136e-20
298, 2, 2, -0.0009999999999998899
298, 3, 3, 0.1
299, 1, 1, -9.801714032955933e-05
299, 2, 2, -0.0009951847266721492
299, 3, 3, 0.1
300, 1, 1, -6.123233995736136e-20
300, 2, 2, -0.0009999999999998899
300, 3, 3, 0.1
301, 1, 1, -6.123233995737369e-20
301, 2, 2, -0.001000000000000001
301, 3, 3, 0.1
302, 1, 1, -9.80171403295732e-05
302, 2, 2, -0.0009951847266722602
302, 3, 3, 0.1
303, 1, 1, -6.123233995736136e-20
303, 2, 2, -0.0009999999999998899
303, 3, 3, 0.1
304, 1, 1, -9.801714032955933e-05
304, 2, 2, -0.0009951847266721492
304, 3, 3, 0.1
*Output, field, frequency=1
*Node Output
COORD, RF, U
*Contact Output
CSTRESS, CDISP, CFORCE
*End Step
