*Heading
** H20.39 HEX20 finite-sliding surface-to-surface cross-face friction path.
*Preprint, echo=NO, model=NO, history=NO, contact=YES
*Node
1, 0, 0, -1
2, 1, 0, -1
3, 1, 1, -1
4, 0, 1, -1
5, 0, 0, 2
6, 1, 0, 2
7, 1, 1, 2
8, 0, 1, 2
9, 0.5, 0, -1
10, 1, 0.5, -1
11, 0.5, 1, -1
12, 0, 0.5, -1
13, 0, 0, 0.5
14, 1, 0, 0.5
15, 1, 1, 0.5
16, 0, 1, 0.5
17, 0.5, 0, 2
18, 1, 0.5, 2
19, 0.5, 1, 2
20, 0, 0.5, 2
21, 1, 2, -1
22, 0, 2, -1
23, 1, 2, 2
24, 0, 2, 2
25, 1, 1.5, -1
26, 0.5, 2, -1
27, 0, 1.5, -1
28, 1, 2, 0.5
29, 0, 2, 0.5
30, 1, 1.5, 2
31, 0.5, 2, 2
32, 0, 1.5, 2
33, 1, 0.1, 0.1
34, 2, 0.1, 0.1
35, 2, 0.9, 0.1
36, 1, 0.9, 0.1
37, 1, 0.1, 0.9
38, 2, 0.1, 0.9
39, 2, 0.9, 0.9
40, 1, 0.9, 0.9
41, 1.5, 0.1, 0.1
42, 2, 0.5, 0.1
43, 1.5, 0.9, 0.1
44, 1, 0.5, 0.1
45, 1, 0.1, 0.5
46, 2, 0.1, 0.5
47, 2, 0.9, 0.5
48, 1, 0.9, 0.5
49, 1.5, 0.1, 0.9
50, 2, 0.5, 0.9
51, 1.5, 0.9, 0.9
52, 1, 0.5, 0.9
*Element, type=C3D20, elset=PRIMARY
1, 1, 2, 3, 4, 5, 6, 7, 8, 9, 10, 11, 12, 17, 18, 19, 20, 13, 14, 15, 16
2, 4, 3, 21, 22, 8, 7, 23, 24, 11, 25, 26, 27, 19, 30, 31, 32, 16, 15, 28, 29
*Element, type=C3D20, elset=SECONDARY
3, 33, 34, 35, 36, 37, 38, 39, 40, 41, 42, 43, 44, 49, 50, 51, 52, 45, 46, 47, 48
*Nset, nset=primary_all
1, 2, 3, 4, 5, 6, 7, 8, 9, 10, 11, 12, 13, 14, 15, 16
17, 18, 19, 20, 21, 22, 23, 24, 25, 26, 27, 28, 29, 30, 31, 32
*Nset, nset=secondary_all
33, 34, 35, 36, 37, 38, 39, 40, 41, 42, 43, 44, 45, 46, 47, 48
49, 50, 51, 52
*Surface, type=ELEMENT, name=PRIMARY_CONTACT
PRIMARY, S4
*Surface, type=ELEMENT, name=SECONDARY_CONTACT
SECONDARY, S6
*Material, name=ELASTIC
*Elastic
1.e9, 0.25
*Solid Section, elset=PRIMARY, material=ELASTIC
,
*Solid Section, elset=SECONDARY, material=ELASTIC
,
*Surface Interaction, name=CONTACT
*Surface Behavior, pressure-overclosure=LINEAR
1.e5,
*Friction, slip tolerance=1.e-4
0.5,
*Contact Pair, interaction=CONTACT, type=SURFACE TO SURFACE, adjust=0.
SECONDARY_CONTACT, PRIMARY_CONTACT
*Step, name=CLOSE, nlgeom=NO, inc=100
*Static
0.1, 1., 1.e-8, 0.1
*Boundary
primary_all, 1, 3, 0.
secondary_all, 1, 1, -0.01
secondary_all, 2, 2, 0.05
secondary_all, 3, 3, 0.04
*Output, field, frequency=1
*Node Output
COORD, RF, U
*Contact Output
CSTRESS, CDISP, CFORCE
*End Step
*Step, name=CROSS, nlgeom=NO, inc=100
*Static
0.1, 1., 1.e-8, 0.1
*Boundary, op=MOD
secondary_all, 1, 1, -0.01
secondary_all, 2, 2, 1
secondary_all, 3, 3, 0.4
*Output, field, frequency=1
*Node Output
COORD, RF, U
*Contact Output
CSTRESS, CDISP, CFORCE
*End Step
*Step, name=STRADDLE, nlgeom=NO, inc=100
*Static
0.1, 1., 1.e-8, 0.1
*Boundary, op=MOD
secondary_all, 1, 1, -0.01
secondary_all, 2, 2, 0.2
secondary_all, 3, 3, -0.3
*Output, field, frequency=1
*Node Output
COORD, RF, U
*Contact Output
CSTRESS, CDISP, CFORCE
*End Step
*Step, name=RETURN, nlgeom=NO, inc=100
*Static
0.1, 1., 1.e-8, 0.1
*Boundary, op=MOD
secondary_all, 1, 1, -0.01
secondary_all, 2, 2, 0
secondary_all, 3, 3, 0.1
*Output, field, frequency=1
*Node Output
COORD, RF, U
*Contact Output
CSTRESS, CDISP, CFORCE
*End Step
