*Heading
** H20.31 Abaqus curved C3D20 secondary operator probe.
*Preprint, echo=NO, model=NO, history=NO, contact=YES
*Node
1, 0.9, 0, 0
2, 1, 0, 0
3, 0.9238795325112867, 0.3826834323650898, 0
4, 0.831491579260158, 0.3444150891285808, 0
5, 0.9, 0, 0.5
6, 1, 0, 0.5
7, 0.9238795325112867, 0.3826834323650898, 0.5
8, 0.831491579260158, 0.3444150891285808, 0.5
9, 0.95, 0, 0
10, 0.9807852804032304, 0.1950903220161282, 0
11, 0.8776855558857224, 0.3635492607468353, 0
12, 0.8827067523629074, 0.1755812898145154, 0
13, 0.9, 0, 0.25
14, 1, 0, 0.25
15, 0.9238795325112867, 0.3826834323650898, 0.25
16, 0.831491579260158, 0.3444150891285808, 0.25
17, 0.95, 0, 0.5
18, 0.9807852804032304, 0.1950903220161282, 0.5
19, 0.8776855558857224, 0.3635492607468353, 0.5
20, 0.8827067523629074, 0.1755812898145154, 0.5
90, 1, 0, 0
91, 1.1, 0, 0
92, 1.016267485762415, 0.4209517756015988, 0
93, 0.9238795325112867, 0.3826834323650898, 0
94, 1, 0, 0.5
95, 1.1, 0, 0.5
96, 1.016267485762415, 0.4209517756015988, 0.5
97, 0.9238795325112867, 0.3826834323650898, 0.5
98, 1.05, 0, 0
99, 1.078863808443554, 0.2145993542177411, 0
100, 0.9700735091368511, 0.4018176039833443, 0
101, 0.9807852804032304, 0.1950903220161282, 0
102, 1, 0, 0.25
103, 1.1, 0, 0.25
104, 1.016267485762415, 0.4209517756015988, 0.25
105, 0.9238795325112867, 0.3826834323650898, 0.25
106, 1.05, 0, 0.5
107, 1.078863808443554, 0.2145993542177411, 0.5
108, 0.9700735091368511, 0.4018176039833443, 0.5
109, 0.9807852804032304, 0.1950903220161282, 0.5
*Element, type=C3D20, elset=PRIMARY
1, 1, 2, 3, 4, 5, 6, 7, 8, 9, 10, 11, 12, 17, 18, 19, 20, 13, 14, 15, 16
*Element, type=C3D20, elset=SECONDARY
9, 90, 91, 92, 93, 94, 95, 96, 97, 98, 99, 100, 101, 106, 107, 108, 109, 102, 103, 104, 105
*Nset, nset=PRIMARY_ALL
1, 2, 3, 4, 5, 6, 7, 8, 9, 10, 11, 12, 17, 18, 19, 20
13, 14, 15, 16
*Nset, nset=SECONDARY_ALL
90, 91, 92, 93, 94, 95, 96, 97, 98, 99, 100, 101, 106, 107, 108, 109
102, 103, 104, 105
*Nset, nset=S1
90
*Nset, nset=S2
93
*Nset, nset=S3
97
*Nset, nset=S4
94
*Nset, nset=S5
101
*Nset, nset=S6
105
*Nset, nset=S7
109
*Nset, nset=S8
102
*Surface, type=ELEMENT, name=PRIMARY_CONTACT
PRIMARY, S4
*Surface, type=ELEMENT, name=SECONDARY_CONTACT
SECONDARY, S6
*Material, name=ELASTIC
*Elastic
1.e9, 0.25
*Solid Section, elset=PRIMARY, material=ELASTIC
,
*Solid Section, elset=SECONDARY, material=ELASTIC
,
*Surface Interaction, name=LINEAR_PENALTY
*Surface Behavior, pressure-overclosure=LINEAR
1.e8,
*Contact Pair, interaction=LINEAR_PENALTY, type=SURFACE TO SURFACE, small sliding, adjust=0.
SECONDARY_CONTACT, PRIMARY_CONTACT
*Step, name=BASE, nlgeom=NO, inc=40
*Static
0.1, 1., 1.e-8, 0.1
*Boundary
PRIMARY_ALL, 1, 3, 0.
S1, 1, 1, -0.0001
S1, 2, 2, -0
S1, 3, 3, 0
S2, 1, 1, -9.238795325112868e-05
S2, 2, 2, -3.826834323650898e-05
S2, 3, 3, 0
S3, 1, 1, -9.238795325112868e-05
S3, 2, 2, -3.826834323650898e-05
S3, 3, 3, 0
S4, 1, 1, -0.0001
S4, 2, 2, -0
S4, 3, 3, 0
S5, 1, 1, -9.807852804032305e-05
S5, 2, 2, -1.950903220161282e-05
S5, 3, 3, 0
S6, 1, 1, -9.238795325112868e-05
S6, 2, 2, -3.826834323650898e-05
S6, 3, 3, 0
S7, 1, 1, -9.807852804032305e-05
S7, 2, 2, -1.950903220161282e-05
S7, 3, 3, 0
S8, 1, 1, -0.0001
S8, 2, 2, -0
S8, 3, 3, 0
*Output, field, frequency=1
*Node Output
COORD, RF, U
*Contact Output
CSTRESS, CDISP, CFORCE
*End Step
*Step, name=S1_X_PLUS, nlgeom=NO, inc=40
*Static
0.1, 1., 1.e-8, 0.1
*Boundary, op=MOD
S1, 1, 1, -9.900000000000001e-05
S1, 2, 2, -0
S1, 3, 3, 0
S2, 1, 1, -9.238795325112868e-05
S2, 2, 2, -3.826834323650898e-05
S2, 3, 3, 0
S3, 1, 1, -9.238795325112868e-05
S3, 2, 2, -3.826834323650898e-05
S3, 3, 3, 0
S4, 1, 1, -0.0001
S4, 2, 2, -0
S4, 3, 3, 0
S5, 1, 1, -9.807852804032305e-05
S5, 2, 2, -1.950903220161282e-05
S5, 3, 3, 0
S6, 1, 1, -9.238795325112868e-05
S6, 2, 2, -3.826834323650898e-05
S6, 3, 3, 0
S7, 1, 1, -9.807852804032305e-05
S7, 2, 2, -1.950903220161282e-05
S7, 3, 3, 0
S8, 1, 1, -0.0001
S8, 2, 2, -0
S8, 3, 3, 0
*Output, field, frequency=1
*Node Output
COORD, RF, U
*Contact Output
CSTRESS, CDISP, CFORCE
*End Step
*Step, name=S1_X_MINUS, nlgeom=NO, inc=40
*Static
0.1, 1., 1.e-8, 0.1
*Boundary, op=MOD
S1, 1, 1, -0.000101
S1, 2, 2, -0
S1, 3, 3, 0
S2, 1, 1, -9.238795325112868e-05
S2, 2, 2, -3.826834323650898e-05
S2, 3, 3, 0
S3, 1, 1, -9.238795325112868e-05
S3, 2, 2, -3.826834323650898e-05
S3, 3, 3, 0
S4, 1, 1, -0.0001
S4, 2, 2, -0
S4, 3, 3, 0
S5, 1, 1, -9.807852804032305e-05
S5, 2, 2, -1.950903220161282e-05
S5, 3, 3, 0
S6, 1, 1, -9.238795325112868e-05
S6, 2, 2, -3.826834323650898e-05
S6, 3, 3, 0
S7, 1, 1, -9.807852804032305e-05
S7, 2, 2, -1.950903220161282e-05
S7, 3, 3, 0
S8, 1, 1, -0.0001
S8, 2, 2, -0
S8, 3, 3, 0
*Output, field, frequency=1
*Node Output
COORD, RF, U
*Contact Output
CSTRESS, CDISP, CFORCE
*End Step
*Step, name=S1_Y_PLUS, nlgeom=NO, inc=40
*Static
0.1, 1., 1.e-8, 0.1
*Boundary, op=MOD
S1, 1, 1, -0.0001
S1, 2, 2, 1e-06
S1, 3, 3, 0
S2, 1, 1, -9.238795325112868e-05
S2, 2, 2, -3.826834323650898e-05
S2, 3, 3, 0
S3, 1, 1, -9.238795325112868e-05
S3, 2, 2, -3.826834323650898e-05
S3, 3, 3, 0
S4, 1, 1, -0.0001
S4, 2, 2, -0
S4, 3, 3, 0
S5, 1, 1, -9.807852804032305e-05
S5, 2, 2, -1.950903220161282e-05
S5, 3, 3, 0
S6, 1, 1, -9.238795325112868e-05
S6, 2, 2, -3.826834323650898e-05
S6, 3, 3, 0
S7, 1, 1, -9.807852804032305e-05
S7, 2, 2, -1.950903220161282e-05
S7, 3, 3, 0
S8, 1, 1, -0.0001
S8, 2, 2, -0
S8, 3, 3, 0
*Output, field, frequency=1
*Node Output
COORD, RF, U
*Contact Output
CSTRESS, CDISP, CFORCE
*End Step
*Step, name=S1_Y_MINUS, nlgeom=NO, inc=40
*Static
0.1, 1., 1.e-8, 0.1
*Boundary, op=MOD
S1, 1, 1, -0.0001
S1, 2, 2, -1e-06
S1, 3, 3, 0
S2, 1, 1, -9.238795325112868e-05
S2, 2, 2, -3.826834323650898e-05
S2, 3, 3, 0
S3, 1, 1, -9.238795325112868e-05
S3, 2, 2, -3.826834323650898e-05
S3, 3, 3, 0
S4, 1, 1, -0.0001
S4, 2, 2, -0
S4, 3, 3, 0
S5, 1, 1, -9.807852804032305e-05
S5, 2, 2, -1.950903220161282e-05
S5, 3, 3, 0
S6, 1, 1, -9.238795325112868e-05
S6, 2, 2, -3.826834323650898e-05
S6, 3, 3, 0
S7, 1, 1, -9.807852804032305e-05
S7, 2, 2, -1.950903220161282e-05
S7, 3, 3, 0
S8, 1, 1, -0.0001
S8, 2, 2, -0
S8, 3, 3, 0
*Output, field, frequency=1
*Node Output
COORD, RF, U
*Contact Output
CSTRESS, CDISP, CFORCE
*End Step
*Step, name=S1_Z_PLUS, nlgeom=NO, inc=40
*Static
0.1, 1., 1.e-8, 0.1
*Boundary, op=MOD
S1, 1, 1, -0.0001
S1, 2, 2, -0
S1, 3, 3, 1e-06
S2, 1, 1, -9.238795325112868e-05
S2, 2, 2, -3.826834323650898e-05
S2, 3, 3, 0
S3, 1, 1, -9.238795325112868e-05
S3, 2, 2, -3.826834323650898e-05
S3, 3, 3, 0
S4, 1, 1, -0.0001
S4, 2, 2, -0
S4, 3, 3, 0
S5, 1, 1, -9.807852804032305e-05
S5, 2, 2, -1.950903220161282e-05
S5, 3, 3, 0
S6, 1, 1, -9.238795325112868e-05
S6, 2, 2, -3.826834323650898e-05
S6, 3, 3, 0
S7, 1, 1, -9.807852804032305e-05
S7, 2, 2, -1.950903220161282e-05
S7, 3, 3, 0
S8, 1, 1, -0.0001
S8, 2, 2, -0
S8, 3, 3, 0
*Output, field, frequency=1
*Node Output
COORD, RF, U
*Contact Output
CSTRESS, CDISP, CFORCE
*End Step
*Step, name=S1_Z_MINUS, nlgeom=NO, inc=40
*Static
0.1, 1., 1.e-8, 0.1
*Boundary, op=MOD
S1, 1, 1, -0.0001
S1, 2, 2, -0
S1, 3, 3, -1e-06
S2, 1, 1, -9.238795325112868e-05
S2, 2, 2, -3.826834323650898e-05
S2, 3, 3, 0
S3, 1, 1, -9.238795325112868e-05
S3, 2, 2, -3.826834323650898e-05
S3, 3, 3, 0
S4, 1, 1, -0.0001
S4, 2, 2, -0
S4, 3, 3, 0
S5, 1, 1, -9.807852804032305e-05
S5, 2, 2, -1.950903220161282e-05
S5, 3, 3, 0
S6, 1, 1, -9.238795325112868e-05
S6, 2, 2, -3.826834323650898e-05
S6, 3, 3, 0
S7, 1, 1, -9.807852804032305e-05
S7, 2, 2, -1.950903220161282e-05
S7, 3, 3, 0
S8, 1, 1, -0.0001
S8, 2, 2, -0
S8, 3, 3, 0
*Output, field, frequency=1
*Node Output
COORD, RF, U
*Contact Output
CSTRESS, CDISP, CFORCE
*End Step
*Step, name=S2_X_PLUS, nlgeom=NO, inc=40
*Static
0.1, 1., 1.e-8, 0.1
*Boundary, op=MOD
S1, 1, 1, -0.0001
S1, 2, 2, -0
S1, 3, 3, 0
S2, 1, 1, -9.138795325112868e-05
S2, 2, 2, -3.826834323650898e-05
S2, 3, 3, 0
S3, 1, 1, -9.238795325112868e-05
S3, 2, 2, -3.826834323650898e-05
S3, 3, 3, 0
S4, 1, 1, -0.0001
S4, 2, 2, -0
S4, 3, 3, 0
S5, 1, 1, -9.807852804032305e-05
S5, 2, 2, -1.950903220161282e-05
S5, 3, 3, 0
S6, 1, 1, -9.238795325112868e-05
S6, 2, 2, -3.826834323650898e-05
S6, 3, 3, 0
S7, 1, 1, -9.807852804032305e-05
S7, 2, 2, -1.950903220161282e-05
S7, 3, 3, 0
S8, 1, 1, -0.0001
S8, 2, 2, -0
S8, 3, 3, 0
*Output, field, frequency=1
*Node Output
COORD, RF, U
*Contact Output
CSTRESS, CDISP, CFORCE
*End Step
*Step, name=S2_X_MINUS, nlgeom=NO, inc=40
*Static
0.1, 1., 1.e-8, 0.1
*Boundary, op=MOD
S1, 1, 1, -0.0001
S1, 2, 2, -0
S1, 3, 3, 0
S2, 1, 1, -9.338795325112867e-05
S2, 2, 2, -3.826834323650898e-05
S2, 3, 3, 0
S3, 1, 1, -9.238795325112868e-05
S3, 2, 2, -3.826834323650898e-05
S3, 3, 3, 0
S4, 1, 1, -0.0001
S4, 2, 2, -0
S4, 3, 3, 0
S5, 1, 1, -9.807852804032305e-05
S5, 2, 2, -1.950903220161282e-05
S5, 3, 3, 0
S6, 1, 1, -9.238795325112868e-05
S6, 2, 2, -3.826834323650898e-05
S6, 3, 3, 0
S7, 1, 1, -9.807852804032305e-05
S7, 2, 2, -1.950903220161282e-05
S7, 3, 3, 0
S8, 1, 1, -0.0001
S8, 2, 2, -0
S8, 3, 3, 0
*Output, field, frequency=1
*Node Output
COORD, RF, U
*Contact Output
CSTRESS, CDISP, CFORCE
*End Step
*Step, name=S2_Y_PLUS, nlgeom=NO, inc=40
*Static
0.1, 1., 1.e-8, 0.1
*Boundary, op=MOD
S1, 1, 1, -0.0001
S1, 2, 2, -0
S1, 3, 3, 0
S2, 1, 1, -9.238795325112868e-05
S2, 2, 2, -3.726834323650898e-05
S2, 3, 3, 0
S3, 1, 1, -9.238795325112868e-05
S3, 2, 2, -3.826834323650898e-05
S3, 3, 3, 0
S4, 1, 1, -0.0001
S4, 2, 2, -0
S4, 3, 3, 0
S5, 1, 1, -9.807852804032305e-05
S5, 2, 2, -1.950903220161282e-05
S5, 3, 3, 0
S6, 1, 1, -9.238795325112868e-05
S6, 2, 2, -3.826834323650898e-05
S6, 3, 3, 0
S7, 1, 1, -9.807852804032305e-05
S7, 2, 2, -1.950903220161282e-05
S7, 3, 3, 0
S8, 1, 1, -0.0001
S8, 2, 2, -0
S8, 3, 3, 0
*Output, field, frequency=1
*Node Output
COORD, RF, U
*Contact Output
CSTRESS, CDISP, CFORCE
*End Step
*Step, name=S2_Y_MINUS, nlgeom=NO, inc=40
*Static
0.1, 1., 1.e-8, 0.1
*Boundary, op=MOD
S1, 1, 1, -0.0001
S1, 2, 2, -0
S1, 3, 3, 0
S2, 1, 1, -9.238795325112868e-05
S2, 2, 2, -3.926834323650898e-05
S2, 3, 3, 0
S3, 1, 1, -9.238795325112868e-05
S3, 2, 2, -3.826834323650898e-05
S3, 3, 3, 0
S4, 1, 1, -0.0001
S4, 2, 2, -0
S4, 3, 3, 0
S5, 1, 1, -9.807852804032305e-05
S5, 2, 2, -1.950903220161282e-05
S5, 3, 3, 0
S6, 1, 1, -9.238795325112868e-05
S6, 2, 2, -3.826834323650898e-05
S6, 3, 3, 0
S7, 1, 1, -9.807852804032305e-05
S7, 2, 2, -1.950903220161282e-05
S7, 3, 3, 0
S8, 1, 1, -0.0001
S8, 2, 2, -0
S8, 3, 3, 0
*Output, field, frequency=1
*Node Output
COORD, RF, U
*Contact Output
CSTRESS, CDISP, CFORCE
*End Step
*Step, name=S2_Z_PLUS, nlgeom=NO, inc=40
*Static
0.1, 1., 1.e-8, 0.1
*Boundary, op=MOD
S1, 1, 1, -0.0001
S1, 2, 2, -0
S1, 3, 3, 0
S2, 1, 1, -9.238795325112868e-05
S2, 2, 2, -3.826834323650898e-05
S2, 3, 3, 1e-06
S3, 1, 1, -9.238795325112868e-05
S3, 2, 2, -3.826834323650898e-05
S3, 3, 3, 0
S4, 1, 1, -0.0001
S4, 2, 2, -0
S4, 3, 3, 0
S5, 1, 1, -9.807852804032305e-05
S5, 2, 2, -1.950903220161282e-05
S5, 3, 3, 0
S6, 1, 1, -9.238795325112868e-05
S6, 2, 2, -3.826834323650898e-05
S6, 3, 3, 0
S7, 1, 1, -9.807852804032305e-05
S7, 2, 2, -1.950903220161282e-05
S7, 3, 3, 0
S8, 1, 1, -0.0001
S8, 2, 2, -0
S8, 3, 3, 0
*Output, field, frequency=1
*Node Output
COORD, RF, U
*Contact Output
CSTRESS, CDISP, CFORCE
*End Step
*Step, name=S2_Z_MINUS, nlgeom=NO, inc=40
*Static
0.1, 1., 1.e-8, 0.1
*Boundary, op=MOD
S1, 1, 1, -0.0001
S1, 2, 2, -0
S1, 3, 3, 0
S2, 1, 1, -9.238795325112868e-05
S2, 2, 2, -3.826834323650898e-05
S2, 3, 3, -1e-06
S3, 1, 1, -9.238795325112868e-05
S3, 2, 2, -3.826834323650898e-05
S3, 3, 3, 0
S4, 1, 1, -0.0001
S4, 2, 2, -0
S4, 3, 3, 0
S5, 1, 1, -9.807852804032305e-05
S5, 2, 2, -1.950903220161282e-05
S5, 3, 3, 0
S6, 1, 1, -9.238795325112868e-05
S6, 2, 2, -3.826834323650898e-05
S6, 3, 3, 0
S7, 1, 1, -9.807852804032305e-05
S7, 2, 2, -1.950903220161282e-05
S7, 3, 3, 0
S8, 1, 1, -0.0001
S8, 2, 2, -0
S8, 3, 3, 0
*Output, field, frequency=1
*Node Output
COORD, RF, U
*Contact Output
CSTRESS, CDISP, CFORCE
*End Step
*Step, name=S3_X_PLUS, nlgeom=NO, inc=40
*Static
0.1, 1., 1.e-8, 0.1
*Boundary, op=MOD
S1, 1, 1, -0.0001
S1, 2, 2, -0
S1, 3, 3, 0
S2, 1, 1, -9.238795325112868e-05
S2, 2, 2, -3.826834323650898e-05
S2, 3, 3, 0
S3, 1, 1, -9.138795325112868e-05
S3, 2, 2, -3.826834323650898e-05
S3, 3, 3, 0
S4, 1, 1, -0.0001
S4, 2, 2, -0
S4, 3, 3, 0
S5, 1, 1, -9.807852804032305e-05
S5, 2, 2, -1.950903220161282e-05
S5, 3, 3, 0
S6, 1, 1, -9.238795325112868e-05
S6, 2, 2, -3.826834323650898e-05
S6, 3, 3, 0
S7, 1, 1, -9.807852804032305e-05
S7, 2, 2, -1.950903220161282e-05
S7, 3, 3, 0
S8, 1, 1, -0.0001
S8, 2, 2, -0
S8, 3, 3, 0
*Output, field, frequency=1
*Node Output
COORD, RF, U
*Contact Output
CSTRESS, CDISP, CFORCE
*End Step
*Step, name=S3_X_MINUS, nlgeom=NO, inc=40
*Static
0.1, 1., 1.e-8, 0.1
*Boundary, op=MOD
S1, 1, 1, -0.0001
S1, 2, 2, -0
S1, 3, 3, 0
S2, 1, 1, -9.238795325112868e-05
S2, 2, 2, -3.826834323650898e-05
S2, 3, 3, 0
S3, 1, 1, -9.338795325112867e-05
S3, 2, 2, -3.826834323650898e-05
S3, 3, 3, 0
S4, 1, 1, -0.0001
S4, 2, 2, -0
S4, 3, 3, 0
S5, 1, 1, -9.807852804032305e-05
S5, 2, 2, -1.950903220161282e-05
S5, 3, 3, 0
S6, 1, 1, -9.238795325112868e-05
S6, 2, 2, -3.826834323650898e-05
S6, 3, 3, 0
S7, 1, 1, -9.807852804032305e-05
S7, 2, 2, -1.950903220161282e-05
S7, 3, 3, 0
S8, 1, 1, -0.0001
S8, 2, 2, -0
S8, 3, 3, 0
*Output, field, frequency=1
*Node Output
COORD, RF, U
*Contact Output
CSTRESS, CDISP, CFORCE
*End Step
*Step, name=S3_Y_PLUS, nlgeom=NO, inc=40
*Static
0.1, 1., 1.e-8, 0.1
*Boundary, op=MOD
S1, 1, 1, -0.0001
S1, 2, 2, -0
S1, 3, 3, 0
S2, 1, 1, -9.238795325112868e-05
S2, 2, 2, -3.826834323650898e-05
S2, 3, 3, 0
S3, 1, 1, -9.238795325112868e-05
S3, 2, 2, -3.726834323650898e-05
S3, 3, 3, 0
S4, 1, 1, -0.0001
S4, 2, 2, -0
S4, 3, 3, 0
S5, 1, 1, -9.807852804032305e-05
S5, 2, 2, -1.950903220161282e-05
S5, 3, 3, 0
S6, 1, 1, -9.238795325112868e-05
S6, 2, 2, -3.826834323650898e-05
S6, 3, 3, 0
S7, 1, 1, -9.807852804032305e-05
S7, 2, 2, -1.950903220161282e-05
S7, 3, 3, 0
S8, 1, 1, -0.0001
S8, 2, 2, -0
S8, 3, 3, 0
*Output, field, frequency=1
*Node Output
COORD, RF, U
*Contact Output
CSTRESS, CDISP, CFORCE
*End Step
*Step, name=S3_Y_MINUS, nlgeom=NO, inc=40
*Static
0.1, 1., 1.e-8, 0.1
*Boundary, op=MOD
S1, 1, 1, -0.0001
S1, 2, 2, -0
S1, 3, 3, 0
S2, 1, 1, -9.238795325112868e-05
S2, 2, 2, -3.826834323650898e-05
S2, 3, 3, 0
S3, 1, 1, -9.238795325112868e-05
S3, 2, 2, -3.926834323650898e-05
S3, 3, 3, 0
S4, 1, 1, -0.0001
S4, 2, 2, -0
S4, 3, 3, 0
S5, 1, 1, -9.807852804032305e-05
S5, 2, 2, -1.950903220161282e-05
S5, 3, 3, 0
S6, 1, 1, -9.238795325112868e-05
S6, 2, 2, -3.826834323650898e-05
S6, 3, 3, 0
S7, 1, 1, -9.807852804032305e-05
S7, 2, 2, -1.950903220161282e-05
S7, 3, 3, 0
S8, 1, 1, -0.0001
S8, 2, 2, -0
S8, 3, 3, 0
*Output, field, frequency=1
*Node Output
COORD, RF, U
*Contact Output
CSTRESS, CDISP, CFORCE
*End Step
*Step, name=S3_Z_PLUS, nlgeom=NO, inc=40
*Static
0.1, 1., 1.e-8, 0.1
*Boundary, op=MOD
S1, 1, 1, -0.0001
S1, 2, 2, -0
S1, 3, 3, 0
S2, 1, 1, -9.238795325112868e-05
S2, 2, 2, -3.826834323650898e-05
S2, 3, 3, 0
S3, 1, 1, -9.238795325112868e-05
S3, 2, 2, -3.826834323650898e-05
S3, 3, 3, 1e-06
S4, 1, 1, -0.0001
S4, 2, 2, -0
S4, 3, 3, 0
S5, 1, 1, -9.807852804032305e-05
S5, 2, 2, -1.950903220161282e-05
S5, 3, 3, 0
S6, 1, 1, -9.238795325112868e-05
S6, 2, 2, -3.826834323650898e-05
S6, 3, 3, 0
S7, 1, 1, -9.807852804032305e-05
S7, 2, 2, -1.950903220161282e-05
S7, 3, 3, 0
S8, 1, 1, -0.0001
S8, 2, 2, -0
S8, 3, 3, 0
*Output, field, frequency=1
*Node Output
COORD, RF, U
*Contact Output
CSTRESS, CDISP, CFORCE
*End Step
*Step, name=S3_Z_MINUS, nlgeom=NO, inc=40
*Static
0.1, 1., 1.e-8, 0.1
*Boundary, op=MOD
S1, 1, 1, -0.0001
S1, 2, 2, -0
S1, 3, 3, 0
S2, 1, 1, -9.238795325112868e-05
S2, 2, 2, -3.826834323650898e-05
S2, 3, 3, 0
S3, 1, 1, -9.238795325112868e-05
S3, 2, 2, -3.826834323650898e-05
S3, 3, 3, -1e-06
S4, 1, 1, -0.0001
S4, 2, 2, -0
S4, 3, 3, 0
S5, 1, 1, -9.807852804032305e-05
S5, 2, 2, -1.950903220161282e-05
S5, 3, 3, 0
S6, 1, 1, -9.238795325112868e-05
S6, 2, 2, -3.826834323650898e-05
S6, 3, 3, 0
S7, 1, 1, -9.807852804032305e-05
S7, 2, 2, -1.950903220161282e-05
S7, 3, 3, 0
S8, 1, 1, -0.0001
S8, 2, 2, -0
S8, 3, 3, 0
*Output, field, frequency=1
*Node Output
COORD, RF, U
*Contact Output
CSTRESS, CDISP, CFORCE
*End Step
*Step, name=S4_X_PLUS, nlgeom=NO, inc=40
*Static
0.1, 1., 1.e-8, 0.1
*Boundary, op=MOD
S1, 1, 1, -0.0001
S1, 2, 2, -0
S1, 3, 3, 0
S2, 1, 1, -9.238795325112868e-05
S2, 2, 2, -3.826834323650898e-05
S2, 3, 3, 0
S3, 1, 1, -9.238795325112868e-05
S3, 2, 2, -3.826834323650898e-05
S3, 3, 3, 0
S4, 1, 1, -9.900000000000001e-05
S4, 2, 2, -0
S4, 3, 3, 0
S5, 1, 1, -9.807852804032305e-05
S5, 2, 2, -1.950903220161282e-05
S5, 3, 3, 0
S6, 1, 1, -9.238795325112868e-05
S6, 2, 2, -3.826834323650898e-05
S6, 3, 3, 0
S7, 1, 1, -9.807852804032305e-05
S7, 2, 2, -1.950903220161282e-05
S7, 3, 3, 0
S8, 1, 1, -0.0001
S8, 2, 2, -0
S8, 3, 3, 0
*Output, field, frequency=1
*Node Output
COORD, RF, U
*Contact Output
CSTRESS, CDISP, CFORCE
*End Step
*Step, name=S4_X_MINUS, nlgeom=NO, inc=40
*Static
0.1, 1., 1.e-8, 0.1
*Boundary, op=MOD
S1, 1, 1, -0.0001
S1, 2, 2, -0
S1, 3, 3, 0
S2, 1, 1, -9.238795325112868e-05
S2, 2, 2, -3.826834323650898e-05
S2, 3, 3, 0
S3, 1, 1, -9.238795325112868e-05
S3, 2, 2, -3.826834323650898e-05
S3, 3, 3, 0
S4, 1, 1, -0.000101
S4, 2, 2, -0
S4, 3, 3, 0
S5, 1, 1, -9.807852804032305e-05
S5, 2, 2, -1.950903220161282e-05
S5, 3, 3, 0
S6, 1, 1, -9.238795325112868e-05
S6, 2, 2, -3.826834323650898e-05
S6, 3, 3, 0
S7, 1, 1, -9.807852804032305e-05
S7, 2, 2, -1.950903220161282e-05
S7, 3, 3, 0
S8, 1, 1, -0.0001
S8, 2, 2, -0
S8, 3, 3, 0
*Output, field, frequency=1
*Node Output
COORD, RF, U
*Contact Output
CSTRESS, CDISP, CFORCE
*End Step
*Step, name=S4_Y_PLUS, nlgeom=NO, inc=40
*Static
0.1, 1., 1.e-8, 0.1
*Boundary, op=MOD
S1, 1, 1, -0.0001
S1, 2, 2, -0
S1, 3, 3, 0
S2, 1, 1, -9.238795325112868e-05
S2, 2, 2, -3.826834323650898e-05
S2, 3, 3, 0
S3, 1, 1, -9.238795325112868e-05
S3, 2, 2, -3.826834323650898e-05
S3, 3, 3, 0
S4, 1, 1, -0.0001
S4, 2, 2, 1e-06
S4, 3, 3, 0
S5, 1, 1, -9.807852804032305e-05
S5, 2, 2, -1.950903220161282e-05
S5, 3, 3, 0
S6, 1, 1, -9.238795325112868e-05
S6, 2, 2, -3.826834323650898e-05
S6, 3, 3, 0
S7, 1, 1, -9.807852804032305e-05
S7, 2, 2, -1.950903220161282e-05
S7, 3, 3, 0
S8, 1, 1, -0.0001
S8, 2, 2, -0
S8, 3, 3, 0
*Output, field, frequency=1
*Node Output
COORD, RF, U
*Contact Output
CSTRESS, CDISP, CFORCE
*End Step
*Step, name=S4_Y_MINUS, nlgeom=NO, inc=40
*Static
0.1, 1., 1.e-8, 0.1
*Boundary, op=MOD
S1, 1, 1, -0.0001
S1, 2, 2, -0
S1, 3, 3, 0
S2, 1, 1, -9.238795325112868e-05
S2, 2, 2, -3.826834323650898e-05
S2, 3, 3, 0
S3, 1, 1, -9.238795325112868e-05
S3, 2, 2, -3.826834323650898e-05
S3, 3, 3, 0
S4, 1, 1, -0.0001
S4, 2, 2, -1e-06
S4, 3, 3, 0
S5, 1, 1, -9.807852804032305e-05
S5, 2, 2, -1.950903220161282e-05
S5, 3, 3, 0
S6, 1, 1, -9.238795325112868e-05
S6, 2, 2, -3.826834323650898e-05
S6, 3, 3, 0
S7, 1, 1, -9.807852804032305e-05
S7, 2, 2, -1.950903220161282e-05
S7, 3, 3, 0
S8, 1, 1, -0.0001
S8, 2, 2, -0
S8, 3, 3, 0
*Output, field, frequency=1
*Node Output
COORD, RF, U
*Contact Output
CSTRESS, CDISP, CFORCE
*End Step
*Step, name=S4_Z_PLUS, nlgeom=NO, inc=40
*Static
0.1, 1., 1.e-8, 0.1
*Boundary, op=MOD
S1, 1, 1, -0.0001
S1, 2, 2, -0
S1, 3, 3, 0
S2, 1, 1, -9.238795325112868e-05
S2, 2, 2, -3.826834323650898e-05
S2, 3, 3, 0
S3, 1, 1, -9.238795325112868e-05
S3, 2, 2, -3.826834323650898e-05
S3, 3, 3, 0
S4, 1, 1, -0.0001
S4, 2, 2, -0
S4, 3, 3, 1e-06
S5, 1, 1, -9.807852804032305e-05
S5, 2, 2, -1.950903220161282e-05
S5, 3, 3, 0
S6, 1, 1, -9.238795325112868e-05
S6, 2, 2, -3.826834323650898e-05
S6, 3, 3, 0
S7, 1, 1, -9.807852804032305e-05
S7, 2, 2, -1.950903220161282e-05
S7, 3, 3, 0
S8, 1, 1, -0.0001
S8, 2, 2, -0
S8, 3, 3, 0
*Output, field, frequency=1
*Node Output
COORD, RF, U
*Contact Output
CSTRESS, CDISP, CFORCE
*End Step
*Step, name=S4_Z_MINUS, nlgeom=NO, inc=40
*Static
0.1, 1., 1.e-8, 0.1
*Boundary, op=MOD
S1, 1, 1, -0.0001
S1, 2, 2, -0
S1, 3, 3, 0
S2, 1, 1, -9.238795325112868e-05
S2, 2, 2, -3.826834323650898e-05
S2, 3, 3, 0
S3, 1, 1, -9.238795325112868e-05
S3, 2, 2, -3.826834323650898e-05
S3, 3, 3, 0
S4, 1, 1, -0.0001
S4, 2, 2, -0
S4, 3, 3, -1e-06
S5, 1, 1, -9.807852804032305e-05
S5, 2, 2, -1.950903220161282e-05
S5, 3, 3, 0
S6, 1, 1, -9.238795325112868e-05
S6, 2, 2, -3.826834323650898e-05
S6, 3, 3, 0
S7, 1, 1, -9.807852804032305e-05
S7, 2, 2, -1.950903220161282e-05
S7, 3, 3, 0
S8, 1, 1, -0.0001
S8, 2, 2, -0
S8, 3, 3, 0
*Output, field, frequency=1
*Node Output
COORD, RF, U
*Contact Output
CSTRESS, CDISP, CFORCE
*End Step
*Step, name=S5_X_PLUS, nlgeom=NO, inc=40
*Static
0.1, 1., 1.e-8, 0.1
*Boundary, op=MOD
S1, 1, 1, -0.0001
S1, 2, 2, -0
S1, 3, 3, 0
S2, 1, 1, -9.238795325112868e-05
S2, 2, 2, -3.826834323650898e-05
S2, 3, 3, 0
S3, 1, 1, -9.238795325112868e-05
S3, 2, 2, -3.826834323650898e-05
S3, 3, 3, 0
S4, 1, 1, -0.0001
S4, 2, 2, -0
S4, 3, 3, 0
S5, 1, 1, -9.707852804032305e-05
S5, 2, 2, -1.950903220161282e-05
S5, 3, 3, 0
S6, 1, 1, -9.238795325112868e-05
S6, 2, 2, -3.826834323650898e-05
S6, 3, 3, 0
S7, 1, 1, -9.807852804032305e-05
S7, 2, 2, -1.950903220161282e-05
S7, 3, 3, 0
S8, 1, 1, -0.0001
S8, 2, 2, -0
S8, 3, 3, 0
*Output, field, frequency=1
*Node Output
COORD, RF, U
*Contact Output
CSTRESS, CDISP, CFORCE
*End Step
*Step, name=S5_X_MINUS, nlgeom=NO, inc=40
*Static
0.1, 1., 1.e-8, 0.1
*Boundary, op=MOD
S1, 1, 1, -0.0001
S1, 2, 2, -0
S1, 3, 3, 0
S2, 1, 1, -9.238795325112868e-05
S2, 2, 2, -3.826834323650898e-05
S2, 3, 3, 0
S3, 1, 1, -9.238795325112868e-05
S3, 2, 2, -3.826834323650898e-05
S3, 3, 3, 0
S4, 1, 1, -0.0001
S4, 2, 2, -0
S4, 3, 3, 0
S5, 1, 1, -9.907852804032304e-05
S5, 2, 2, -1.950903220161282e-05
S5, 3, 3, 0
S6, 1, 1, -9.238795325112868e-05
S6, 2, 2, -3.826834323650898e-05
S6, 3, 3, 0
S7, 1, 1, -9.807852804032305e-05
S7, 2, 2, -1.950903220161282e-05
S7, 3, 3, 0
S8, 1, 1, -0.0001
S8, 2, 2, -0
S8, 3, 3, 0
*Output, field, frequency=1
*Node Output
COORD, RF, U
*Contact Output
CSTRESS, CDISP, CFORCE
*End Step
*Step, name=S5_Y_PLUS, nlgeom=NO, inc=40
*Static
0.1, 1., 1.e-8, 0.1
*Boundary, op=MOD
S1, 1, 1, -0.0001
S1, 2, 2, -0
S1, 3, 3, 0
S2, 1, 1, -9.238795325112868e-05
S2, 2, 2, -3.826834323650898e-05
S2, 3, 3, 0
S3, 1, 1, -9.238795325112868e-05
S3, 2, 2, -3.826834323650898e-05
S3, 3, 3, 0
S4, 1, 1, -0.0001
S4, 2, 2, -0
S4, 3, 3, 0
S5, 1, 1, -9.807852804032305e-05
S5, 2, 2, -1.850903220161282e-05
S5, 3, 3, 0
S6, 1, 1, -9.238795325112868e-05
S6, 2, 2, -3.826834323650898e-05
S6, 3, 3, 0
S7, 1, 1, -9.807852804032305e-05
S7, 2, 2, -1.950903220161282e-05
S7, 3, 3, 0
S8, 1, 1, -0.0001
S8, 2, 2, -0
S8, 3, 3, 0
*Output, field, frequency=1
*Node Output
COORD, RF, U
*Contact Output
CSTRESS, CDISP, CFORCE
*End Step
*Step, name=S5_Y_MINUS, nlgeom=NO, inc=40
*Static
0.1, 1., 1.e-8, 0.1
*Boundary, op=MOD
S1, 1, 1, -0.0001
S1, 2, 2, -0
S1, 3, 3, 0
S2, 1, 1, -9.238795325112868e-05
S2, 2, 2, -3.826834323650898e-05
S2, 3, 3, 0
S3, 1, 1, -9.238795325112868e-05
S3, 2, 2, -3.826834323650898e-05
S3, 3, 3, 0
S4, 1, 1, -0.0001
S4, 2, 2, -0
S4, 3, 3, 0
S5, 1, 1, -9.807852804032305e-05
S5, 2, 2, -2.050903220161282e-05
S5, 3, 3, 0
S6, 1, 1, -9.238795325112868e-05
S6, 2, 2, -3.826834323650898e-05
S6, 3, 3, 0
S7, 1, 1, -9.807852804032305e-05
S7, 2, 2, -1.950903220161282e-05
S7, 3, 3, 0
S8, 1, 1, -0.0001
S8, 2, 2, -0
S8, 3, 3, 0
*Output, field, frequency=1
*Node Output
COORD, RF, U
*Contact Output
CSTRESS, CDISP, CFORCE
*End Step
*Step, name=S5_Z_PLUS, nlgeom=NO, inc=40
*Static
0.1, 1., 1.e-8, 0.1
*Boundary, op=MOD
S1, 1, 1, -0.0001
S1, 2, 2, -0
S1, 3, 3, 0
S2, 1, 1, -9.238795325112868e-05
S2, 2, 2, -3.826834323650898e-05
S2, 3, 3, 0
S3, 1, 1, -9.238795325112868e-05
S3, 2, 2, -3.826834323650898e-05
S3, 3, 3, 0
S4, 1, 1, -0.0001
S4, 2, 2, -0
S4, 3, 3, 0
S5, 1, 1, -9.807852804032305e-05
S5, 2, 2, -1.950903220161282e-05
S5, 3, 3, 1e-06
S6, 1, 1, -9.238795325112868e-05
S6, 2, 2, -3.826834323650898e-05
S6, 3, 3, 0
S7, 1, 1, -9.807852804032305e-05
S7, 2, 2, -1.950903220161282e-05
S7, 3, 3, 0
S8, 1, 1, -0.0001
S8, 2, 2, -0
S8, 3, 3, 0
*Output, field, frequency=1
*Node Output
COORD, RF, U
*Contact Output
CSTRESS, CDISP, CFORCE
*End Step
*Step, name=S5_Z_MINUS, nlgeom=NO, inc=40
*Static
0.1, 1., 1.e-8, 0.1
*Boundary, op=MOD
S1, 1, 1, -0.0001
S1, 2, 2, -0
S1, 3, 3, 0
S2, 1, 1, -9.238795325112868e-05
S2, 2, 2, -3.826834323650898e-05
S2, 3, 3, 0
S3, 1, 1, -9.238795325112868e-05
S3, 2, 2, -3.826834323650898e-05
S3, 3, 3, 0
S4, 1, 1, -0.0001
S4, 2, 2, -0
S4, 3, 3, 0
S5, 1, 1, -9.807852804032305e-05
S5, 2, 2, -1.950903220161282e-05
S5, 3, 3, -1e-06
S6, 1, 1, -9.238795325112868e-05
S6, 2, 2, -3.826834323650898e-05
S6, 3, 3, 0
S7, 1, 1, -9.807852804032305e-05
S7, 2, 2, -1.950903220161282e-05
S7, 3, 3, 0
S8, 1, 1, -0.0001
S8, 2, 2, -0
S8, 3, 3, 0
*Output, field, frequency=1
*Node Output
COORD, RF, U
*Contact Output
CSTRESS, CDISP, CFORCE
*End Step
*Step, name=S6_X_PLUS, nlgeom=NO, inc=40
*Static
0.1, 1., 1.e-8, 0.1
*Boundary, op=MOD
S1, 1, 1, -0.0001
S1, 2, 2, -0
S1, 3, 3, 0
S2, 1, 1, -9.238795325112868e-05
S2, 2, 2, -3.826834323650898e-05
S2, 3, 3, 0
S3, 1, 1, -9.238795325112868e-05
S3, 2, 2, -3.826834323650898e-05
S3, 3, 3, 0
S4, 1, 1, -0.0001
S4, 2, 2, -0
S4, 3, 3, 0
S5, 1, 1, -9.807852804032305e-05
S5, 2, 2, -1.950903220161282e-05
S5, 3, 3, 0
S6, 1, 1, -9.138795325112868e-05
S6, 2, 2, -3.826834323650898e-05
S6, 3, 3, 0
S7, 1, 1, -9.807852804032305e-05
S7, 2, 2, -1.950903220161282e-05
S7, 3, 3, 0
S8, 1, 1, -0.0001
S8, 2, 2, -0
S8, 3, 3, 0
*Output, field, frequency=1
*Node Output
COORD, RF, U
*Contact Output
CSTRESS, CDISP, CFORCE
*End Step
*Step, name=S6_X_MINUS, nlgeom=NO, inc=40
*Static
0.1, 1., 1.e-8, 0.1
*Boundary, op=MOD
S1, 1, 1, -0.0001
S1, 2, 2, -0
S1, 3, 3, 0
S2, 1, 1, -9.238795325112868e-05
S2, 2, 2, -3.826834323650898e-05
S2, 3, 3, 0
S3, 1, 1, -9.238795325112868e-05
S3, 2, 2, -3.826834323650898e-05
S3, 3, 3, 0
S4, 1, 1, -0.0001
S4, 2, 2, -0
S4, 3, 3, 0
S5, 1, 1, -9.807852804032305e-05
S5, 2, 2, -1.950903220161282e-05
S5, 3, 3, 0
S6, 1, 1, -9.338795325112867e-05
S6, 2, 2, -3.826834323650898e-05
S6, 3, 3, 0
S7, 1, 1, -9.807852804032305e-05
S7, 2, 2, -1.950903220161282e-05
S7, 3, 3, 0
S8, 1, 1, -0.0001
S8, 2, 2, -0
S8, 3, 3, 0
*Output, field, frequency=1
*Node Output
COORD, RF, U
*Contact Output
CSTRESS, CDISP, CFORCE
*End Step
*Step, name=S6_Y_PLUS, nlgeom=NO, inc=40
*Static
0.1, 1., 1.e-8, 0.1
*Boundary, op=MOD
S1, 1, 1, -0.0001
S1, 2, 2, -0
S1, 3, 3, 0
S2, 1, 1, -9.238795325112868e-05
S2, 2, 2, -3.826834323650898e-05
S2, 3, 3, 0
S3, 1, 1, -9.238795325112868e-05
S3, 2, 2, -3.826834323650898e-05
S3, 3, 3, 0
S4, 1, 1, -0.0001
S4, 2, 2, -0
S4, 3, 3, 0
S5, 1, 1, -9.807852804032305e-05
S5, 2, 2, -1.950903220161282e-05
S5, 3, 3, 0
S6, 1, 1, -9.238795325112868e-05
S6, 2, 2, -3.726834323650898e-05
S6, 3, 3, 0
S7, 1, 1, -9.807852804032305e-05
S7, 2, 2, -1.950903220161282e-05
S7, 3, 3, 0
S8, 1, 1, -0.0001
S8, 2, 2, -0
S8, 3, 3, 0
*Output, field, frequency=1
*Node Output
COORD, RF, U
*Contact Output
CSTRESS, CDISP, CFORCE
*End Step
*Step, name=S6_Y_MINUS, nlgeom=NO, inc=40
*Static
0.1, 1., 1.e-8, 0.1
*Boundary, op=MOD
S1, 1, 1, -0.0001
S1, 2, 2, -0
S1, 3, 3, 0
S2, 1, 1, -9.238795325112868e-05
S2, 2, 2, -3.826834323650898e-05
S2, 3, 3, 0
S3, 1, 1, -9.238795325112868e-05
S3, 2, 2, -3.826834323650898e-05
S3, 3, 3, 0
S4, 1, 1, -0.0001
S4, 2, 2, -0
S4, 3, 3, 0
S5, 1, 1, -9.807852804032305e-05
S5, 2, 2, -1.950903220161282e-05
S5, 3, 3, 0
S6, 1, 1, -9.238795325112868e-05
S6, 2, 2, -3.926834323650898e-05
S6, 3, 3, 0
S7, 1, 1, -9.807852804032305e-05
S7, 2, 2, -1.950903220161282e-05
S7, 3, 3, 0
S8, 1, 1, -0.0001
S8, 2, 2, -0
S8, 3, 3, 0
*Output, field, frequency=1
*Node Output
COORD, RF, U
*Contact Output
CSTRESS, CDISP, CFORCE
*End Step
*Step, name=S6_Z_PLUS, nlgeom=NO, inc=40
*Static
0.1, 1., 1.e-8, 0.1
*Boundary, op=MOD
S1, 1, 1, -0.0001
S1, 2, 2, -0
S1, 3, 3, 0
S2, 1, 1, -9.238795325112868e-05
S2, 2, 2, -3.826834323650898e-05
S2, 3, 3, 0
S3, 1, 1, -9.238795325112868e-05
S3, 2, 2, -3.826834323650898e-05
S3, 3, 3, 0
S4, 1, 1, -0.0001
S4, 2, 2, -0
S4, 3, 3, 0
S5, 1, 1, -9.807852804032305e-05
S5, 2, 2, -1.950903220161282e-05
S5, 3, 3, 0
S6, 1, 1, -9.238795325112868e-05
S6, 2, 2, -3.826834323650898e-05
S6, 3, 3, 1e-06
S7, 1, 1, -9.807852804032305e-05
S7, 2, 2, -1.950903220161282e-05
S7, 3, 3, 0
S8, 1, 1, -0.0001
S8, 2, 2, -0
S8, 3, 3, 0
*Output, field, frequency=1
*Node Output
COORD, RF, U
*Contact Output
CSTRESS, CDISP, CFORCE
*End Step
*Step, name=S6_Z_MINUS, nlgeom=NO, inc=40
*Static
0.1, 1., 1.e-8, 0.1
*Boundary, op=MOD
S1, 1, 1, -0.0001
S1, 2, 2, -0
S1, 3, 3, 0
S2, 1, 1, -9.238795325112868e-05
S2, 2, 2, -3.826834323650898e-05
S2, 3, 3, 0
S3, 1, 1, -9.238795325112868e-05
S3, 2, 2, -3.826834323650898e-05
S3, 3, 3, 0
S4, 1, 1, -0.0001
S4, 2, 2, -0
S4, 3, 3, 0
S5, 1, 1, -9.807852804032305e-05
S5, 2, 2, -1.950903220161282e-05
S5, 3, 3, 0
S6, 1, 1, -9.238795325112868e-05
S6, 2, 2, -3.826834323650898e-05
S6, 3, 3, -1e-06
S7, 1, 1, -9.807852804032305e-05
S7, 2, 2, -1.950903220161282e-05
S7, 3, 3, 0
S8, 1, 1, -0.0001
S8, 2, 2, -0
S8, 3, 3, 0
*Output, field, frequency=1
*Node Output
COORD, RF, U
*Contact Output
CSTRESS, CDISP, CFORCE
*End Step
*Step, name=S7_X_PLUS, nlgeom=NO, inc=40
*Static
0.1, 1., 1.e-8, 0.1
*Boundary, op=MOD
S1, 1, 1, -0.0001
S1, 2, 2, -0
S1, 3, 3, 0
S2, 1, 1, -9.238795325112868e-05
S2, 2, 2, -3.826834323650898e-05
S2, 3, 3, 0
S3, 1, 1, -9.238795325112868e-05
S3, 2, 2, -3.826834323650898e-05
S3, 3, 3, 0
S4, 1, 1, -0.0001
S4, 2, 2, -0
S4, 3, 3, 0
S5, 1, 1, -9.807852804032305e-05
S5, 2, 2, -1.950903220161282e-05
S5, 3, 3, 0
S6, 1, 1, -9.238795325112868e-05
S6, 2, 2, -3.826834323650898e-05
S6, 3, 3, 0
S7, 1, 1, -9.707852804032305e-05
S7, 2, 2, -1.950903220161282e-05
S7, 3, 3, 0
S8, 1, 1, -0.0001
S8, 2, 2, -0
S8, 3, 3, 0
*Output, field, frequency=1
*Node Output
COORD, RF, U
*Contact Output
CSTRESS, CDISP, CFORCE
*End Step
*Step, name=S7_X_MINUS, nlgeom=NO, inc=40
*Static
0.1, 1., 1.e-8, 0.1
*Boundary, op=MOD
S1, 1, 1, -0.0001
S1, 2, 2, -0
S1, 3, 3, 0
S2, 1, 1, -9.238795325112868e-05
S2, 2, 2, -3.826834323650898e-05
S2, 3, 3, 0
S3, 1, 1, -9.238795325112868e-05
S3, 2, 2, -3.826834323650898e-05
S3, 3, 3, 0
S4, 1, 1, -0.0001
S4, 2, 2, -0
S4, 3, 3, 0
S5, 1, 1, -9.807852804032305e-05
S5, 2, 2, -1.950903220161282e-05
S5, 3, 3, 0
S6, 1, 1, -9.238795325112868e-05
S6, 2, 2, -3.826834323650898e-05
S6, 3, 3, 0
S7, 1, 1, -9.907852804032304e-05
S7, 2, 2, -1.950903220161282e-05
S7, 3, 3, 0
S8, 1, 1, -0.0001
S8, 2, 2, -0
S8, 3, 3, 0
*Output, field, frequency=1
*Node Output
COORD, RF, U
*Contact Output
CSTRESS, CDISP, CFORCE
*End Step
*Step, name=S7_Y_PLUS, nlgeom=NO, inc=40
*Static
0.1, 1., 1.e-8, 0.1
*Boundary, op=MOD
S1, 1, 1, -0.0001
S1, 2, 2, -0
S1, 3, 3, 0
S2, 1, 1, -9.238795325112868e-05
S2, 2, 2, -3.826834323650898e-05
S2, 3, 3, 0
S3, 1, 1, -9.238795325112868e-05
S3, 2, 2, -3.826834323650898e-05
S3, 3, 3, 0
S4, 1, 1, -0.0001
S4, 2, 2, -0
S4, 3, 3, 0
S5, 1, 1, -9.807852804032305e-05
S5, 2, 2, -1.950903220161282e-05
S5, 3, 3, 0
S6, 1, 1, -9.238795325112868e-05
S6, 2, 2, -3.826834323650898e-05
S6, 3, 3, 0
S7, 1, 1, -9.807852804032305e-05
S7, 2, 2, -1.850903220161282e-05
S7, 3, 3, 0
S8, 1, 1, -0.0001
S8, 2, 2, -0
S8, 3, 3, 0
*Output, field, frequency=1
*Node Output
COORD, RF, U
*Contact Output
CSTRESS, CDISP, CFORCE
*End Step
*Step, name=S7_Y_MINUS, nlgeom=NO, inc=40
*Static
0.1, 1., 1.e-8, 0.1
*Boundary, op=MOD
S1, 1, 1, -0.0001
S1, 2, 2, -0
S1, 3, 3, 0
S2, 1, 1, -9.238795325112868e-05
S2, 2, 2, -3.826834323650898e-05
S2, 3, 3, 0
S3, 1, 1, -9.238795325112868e-05
S3, 2, 2, -3.826834323650898e-05
S3, 3, 3, 0
S4, 1, 1, -0.0001
S4, 2, 2, -0
S4, 3, 3, 0
S5, 1, 1, -9.807852804032305e-05
S5, 2, 2, -1.950903220161282e-05
S5, 3, 3, 0
S6, 1, 1, -9.238795325112868e-05
S6, 2, 2, -3.826834323650898e-05
S6, 3, 3, 0
S7, 1, 1, -9.807852804032305e-05
S7, 2, 2, -2.050903220161282e-05
S7, 3, 3, 0
S8, 1, 1, -0.0001
S8, 2, 2, -0
S8, 3, 3, 0
*Output, field, frequency=1
*Node Output
COORD, RF, U
*Contact Output
CSTRESS, CDISP, CFORCE
*End Step
*Step, name=S7_Z_PLUS, nlgeom=NO, inc=40
*Static
0.1, 1., 1.e-8, 0.1
*Boundary, op=MOD
S1, 1, 1, -0.0001
S1, 2, 2, -0
S1, 3, 3, 0
S2, 1, 1, -9.238795325112868e-05
S2, 2, 2, -3.826834323650898e-05
S2, 3, 3, 0
S3, 1, 1, -9.238795325112868e-05
S3, 2, 2, -3.826834323650898e-05
S3, 3, 3, 0
S4, 1, 1, -0.0001
S4, 2, 2, -0
S4, 3, 3, 0
S5, 1, 1, -9.807852804032305e-05
S5, 2, 2, -1.950903220161282e-05
S5, 3, 3, 0
S6, 1, 1, -9.238795325112868e-05
S6, 2, 2, -3.826834323650898e-05
S6, 3, 3, 0
S7, 1, 1, -9.807852804032305e-05
S7, 2, 2, -1.950903220161282e-05
S7, 3, 3, 1e-06
S8, 1, 1, -0.0001
S8, 2, 2, -0
S8, 3, 3, 0
*Output, field, frequency=1
*Node Output
COORD, RF, U
*Contact Output
CSTRESS, CDISP, CFORCE
*End Step
*Step, name=S7_Z_MINUS, nlgeom=NO, inc=40
*Static
0.1, 1., 1.e-8, 0.1
*Boundary, op=MOD
S1, 1, 1, -0.0001
S1, 2, 2, -0
S1, 3, 3, 0
S2, 1, 1, -9.238795325112868e-05
S2, 2, 2, -3.826834323650898e-05
S2, 3, 3, 0
S3, 1, 1, -9.238795325112868e-05
S3, 2, 2, -3.826834323650898e-05
S3, 3, 3, 0
S4, 1, 1, -0.0001
S4, 2, 2, -0
S4, 3, 3, 0
S5, 1, 1, -9.807852804032305e-05
S5, 2, 2, -1.950903220161282e-05
S5, 3, 3, 0
S6, 1, 1, -9.238795325112868e-05
S6, 2, 2, -3.826834323650898e-05
S6, 3, 3, 0
S7, 1, 1, -9.807852804032305e-05
S7, 2, 2, -1.950903220161282e-05
S7, 3, 3, -1e-06
S8, 1, 1, -0.0001
S8, 2, 2, -0
S8, 3, 3, 0
*Output, field, frequency=1
*Node Output
COORD, RF, U
*Contact Output
CSTRESS, CDISP, CFORCE
*End Step
*Step, name=S8_X_PLUS, nlgeom=NO, inc=40
*Static
0.1, 1., 1.e-8, 0.1
*Boundary, op=MOD
S1, 1, 1, -0.0001
S1, 2, 2, -0
S1, 3, 3, 0
S2, 1, 1, -9.238795325112868e-05
S2, 2, 2, -3.826834323650898e-05
S2, 3, 3, 0
S3, 1, 1, -9.238795325112868e-05
S3, 2, 2, -3.826834323650898e-05
S3, 3, 3, 0
S4, 1, 1, -0.0001
S4, 2, 2, -0
S4, 3, 3, 0
S5, 1, 1, -9.807852804032305e-05
S5, 2, 2, -1.950903220161282e-05
S5, 3, 3, 0
S6, 1, 1, -9.238795325112868e-05
S6, 2, 2, -3.826834323650898e-05
S6, 3, 3, 0
S7, 1, 1, -9.807852804032305e-05
S7, 2, 2, -1.950903220161282e-05
S7, 3, 3, 0
S8, 1, 1, -9.900000000000001e-05
S8, 2, 2, -0
S8, 3, 3, 0
*Output, field, frequency=1
*Node Output
COORD, RF, U
*Contact Output
CSTRESS, CDISP, CFORCE
*End Step
*Step, name=S8_X_MINUS, nlgeom=NO, inc=40
*Static
0.1, 1., 1.e-8, 0.1
*Boundary, op=MOD
S1, 1, 1, -0.0001
S1, 2, 2, -0
S1, 3, 3, 0
S2, 1, 1, -9.238795325112868e-05
S2, 2, 2, -3.826834323650898e-05
S2, 3, 3, 0
S3, 1, 1, -9.238795325112868e-05
S3, 2, 2, -3.826834323650898e-05
S3, 3, 3, 0
S4, 1, 1, -0.0001
S4, 2, 2, -0
S4, 3, 3, 0
S5, 1, 1, -9.807852804032305e-05
S5, 2, 2, -1.950903220161282e-05
S5, 3, 3, 0
S6, 1, 1, -9.238795325112868e-05
S6, 2, 2, -3.826834323650898e-05
S6, 3, 3, 0
S7, 1, 1, -9.807852804032305e-05
S7, 2, 2, -1.950903220161282e-05
S7, 3, 3, 0
S8, 1, 1, -0.000101
S8, 2, 2, -0
S8, 3, 3, 0
*Output, field, frequency=1
*Node Output
COORD, RF, U
*Contact Output
CSTRESS, CDISP, CFORCE
*End Step
*Step, name=S8_Y_PLUS, nlgeom=NO, inc=40
*Static
0.1, 1., 1.e-8, 0.1
*Boundary, op=MOD
S1, 1, 1, -0.0001
S1, 2, 2, -0
S1, 3, 3, 0
S2, 1, 1, -9.238795325112868e-05
S2, 2, 2, -3.826834323650898e-05
S2, 3, 3, 0
S3, 1, 1, -9.238795325112868e-05
S3, 2, 2, -3.826834323650898e-05
S3, 3, 3, 0
S4, 1, 1, -0.0001
S4, 2, 2, -0
S4, 3, 3, 0
S5, 1, 1, -9.807852804032305e-05
S5, 2, 2, -1.950903220161282e-05
S5, 3, 3, 0
S6, 1, 1, -9.238795325112868e-05
S6, 2, 2, -3.826834323650898e-05
S6, 3, 3, 0
S7, 1, 1, -9.807852804032305e-05
S7, 2, 2, -1.950903220161282e-05
S7, 3, 3, 0
S8, 1, 1, -0.0001
S8, 2, 2, 1e-06
S8, 3, 3, 0
*Output, field, frequency=1
*Node Output
COORD, RF, U
*Contact Output
CSTRESS, CDISP, CFORCE
*End Step
*Step, name=S8_Y_MINUS, nlgeom=NO, inc=40
*Static
0.1, 1., 1.e-8, 0.1
*Boundary, op=MOD
S1, 1, 1, -0.0001
S1, 2, 2, -0
S1, 3, 3, 0
S2, 1, 1, -9.238795325112868e-05
S2, 2, 2, -3.826834323650898e-05
S2, 3, 3, 0
S3, 1, 1, -9.238795325112868e-05
S3, 2, 2, -3.826834323650898e-05
S3, 3, 3, 0
S4, 1, 1, -0.0001
S4, 2, 2, -0
S4, 3, 3, 0
S5, 1, 1, -9.807852804032305e-05
S5, 2, 2, -1.950903220161282e-05
S5, 3, 3, 0
S6, 1, 1, -9.238795325112868e-05
S6, 2, 2, -3.826834323650898e-05
S6, 3, 3, 0
S7, 1, 1, -9.807852804032305e-05
S7, 2, 2, -1.950903220161282e-05
S7, 3, 3, 0
S8, 1, 1, -0.0001
S8, 2, 2, -1e-06
S8, 3, 3, 0
*Output, field, frequency=1
*Node Output
COORD, RF, U
*Contact Output
CSTRESS, CDISP, CFORCE
*End Step
*Step, name=S8_Z_PLUS, nlgeom=NO, inc=40
*Static
0.1, 1., 1.e-8, 0.1
*Boundary, op=MOD
S1, 1, 1, -0.0001
S1, 2, 2, -0
S1, 3, 3, 0
S2, 1, 1, -9.238795325112868e-05
S2, 2, 2, -3.826834323650898e-05
S2, 3, 3, 0
S3, 1, 1, -9.238795325112868e-05
S3, 2, 2, -3.826834323650898e-05
S3, 3, 3, 0
S4, 1, 1, -0.0001
S4, 2, 2, -0
S4, 3, 3, 0
S5, 1, 1, -9.807852804032305e-05
S5, 2, 2, -1.950903220161282e-05
S5, 3, 3, 0
S6, 1, 1, -9.238795325112868e-05
S6, 2, 2, -3.826834323650898e-05
S6, 3, 3, 0
S7, 1, 1, -9.807852804032305e-05
S7, 2, 2, -1.950903220161282e-05
S7, 3, 3, 0
S8, 1, 1, -0.0001
S8, 2, 2, -0
S8, 3, 3, 1e-06
*Output, field, frequency=1
*Node Output
COORD, RF, U
*Contact Output
CSTRESS, CDISP, CFORCE
*End Step
*Step, name=S8_Z_MINUS, nlgeom=NO, inc=40
*Static
0.1, 1., 1.e-8, 0.1
*Boundary, op=MOD
S1, 1, 1, -0.0001
S1, 2, 2, -0
S1, 3, 3, 0
S2, 1, 1, -9.238795325112868e-05
S2, 2, 2, -3.826834323650898e-05
S2, 3, 3, 0
S3, 1, 1, -9.238795325112868e-05
S3, 2, 2, -3.826834323650898e-05
S3, 3, 3, 0
S4, 1, 1, -0.0001
S4, 2, 2, -0
S4, 3, 3, 0
S5, 1, 1, -9.807852804032305e-05
S5, 2, 2, -1.950903220161282e-05
S5, 3, 3, 0
S6, 1, 1, -9.238795325112868e-05
S6, 2, 2, -3.826834323650898e-05
S6, 3, 3, 0
S7, 1, 1, -9.807852804032305e-05
S7, 2, 2, -1.950903220161282e-05
S7, 3, 3, 0
S8, 1, 1, -0.0001
S8, 2, 2, -0
S8, 3, 3, -1e-06
*Output, field, frequency=1
*Node Output
COORD, RF, U
*Contact Output
CSTRESS, CDISP, CFORCE
*End Step
