*Heading
** H20.29: initial_gap C3D20 small-sliding surface-to-surface contact.
*Preprint, echo=NO, model=NO, history=NO, contact=YES
*Node
1, 0, 0, 0
2, 1, 0, 0
3, 1, 0.3, 0
4, 0, 0.3, 0
5, 0, 0, 0.41
6, 1, 0, 0.41
7, 1, 0.3, 0.41
8, 0, 0.3, 0.41
9, 0.5, 0, 0
10, 1, 0.15, 0
11, 0.5, 0.3, 0
12, 0, 0.15, 0
13, 0, 0, 0.205
14, 1, 0, 0.205
15, 1, 0.3, 0.205
16, 0, 0.3, 0.205
17, 0.5, 0, 0.41
18, 1, 0.15, 0.41
19, 0.5, 0.3, 0.41
20, 0, 0.15, 0.41
21, 1, 0.64, 0
22, 0, 0.64, 0
23, 1, 0.64, 0.41
24, 0, 0.64, 0.41
25, 1, 0.47, 0
26, 0.5, 0.64, 0
27, 0, 0.47, 0
28, 1, 0.64, 0.205
29, 0, 0.64, 0.205
30, 1, 0.47, 0.41
31, 0.5, 0.64, 0.41
32, 0, 0.47, 0.41
33, 1, 1, 0
34, 0, 1, 0
35, 1, 1, 0.41
36, 0, 1, 0.41
37, 1, 0.8200000000000001, 0
38, 0.5, 1, 0
39, 0, 0.8200000000000001, 0
40, 1, 1, 0.205
41, 0, 1, 0.205
42, 1, 0.8200000000000001, 0.41
43, 0.5, 1, 0.41
44, 0, 0.8200000000000001, 0.41
45, 0, 0, 1
46, 1, 0, 1
47, 1, 0.3, 1
48, 0, 0.3, 1
49, 0, 0, 0.705
50, 1, 0, 0.705
51, 1, 0.3, 0.705
52, 0, 0.3, 0.705
53, 0.5, 0, 1
54, 1, 0.15, 1
55, 0.5, 0.3, 1
56, 0, 0.15, 1
57, 1, 0.64, 1
58, 0, 0.64, 1
59, 1, 0.64, 0.705
60, 0, 0.64, 0.705
61, 1, 0.47, 1
62, 0.5, 0.64, 1
63, 0, 0.47, 1
64, 1, 1, 1
65, 0, 1, 1
66, 1, 1, 0.705
67, 0, 1, 0.705
68, 1, 0.8200000000000001, 1
69, 0.5, 1, 1
70, 0, 0.8200000000000001, 1
71, 1.000002, 0, 0
72, 2.000002, 0, 0
73, 2.000002, 0.46, 0
74, 1.000002, 0.46, 0
75, 1.000002, 0, 0.2
76, 2.000002, 0, 0.2
77, 2.000002, 0.46, 0.2
78, 1.000002, 0.46, 0.2
79, 1.500002, 0, 0
80, 2.000002, 0.23, 0
81, 1.500002, 0.46, 0
82, 1.000002, 0.23, 0
83, 1.000002, 0, 0.1
84, 2.000002, 0, 0.1
85, 2.000002, 0.46, 0.1
86, 1.000002, 0.46, 0.1
87, 1.500002, 0, 0.2
88, 2.000002, 0.23, 0.2
89, 1.500002, 0.46, 0.2
90, 1.000002, 0.23, 0.2
91, 2.000002, 1, 0
92, 1.000002, 1, 0
93, 2.000002, 1, 0.2
94, 1.000002, 1, 0.2
95, 2.000002, 0.73, 0
96, 1.500002, 1, 0
97, 1.000002, 0.73, 0
98, 2.000002, 1, 0.1
99, 1.000002, 1, 0.1
100, 2.000002, 0.73, 0.2
101, 1.500002, 1, 0.2
102, 1.000002, 0.73, 0.2
103, 1.000002, 0, 0.61
104, 2.000002, 0, 0.61
105, 2.000002, 0.46, 0.61
106, 1.000002, 0.46, 0.61
107, 1.000002, 0, 0.405
108, 2.000002, 0, 0.405
109, 2.000002, 0.46, 0.405
110, 1.000002, 0.46, 0.405
111, 1.500002, 0, 0.61
112, 2.000002, 0.23, 0.61
113, 1.500002, 0.46, 0.61
114, 1.000002, 0.23, 0.61
115, 2.000002, 1, 0.61
116, 1.000002, 1, 0.61
117, 2.000002, 1, 0.405
118, 1.000002, 1, 0.405
119, 2.000002, 0.73, 0.61
120, 1.500002, 1, 0.61
121, 1.000002, 0.73, 0.61
122, 1.000002, 0, 1
123, 2.000002, 0, 1
124, 2.000002, 0.46, 1
125, 1.000002, 0.46, 1
126, 1.000002, 0, 0.8049999999999999
127, 2.000002, 0, 0.8049999999999999
128, 2.000002, 0.46, 0.8049999999999999
129, 1.000002, 0.46, 0.8049999999999999
130, 1.500002, 0, 1
131, 2.000002, 0.23, 1
132, 1.500002, 0.46, 1
133, 1.000002, 0.23, 1
134, 2.000002, 1, 1
135, 1.000002, 1, 1
136, 2.000002, 1, 0.8049999999999999
137, 1.000002, 1, 0.8049999999999999
138, 2.000002, 0.73, 1
139, 1.500002, 1, 1
140, 1.000002, 0.73, 1
*Element, type=C3D20, elset=PRIMARY
1, 1, 2, 3, 4, 5, 6, 7, 8, 9, 10, 11, 12, 17, 18, 19, 20, 13, 14, 15, 16
2, 4, 3, 21, 22, 8, 7, 23, 24, 11, 25, 26, 27, 19, 30, 31, 32, 16, 15, 28, 29
3, 22, 21, 33, 34, 24, 23, 35, 36, 26, 37, 38, 39, 31, 42, 43, 44, 29, 28, 40, 41
4, 5, 6, 7, 8, 45, 46, 47, 48, 17, 18, 19, 20, 53, 54, 55, 56, 49, 50, 51, 52
5, 8, 7, 23, 24, 48, 47, 57, 58, 19, 30, 31, 32, 55, 61, 62, 63, 52, 51, 59, 60
6, 24, 23, 35, 36, 58, 57, 64, 65, 31, 42, 43, 44, 62, 68, 69, 70, 60, 59, 66, 67
*Element, type=C3D20, elset=SECONDARY
7, 71, 72, 73, 74, 75, 76, 77, 78, 79, 80, 81, 82, 87, 88, 89, 90, 83, 84, 85, 86
8, 74, 73, 91, 92, 78, 77, 93, 94, 81, 95, 96, 97, 89, 100, 101, 102, 86, 85, 98, 99
9, 75, 76, 77, 78, 103, 104, 105, 106, 87, 88, 89, 90, 111, 112, 113, 114, 107, 108, 109, 110
10, 78, 77, 93, 94, 106, 105, 115, 116, 89, 100, 101, 102, 113, 119, 120, 121, 110, 109, 117, 118
11, 103, 104, 105, 106, 122, 123, 124, 125, 111, 112, 113, 114, 130, 131, 132, 133, 126, 127, 128, 129
12, 106, 105, 115, 116, 125, 124, 134, 135, 113, 119, 120, 121, 132, 138, 139, 140, 129, 128, 136, 137
*Nset, nset=primary_outer
1, 4, 5, 8, 12, 13, 16, 20, 22, 24, 27, 29, 32, 34, 36, 39
41, 44, 45, 48, 49, 52, 56, 58, 60, 63, 65, 67, 70
*Nset, nset=secondary_outer
72, 73, 76, 77, 80, 84, 85, 88, 91, 93, 95, 98, 100, 104, 105, 108
109, 112, 115, 117, 119, 123, 124, 127, 128, 131, 134, 136, 138
*Nset, nset=secondary_contact_nodes
71, 74, 75, 78, 82, 83, 86, 90, 92, 94, 97, 99, 102, 103, 106, 107
110, 114, 116, 118, 121, 122, 125, 126, 129, 133, 135, 137, 140
*Elset, elset=SECONDARY_TOP_ELEMENTS
11, 12
*Surface, type=ELEMENT, name=PRIMARY_CONTACT
PRIMARY, S4
*Surface, type=ELEMENT, name=SECONDARY_CONTACT
SECONDARY, S6
*Surface, type=ELEMENT, name=SECONDARY_TOP
SECONDARY_TOP_ELEMENTS, S2
*Material, name=PRIMARY_MATERIAL
*Elastic
1400000000, 0.25
*Material, name=SECONDARY_MATERIAL
*Elastic
800000000, 0.25
*Solid Section, elset=PRIMARY, material=PRIMARY_MATERIAL
,
*Solid Section, elset=SECONDARY, material=SECONDARY_MATERIAL
,
*Surface Interaction, name=PENALTY_CONTACT
*Surface Behavior, pressure-overclosure=LINEAR
50000000000,
*Contact Pair, interaction=PENALTY_CONTACT, type=SURFACE TO SURFACE, small sliding, adjust=0.
SECONDARY_CONTACT, PRIMARY_CONTACT
*Step, name=LOAD, nlgeom=NO, inc=100
*Static
0.1, 1., 1.e-8, 0.1
*Boundary
primary_outer, 1, 3, 0.
secondary_outer, 1, 1, -1.2e-05
secondary_outer, 2, 2, -0
secondary_outer, 3, 3, 0.
*Output, field, frequency=1
*Node Output
COORD, RF, U
*Contact Output
CSTRESS, CDISP, CFORCE
*End Step
