*Heading
** H20.29: biaxial C3D20 small-sliding surface-to-surface contact.
*Preprint, echo=NO, model=NO, history=NO, contact=YES
*Node
1, 0, 0, 0
2, 1, 0, 0
3, 1, 0.5, 0
4, 0, 0.5, 0
5, 0, 0, 0.5
6, 1, 0, 0.5
7, 1, 0.5, 0.5
8, 0, 0.5, 0.5
9, 0.5, 0, 0
10, 1, 0.25, 0
11, 0.5, 0.5, 0
12, 0, 0.25, 0
13, 0, 0, 0.25
14, 1, 0, 0.25
15, 1, 0.5, 0.25
16, 0, 0.5, 0.25
17, 0.5, 0, 0.5
18, 1, 0.25, 0.5
19, 0.5, 0.5, 0.5
20, 0, 0.25, 0.5
21, 1, 1, 0
22, 0, 1, 0
23, 1, 1, 0.5
24, 0, 1, 0.5
25, 1, 0.75, 0
26, 0.5, 1, 0
27, 0, 0.75, 0
28, 1, 1, 0.25
29, 0, 1, 0.25
30, 1, 0.75, 0.5
31, 0.5, 1, 0.5
32, 0, 0.75, 0.5
33, 0, 0, 1
34, 1, 0, 1
35, 1, 0.5, 1
36, 0, 0.5, 1
37, 0, 0, 0.75
38, 1, 0, 0.75
39, 1, 0.5, 0.75
40, 0, 0.5, 0.75
41, 0.5, 0, 1
42, 1, 0.25, 1
43, 0.5, 0.5, 1
44, 0, 0.25, 1
45, 1, 1, 1
46, 0, 1, 1
47, 1, 1, 0.75
48, 0, 1, 0.75
49, 1, 0.75, 1
50, 0.5, 1, 1
51, 0, 0.75, 1
52, 1, 0, 0
53, 2, 0, 0
54, 2, 0.28, 0
55, 1, 0.28, 0
56, 1, 0, 0.43
57, 2, 0, 0.43
58, 2, 0.28, 0.43
59, 1, 0.28, 0.43
60, 1.5, 0, 0
61, 2, 0.14, 0
62, 1.5, 0.28, 0
63, 1, 0.14, 0
64, 1, 0, 0.215
65, 2, 0, 0.215
66, 2, 0.28, 0.215
67, 1, 0.28, 0.215
68, 1.5, 0, 0.43
69, 2, 0.14, 0.43
70, 1.5, 0.28, 0.43
71, 1, 0.14, 0.43
72, 2, 0.67, 0
73, 1, 0.67, 0
74, 2, 0.67, 0.43
75, 1, 0.67, 0.43
76, 2, 0.475, 0
77, 1.5, 0.67, 0
78, 1, 0.475, 0
79, 2, 0.67, 0.215
80, 1, 0.67, 0.215
81, 2, 0.475, 0.43
82, 1.5, 0.67, 0.43
83, 1, 0.475, 0.43
84, 2, 1, 0
85, 1, 1, 0
86, 2, 1, 0.43
87, 1, 1, 0.43
88, 2, 0.835, 0
89, 1.5, 1, 0
90, 1, 0.835, 0
91, 2, 1, 0.215
92, 1, 1, 0.215
93, 2, 0.835, 0.43
94, 1.5, 1, 0.43
95, 1, 0.835, 0.43
96, 1, 0, 1
97, 2, 0, 1
98, 2, 0.28, 1
99, 1, 0.28, 1
100, 1, 0, 0.715
101, 2, 0, 0.715
102, 2, 0.28, 0.715
103, 1, 0.28, 0.715
104, 1.5, 0, 1
105, 2, 0.14, 1
106, 1.5, 0.28, 1
107, 1, 0.14, 1
108, 2, 0.67, 1
109, 1, 0.67, 1
110, 2, 0.67, 0.715
111, 1, 0.67, 0.715
112, 2, 0.475, 1
113, 1.5, 0.67, 1
114, 1, 0.475, 1
115, 2, 1, 1
116, 1, 1, 1
117, 2, 1, 0.715
118, 1, 1, 0.715
119, 2, 0.835, 1
120, 1.5, 1, 1
121, 1, 0.835, 1
*Element, type=C3D20, elset=PRIMARY
1, 1, 2, 3, 4, 5, 6, 7, 8, 9, 10, 11, 12, 17, 18, 19, 20, 13, 14, 15, 16
2, 4, 3, 21, 22, 8, 7, 23, 24, 11, 25, 26, 27, 19, 30, 31, 32, 16, 15, 28, 29
3, 5, 6, 7, 8, 33, 34, 35, 36, 17, 18, 19, 20, 41, 42, 43, 44, 37, 38, 39, 40
4, 8, 7, 23, 24, 36, 35, 45, 46, 19, 30, 31, 32, 43, 49, 50, 51, 40, 39, 47, 48
*Element, type=C3D20, elset=SECONDARY
5, 52, 53, 54, 55, 56, 57, 58, 59, 60, 61, 62, 63, 68, 69, 70, 71, 64, 65, 66, 67
6, 55, 54, 72, 73, 59, 58, 74, 75, 62, 76, 77, 78, 70, 81, 82, 83, 67, 66, 79, 80
7, 73, 72, 84, 85, 75, 74, 86, 87, 77, 88, 89, 90, 82, 93, 94, 95, 80, 79, 91, 92
8, 56, 57, 58, 59, 96, 97, 98, 99, 68, 69, 70, 71, 104, 105, 106, 107, 100, 101, 102, 103
9, 59, 58, 74, 75, 99, 98, 108, 109, 70, 81, 82, 83, 106, 112, 113, 114, 103, 102, 110, 111
10, 75, 74, 86, 87, 109, 108, 115, 116, 82, 93, 94, 95, 113, 119, 120, 121, 111, 110, 117, 118
*Nset, nset=primary_outer
1, 4, 5, 8, 12, 13, 16, 20, 22, 24, 27, 29, 32, 33, 36, 37
40, 44, 46, 48, 51
*Nset, nset=secondary_outer
53, 54, 57, 58, 61, 65, 66, 69, 72, 74, 76, 79, 81, 84, 86, 88
91, 93, 97, 98, 101, 102, 105, 108, 110, 112, 115, 117, 119
*Nset, nset=secondary_contact_nodes
52, 55, 56, 59, 63, 64, 67, 71, 73, 75, 78, 80, 83, 85, 87, 90
92, 95, 96, 99, 100, 103, 107, 109, 111, 114, 116, 118, 121
*Elset, elset=SECONDARY_TOP_ELEMENTS
8, 9, 10
*Surface, type=ELEMENT, name=PRIMARY_CONTACT
PRIMARY, S4
*Surface, type=ELEMENT, name=SECONDARY_CONTACT
SECONDARY, S6
*Surface, type=ELEMENT, name=SECONDARY_TOP
SECONDARY_TOP_ELEMENTS, S2
*Material, name=PRIMARY_MATERIAL
*Elastic
1000000000, 0.25
*Material, name=SECONDARY_MATERIAL
*Elastic
1000000000, 0.25
*Solid Section, elset=PRIMARY, material=PRIMARY_MATERIAL
,
*Solid Section, elset=SECONDARY, material=SECONDARY_MATERIAL
,
*Surface Interaction, name=PENALTY_CONTACT
*Surface Behavior, pressure-overclosure=LINEAR
100000000000,
*Contact Pair, interaction=PENALTY_CONTACT, type=SURFACE TO SURFACE, small sliding, adjust=0.
SECONDARY_CONTACT, PRIMARY_CONTACT
*Step, name=LOAD, nlgeom=NO, inc=100
*Static
0.1, 1., 1.e-8, 0.1
*Boundary
primary_outer, 1, 3, 0.
secondary_outer, 1, 1, -1e-05
secondary_outer, 2, 2, -0
secondary_outer, 3, 3, 0.
*Output, field, frequency=1
*Node Output
COORD, RF, U
*Contact Output
CSTRESS, CDISP, CFORCE
*End Step
