*Heading
** Deformable curved contact crossing a primary edge boundary.
*Preprint,echo=NO,model=NO,history=NO,contact=NO
*Node
1,-0.029999999999999999,-0.01
2,0,-0.01
3,0,0
4,-0.029999999999999999,0
5,-0.014999999999999999,-0.01
6,0,-0.0050000000000000001
7,-0.014999999999999999,0
8,-0.029999999999999999,-0.0050000000000000001
9,0.029999999999999999,-0.01
10,0.029999999999999999,0
11,0.014999999999999999,-0.01
12,0.029999999999999999,-0.0050000000000000001
13,0.014999999999999999,0
14,-0.017999999999999999,0.00038799999999999994
15,-0.0060000000000000001,0.0001
16,-0.0060000000000000001,0.0101
17,-0.017999999999999999,0.010388
18,-0.012,0.00017200000000000001
19,-0.0060000000000000001,0.0051000000000000004
20,-0.012,0.010172
21,-0.017999999999999999,0.0053880000000000004
22,0.0060000000000000001,0.000388
23,0.0060000000000000001,0.010388
24,0,0.00017200000000000001
25,0.0060000000000000001,0.0053880000000000004
26,0,0.010172
101,0,0
102,0,0
*Element,type=CPEG8T,elset=lower
1,1,2,3,4,5,6,7,8
2,2,9,10,3,11,12,13,6
*Element,type=CPEG8T,elset=upper
3,14,15,16,17,18,19,20,21
4,15,22,23,16,24,25,26,19
*Nset,nset=bottom
1,2,5,9,11
*Nset,nset=top
16,17,20,23,26
*Nset,nset=lower
1,2,3,4,5,6,7,8,9,10,11,12,13
*Nset,nset=upper
14,15,16,17,18,19,20,21,22,23,24,25,26
*Nset,nset=field
1,2,3,4,5,6,7,8,9,10,11,12,13,14,15,16,17,18,19,20,21,22,23,24,25,26
*Nset,nset=CONTROLS
101,102
*Material,name=SOLID
*Elastic
1e6,.25
*Conductivity
10
*Density
1000
*Specific Heat
100
*Solid Section,elset=lower,material=SOLID,ref node=101
.1,0,0
*Solid Section,elset=upper,material=SOLID,ref node=102
.1,0,0
*Surface,name=PRIMARY,type=ELEMENT
lower,S3
*Surface,name=SECONDARY,type=ELEMENT
upper,S1
*Surface Interaction,name=INTERFACE
.1
*Surface Behavior,pressure-overclosure=LINEAR
1e9
*Gap Conductance
1000,0
1000,1
*Contact Pair,interaction=INTERFACE,type=SURFACE TO SURFACE
SECONDARY,PRIMARY
*Initial Conditions,type=TEMPERATURE
field,300

*Step,name=F1_C0,nlgeom=YES,inc=10
*Coupled Temperature-Displacement,steady state
1,1,1,1
*Boundary,op=NEW
CONTROLS,3,5,0
1,1,1,1.6989652648037276e-76
1,2,2,1.2898323267916723e-75
2,1,1,-1.0385869444394222e-70
2,2,2,8.950778500933535e-68
3,1,1,2.3136963025826135e-39
3,2,2,-7.8160094948587765e-37
4,1,1,2.103360275075106e-40
4,2,2,1.7047378005583107e-37
5,1,1,-4.2324138352734505e-76
5,2,2,-9.7016510591361007e-75
6,1,1,1.413575337677428e-68
6,2,2,-2.4945869090726189e-67
7,1,1,-2.5240323300901261e-39
7,2,2,-9.7566404647280134e-37
8,1,1,-2.2295567101923173e-75
8,2,2,-3.5669666128515755e-75
9,1,1,-6.1011882178069286e-76
9,2,2,3.7284402859273098e-75
10,1,1,-2.0332356563504851e-78
10,2,2,2.8188070331523591e-75
11,1,1,3.4877904274429479e-76
11,2,2,-1.169711910959591e-75
12,1,1,3.5052916963718508e-76
12,2,2,-6.286396546088425e-75
13,1,1,6.9616827883740694e-76
13,2,2,4.7359510644285893e-76
14,1,1,2.084476901429539e-06
14,2,2,-0.00012628086152214585
15,1,1,-8.1262952303949406e-21
15,2,2,-0.00011112045345869696
16,1,1,-7.4395905190367407e-38
16,2,2,-0.000125
17,1,1,3.6819095644262449e-44
17,2,2,-0.000125
18,1,1,5.8759435978651008e-07
18,2,2,-0.0001194630260103417
19,1,1,-3.1279718426498294e-21
19,2,2,-0.00011894187073151324
20,1,1,-6.937852862846115e-44
20,2,2,-0.000125
21,1,1,-1.9470571790564803e-06
21,2,2,-0.00012457441685602368
22,1,1,-2.0844769014295373e-06
22,2,2,-0.00012628086152214585
23,1,1,-3.6819095304457219e-44
23,2,2,-0.000125
24,1,1,-5.8759435978651283e-07
24,2,2,-0.0001194630260103417
25,1,1,1.9470571790564735e-06
25,2,2,-0.00012457441685602368
26,1,1,6.9378528211912222e-44
26,2,2,-0.000125
1,11,11,300
2,11,11,300
3,11,11,300
4,11,11,300
9,11,11,300
10,11,11,300
14,11,11,300
15,11,11,300
16,11,11,300
17,11,11,300
22,11,11,300
23,11,11,300
*Output,field,frequency=1
*Node Output
NT,U,RF,RFL
*End Step
*Step,name=F1_C1,nlgeom=YES,inc=10
*Coupled Temperature-Displacement,steady state
1,1,1,1
*Boundary,op=NEW
CONTROLS,3,5,0
1,1,1,1.6989652648037276e-76
1,2,2,1.2898323267916723e-75
2,1,1,-1.0385869444394222e-70
2,2,2,8.950778500933535e-68
3,1,1,2.3136963025826135e-39
3,2,2,-7.8160094948587765e-37
4,1,1,2.103360275075106e-40
4,2,2,1.7047378005583107e-37
5,1,1,-4.2324138352734505e-76
5,2,2,-9.7016510591361007e-75
6,1,1,1.413575337677428e-68
6,2,2,-2.4945869090726189e-67
7,1,1,-2.5240323300901261e-39
7,2,2,-9.7566404647280134e-37
8,1,1,-2.2295567101923173e-75
8,2,2,-3.5669666128515755e-75
9,1,1,-6.1011882178069286e-76
9,2,2,3.7284402859273098e-75
10,1,1,-2.0332356563504851e-78
10,2,2,2.8188070331523591e-75
11,1,1,3.4877904274429479e-76
11,2,2,-1.169711910959591e-75
12,1,1,3.5052916963718508e-76
12,2,2,-6.286396546088425e-75
13,1,1,6.9616827883740694e-76
13,2,2,4.7359510644285893e-76
14,1,1,2.084476901429539e-06
14,2,2,-0.00012628086152214585
15,1,1,-8.1262952303949406e-21
15,2,2,-0.00011112045345869696
16,1,1,-7.4395905190367407e-38
16,2,2,-0.000125
17,1,1,3.6819095644262449e-44
17,2,2,-0.000125
18,1,1,5.8759435978651008e-07
18,2,2,-0.0001194630260103417
19,1,1,-3.1279718426498294e-21
19,2,2,-0.00011894187073151324
20,1,1,-6.937852862846115e-44
20,2,2,-0.000125
21,1,1,-1.9470571790564803e-06
21,2,2,-0.00012457441685602368
22,1,1,-2.0844769014295373e-06
22,2,2,-0.00012628086152214585
23,1,1,-3.6819095304457219e-44
23,2,2,-0.000125
24,1,1,-5.8759435978651283e-07
24,2,2,-0.0001194630260103417
25,1,1,1.9470571790564735e-06
25,2,2,-0.00012457441685602368
26,1,1,6.9378528211912222e-44
26,2,2,-0.000125
1,11,11,301
2,11,11,300
3,11,11,300
4,11,11,300
9,11,11,300
10,11,11,300
14,11,11,300
15,11,11,300
16,11,11,300
17,11,11,300
22,11,11,300
23,11,11,300
*Output,field,frequency=1
*Node Output
NT,U,RF,RFL
*End Step
*Step,name=F1_C2,nlgeom=YES,inc=10
*Coupled Temperature-Displacement,steady state
1,1,1,1
*Boundary,op=NEW
CONTROLS,3,5,0
1,1,1,1.6989652648037276e-76
1,2,2,1.2898323267916723e-75
2,1,1,-1.0385869444394222e-70
2,2,2,8.950778500933535e-68
3,1,1,2.3136963025826135e-39
3,2,2,-7.8160094948587765e-37
4,1,1,2.103360275075106e-40
4,2,2,1.7047378005583107e-37
5,1,1,-4.2324138352734505e-76
5,2,2,-9.7016510591361007e-75
6,1,1,1.413575337677428e-68
6,2,2,-2.4945869090726189e-67
7,1,1,-2.5240323300901261e-39
7,2,2,-9.7566404647280134e-37
8,1,1,-2.2295567101923173e-75
8,2,2,-3.5669666128515755e-75
9,1,1,-6.1011882178069286e-76
9,2,2,3.7284402859273098e-75
10,1,1,-2.0332356563504851e-78
10,2,2,2.8188070331523591e-75
11,1,1,3.4877904274429479e-76
11,2,2,-1.169711910959591e-75
12,1,1,3.5052916963718508e-76
12,2,2,-6.286396546088425e-75
13,1,1,6.9616827883740694e-76
13,2,2,4.7359510644285893e-76
14,1,1,2.084476901429539e-06
14,2,2,-0.00012628086152214585
15,1,1,-8.1262952303949406e-21
15,2,2,-0.00011112045345869696
16,1,1,-7.4395905190367407e-38
16,2,2,-0.000125
17,1,1,3.6819095644262449e-44
17,2,2,-0.000125
18,1,1,5.8759435978651008e-07
18,2,2,-0.0001194630260103417
19,1,1,-3.1279718426498294e-21
19,2,2,-0.00011894187073151324
20,1,1,-6.937852862846115e-44
20,2,2,-0.000125
21,1,1,-1.9470571790564803e-06
21,2,2,-0.00012457441685602368
22,1,1,-2.0844769014295373e-06
22,2,2,-0.00012628086152214585
23,1,1,-3.6819095304457219e-44
23,2,2,-0.000125
24,1,1,-5.8759435978651283e-07
24,2,2,-0.0001194630260103417
25,1,1,1.9470571790564735e-06
25,2,2,-0.00012457441685602368
26,1,1,6.9378528211912222e-44
26,2,2,-0.000125
1,11,11,300
2,11,11,301
3,11,11,300
4,11,11,300
9,11,11,300
10,11,11,300
14,11,11,300
15,11,11,300
16,11,11,300
17,11,11,300
22,11,11,300
23,11,11,300
*Output,field,frequency=1
*Node Output
NT,U,RF,RFL
*End Step
*Step,name=F1_C3,nlgeom=YES,inc=10
*Coupled Temperature-Displacement,steady state
1,1,1,1
*Boundary,op=NEW
CONTROLS,3,5,0
1,1,1,1.6989652648037276e-76
1,2,2,1.2898323267916723e-75
2,1,1,-1.0385869444394222e-70
2,2,2,8.950778500933535e-68
3,1,1,2.3136963025826135e-39
3,2,2,-7.8160094948587765e-37
4,1,1,2.103360275075106e-40
4,2,2,1.7047378005583107e-37
5,1,1,-4.2324138352734505e-76
5,2,2,-9.7016510591361007e-75
6,1,1,1.413575337677428e-68
6,2,2,-2.4945869090726189e-67
7,1,1,-2.5240323300901261e-39
7,2,2,-9.7566404647280134e-37
8,1,1,-2.2295567101923173e-75
8,2,2,-3.5669666128515755e-75
9,1,1,-6.1011882178069286e-76
9,2,2,3.7284402859273098e-75
10,1,1,-2.0332356563504851e-78
10,2,2,2.8188070331523591e-75
11,1,1,3.4877904274429479e-76
11,2,2,-1.169711910959591e-75
12,1,1,3.5052916963718508e-76
12,2,2,-6.286396546088425e-75
13,1,1,6.9616827883740694e-76
13,2,2,4.7359510644285893e-76
14,1,1,2.084476901429539e-06
14,2,2,-0.00012628086152214585
15,1,1,-8.1262952303949406e-21
15,2,2,-0.00011112045345869696
16,1,1,-7.4395905190367407e-38
16,2,2,-0.000125
17,1,1,3.6819095644262449e-44
17,2,2,-0.000125
18,1,1,5.8759435978651008e-07
18,2,2,-0.0001194630260103417
19,1,1,-3.1279718426498294e-21
19,2,2,-0.00011894187073151324
20,1,1,-6.937852862846115e-44
20,2,2,-0.000125
21,1,1,-1.9470571790564803e-06
21,2,2,-0.00012457441685602368
22,1,1,-2.0844769014295373e-06
22,2,2,-0.00012628086152214585
23,1,1,-3.6819095304457219e-44
23,2,2,-0.000125
24,1,1,-5.8759435978651283e-07
24,2,2,-0.0001194630260103417
25,1,1,1.9470571790564735e-06
25,2,2,-0.00012457441685602368
26,1,1,6.9378528211912222e-44
26,2,2,-0.000125
1,11,11,300
2,11,11,300
3,11,11,301
4,11,11,300
9,11,11,300
10,11,11,300
14,11,11,300
15,11,11,300
16,11,11,300
17,11,11,300
22,11,11,300
23,11,11,300
*Output,field,frequency=1
*Node Output
NT,U,RF,RFL
*End Step
*Step,name=F1_C4,nlgeom=YES,inc=10
*Coupled Temperature-Displacement,steady state
1,1,1,1
*Boundary,op=NEW
CONTROLS,3,5,0
1,1,1,1.6989652648037276e-76
1,2,2,1.2898323267916723e-75
2,1,1,-1.0385869444394222e-70
2,2,2,8.950778500933535e-68
3,1,1,2.3136963025826135e-39
3,2,2,-7.8160094948587765e-37
4,1,1,2.103360275075106e-40
4,2,2,1.7047378005583107e-37
5,1,1,-4.2324138352734505e-76
5,2,2,-9.7016510591361007e-75
6,1,1,1.413575337677428e-68
6,2,2,-2.4945869090726189e-67
7,1,1,-2.5240323300901261e-39
7,2,2,-9.7566404647280134e-37
8,1,1,-2.2295567101923173e-75
8,2,2,-3.5669666128515755e-75
9,1,1,-6.1011882178069286e-76
9,2,2,3.7284402859273098e-75
10,1,1,-2.0332356563504851e-78
10,2,2,2.8188070331523591e-75
11,1,1,3.4877904274429479e-76
11,2,2,-1.169711910959591e-75
12,1,1,3.5052916963718508e-76
12,2,2,-6.286396546088425e-75
13,1,1,6.9616827883740694e-76
13,2,2,4.7359510644285893e-76
14,1,1,2.084476901429539e-06
14,2,2,-0.00012628086152214585
15,1,1,-8.1262952303949406e-21
15,2,2,-0.00011112045345869696
16,1,1,-7.4395905190367407e-38
16,2,2,-0.000125
17,1,1,3.6819095644262449e-44
17,2,2,-0.000125
18,1,1,5.8759435978651008e-07
18,2,2,-0.0001194630260103417
19,1,1,-3.1279718426498294e-21
19,2,2,-0.00011894187073151324
20,1,1,-6.937852862846115e-44
20,2,2,-0.000125
21,1,1,-1.9470571790564803e-06
21,2,2,-0.00012457441685602368
22,1,1,-2.0844769014295373e-06
22,2,2,-0.00012628086152214585
23,1,1,-3.6819095304457219e-44
23,2,2,-0.000125
24,1,1,-5.8759435978651283e-07
24,2,2,-0.0001194630260103417
25,1,1,1.9470571790564735e-06
25,2,2,-0.00012457441685602368
26,1,1,6.9378528211912222e-44
26,2,2,-0.000125
1,11,11,300
2,11,11,300
3,11,11,300
4,11,11,301
9,11,11,300
10,11,11,300
14,11,11,300
15,11,11,300
16,11,11,300
17,11,11,300
22,11,11,300
23,11,11,300
*Output,field,frequency=1
*Node Output
NT,U,RF,RFL
*End Step
*Step,name=F1_C5,nlgeom=YES,inc=10
*Coupled Temperature-Displacement,steady state
1,1,1,1
*Boundary,op=NEW
CONTROLS,3,5,0
1,1,1,1.6989652648037276e-76
1,2,2,1.2898323267916723e-75
2,1,1,-1.0385869444394222e-70
2,2,2,8.950778500933535e-68
3,1,1,2.3136963025826135e-39
3,2,2,-7.8160094948587765e-37
4,1,1,2.103360275075106e-40
4,2,2,1.7047378005583107e-37
5,1,1,-4.2324138352734505e-76
5,2,2,-9.7016510591361007e-75
6,1,1,1.413575337677428e-68
6,2,2,-2.4945869090726189e-67
7,1,1,-2.5240323300901261e-39
7,2,2,-9.7566404647280134e-37
8,1,1,-2.2295567101923173e-75
8,2,2,-3.5669666128515755e-75
9,1,1,-6.1011882178069286e-76
9,2,2,3.7284402859273098e-75
10,1,1,-2.0332356563504851e-78
10,2,2,2.8188070331523591e-75
11,1,1,3.4877904274429479e-76
11,2,2,-1.169711910959591e-75
12,1,1,3.5052916963718508e-76
12,2,2,-6.286396546088425e-75
13,1,1,6.9616827883740694e-76
13,2,2,4.7359510644285893e-76
14,1,1,2.084476901429539e-06
14,2,2,-0.00012628086152214585
15,1,1,-8.1262952303949406e-21
15,2,2,-0.00011112045345869696
16,1,1,-7.4395905190367407e-38
16,2,2,-0.000125
17,1,1,3.6819095644262449e-44
17,2,2,-0.000125
18,1,1,5.8759435978651008e-07
18,2,2,-0.0001194630260103417
19,1,1,-3.1279718426498294e-21
19,2,2,-0.00011894187073151324
20,1,1,-6.937852862846115e-44
20,2,2,-0.000125
21,1,1,-1.9470571790564803e-06
21,2,2,-0.00012457441685602368
22,1,1,-2.0844769014295373e-06
22,2,2,-0.00012628086152214585
23,1,1,-3.6819095304457219e-44
23,2,2,-0.000125
24,1,1,-5.8759435978651283e-07
24,2,2,-0.0001194630260103417
25,1,1,1.9470571790564735e-06
25,2,2,-0.00012457441685602368
26,1,1,6.9378528211912222e-44
26,2,2,-0.000125
1,11,11,300
2,11,11,300
3,11,11,300
4,11,11,300
9,11,11,301
10,11,11,300
14,11,11,300
15,11,11,300
16,11,11,300
17,11,11,300
22,11,11,300
23,11,11,300
*Output,field,frequency=1
*Node Output
NT,U,RF,RFL
*End Step
*Step,name=F1_C6,nlgeom=YES,inc=10
*Coupled Temperature-Displacement,steady state
1,1,1,1
*Boundary,op=NEW
CONTROLS,3,5,0
1,1,1,1.6989652648037276e-76
1,2,2,1.2898323267916723e-75
2,1,1,-1.0385869444394222e-70
2,2,2,8.950778500933535e-68
3,1,1,2.3136963025826135e-39
3,2,2,-7.8160094948587765e-37
4,1,1,2.103360275075106e-40
4,2,2,1.7047378005583107e-37
5,1,1,-4.2324138352734505e-76
5,2,2,-9.7016510591361007e-75
6,1,1,1.413575337677428e-68
6,2,2,-2.4945869090726189e-67
7,1,1,-2.5240323300901261e-39
7,2,2,-9.7566404647280134e-37
8,1,1,-2.2295567101923173e-75
8,2,2,-3.5669666128515755e-75
9,1,1,-6.1011882178069286e-76
9,2,2,3.7284402859273098e-75
10,1,1,-2.0332356563504851e-78
10,2,2,2.8188070331523591e-75
11,1,1,3.4877904274429479e-76
11,2,2,-1.169711910959591e-75
12,1,1,3.5052916963718508e-76
12,2,2,-6.286396546088425e-75
13,1,1,6.9616827883740694e-76
13,2,2,4.7359510644285893e-76
14,1,1,2.084476901429539e-06
14,2,2,-0.00012628086152214585
15,1,1,-8.1262952303949406e-21
15,2,2,-0.00011112045345869696
16,1,1,-7.4395905190367407e-38
16,2,2,-0.000125
17,1,1,3.6819095644262449e-44
17,2,2,-0.000125
18,1,1,5.8759435978651008e-07
18,2,2,-0.0001194630260103417
19,1,1,-3.1279718426498294e-21
19,2,2,-0.00011894187073151324
20,1,1,-6.937852862846115e-44
20,2,2,-0.000125
21,1,1,-1.9470571790564803e-06
21,2,2,-0.00012457441685602368
22,1,1,-2.0844769014295373e-06
22,2,2,-0.00012628086152214585
23,1,1,-3.6819095304457219e-44
23,2,2,-0.000125
24,1,1,-5.8759435978651283e-07
24,2,2,-0.0001194630260103417
25,1,1,1.9470571790564735e-06
25,2,2,-0.00012457441685602368
26,1,1,6.9378528211912222e-44
26,2,2,-0.000125
1,11,11,300
2,11,11,300
3,11,11,300
4,11,11,300
9,11,11,300
10,11,11,301
14,11,11,300
15,11,11,300
16,11,11,300
17,11,11,300
22,11,11,300
23,11,11,300
*Output,field,frequency=1
*Node Output
NT,U,RF,RFL
*End Step
*Step,name=F1_C7,nlgeom=YES,inc=10
*Coupled Temperature-Displacement,steady state
1,1,1,1
*Boundary,op=NEW
CONTROLS,3,5,0
1,1,1,1.6989652648037276e-76
1,2,2,1.2898323267916723e-75
2,1,1,-1.0385869444394222e-70
2,2,2,8.950778500933535e-68
3,1,1,2.3136963025826135e-39
3,2,2,-7.8160094948587765e-37
4,1,1,2.103360275075106e-40
4,2,2,1.7047378005583107e-37
5,1,1,-4.2324138352734505e-76
5,2,2,-9.7016510591361007e-75
6,1,1,1.413575337677428e-68
6,2,2,-2.4945869090726189e-67
7,1,1,-2.5240323300901261e-39
7,2,2,-9.7566404647280134e-37
8,1,1,-2.2295567101923173e-75
8,2,2,-3.5669666128515755e-75
9,1,1,-6.1011882178069286e-76
9,2,2,3.7284402859273098e-75
10,1,1,-2.0332356563504851e-78
10,2,2,2.8188070331523591e-75
11,1,1,3.4877904274429479e-76
11,2,2,-1.169711910959591e-75
12,1,1,3.5052916963718508e-76
12,2,2,-6.286396546088425e-75
13,1,1,6.9616827883740694e-76
13,2,2,4.7359510644285893e-76
14,1,1,2.084476901429539e-06
14,2,2,-0.00012628086152214585
15,1,1,-8.1262952303949406e-21
15,2,2,-0.00011112045345869696
16,1,1,-7.4395905190367407e-38
16,2,2,-0.000125
17,1,1,3.6819095644262449e-44
17,2,2,-0.000125
18,1,1,5.8759435978651008e-07
18,2,2,-0.0001194630260103417
19,1,1,-3.1279718426498294e-21
19,2,2,-0.00011894187073151324
20,1,1,-6.937852862846115e-44
20,2,2,-0.000125
21,1,1,-1.9470571790564803e-06
21,2,2,-0.00012457441685602368
22,1,1,-2.0844769014295373e-06
22,2,2,-0.00012628086152214585
23,1,1,-3.6819095304457219e-44
23,2,2,-0.000125
24,1,1,-5.8759435978651283e-07
24,2,2,-0.0001194630260103417
25,1,1,1.9470571790564735e-06
25,2,2,-0.00012457441685602368
26,1,1,6.9378528211912222e-44
26,2,2,-0.000125
1,11,11,300
2,11,11,300
3,11,11,300
4,11,11,300
9,11,11,300
10,11,11,300
14,11,11,301
15,11,11,300
16,11,11,300
17,11,11,300
22,11,11,300
23,11,11,300
*Output,field,frequency=1
*Node Output
NT,U,RF,RFL
*End Step
*Step,name=F1_C8,nlgeom=YES,inc=10
*Coupled Temperature-Displacement,steady state
1,1,1,1
*Boundary,op=NEW
CONTROLS,3,5,0
1,1,1,1.6989652648037276e-76
1,2,2,1.2898323267916723e-75
2,1,1,-1.0385869444394222e-70
2,2,2,8.950778500933535e-68
3,1,1,2.3136963025826135e-39
3,2,2,-7.8160094948587765e-37
4,1,1,2.103360275075106e-40
4,2,2,1.7047378005583107e-37
5,1,1,-4.2324138352734505e-76
5,2,2,-9.7016510591361007e-75
6,1,1,1.413575337677428e-68
6,2,2,-2.4945869090726189e-67
7,1,1,-2.5240323300901261e-39
7,2,2,-9.7566404647280134e-37
8,1,1,-2.2295567101923173e-75
8,2,2,-3.5669666128515755e-75
9,1,1,-6.1011882178069286e-76
9,2,2,3.7284402859273098e-75
10,1,1,-2.0332356563504851e-78
10,2,2,2.8188070331523591e-75
11,1,1,3.4877904274429479e-76
11,2,2,-1.169711910959591e-75
12,1,1,3.5052916963718508e-76
12,2,2,-6.286396546088425e-75
13,1,1,6.9616827883740694e-76
13,2,2,4.7359510644285893e-76
14,1,1,2.084476901429539e-06
14,2,2,-0.00012628086152214585
15,1,1,-8.1262952303949406e-21
15,2,2,-0.00011112045345869696
16,1,1,-7.4395905190367407e-38
16,2,2,-0.000125
17,1,1,3.6819095644262449e-44
17,2,2,-0.000125
18,1,1,5.8759435978651008e-07
18,2,2,-0.0001194630260103417
19,1,1,-3.1279718426498294e-21
19,2,2,-0.00011894187073151324
20,1,1,-6.937852862846115e-44
20,2,2,-0.000125
21,1,1,-1.9470571790564803e-06
21,2,2,-0.00012457441685602368
22,1,1,-2.0844769014295373e-06
22,2,2,-0.00012628086152214585
23,1,1,-3.6819095304457219e-44
23,2,2,-0.000125
24,1,1,-5.8759435978651283e-07
24,2,2,-0.0001194630260103417
25,1,1,1.9470571790564735e-06
25,2,2,-0.00012457441685602368
26,1,1,6.9378528211912222e-44
26,2,2,-0.000125
1,11,11,300
2,11,11,300
3,11,11,300
4,11,11,300
9,11,11,300
10,11,11,300
14,11,11,300
15,11,11,301
16,11,11,300
17,11,11,300
22,11,11,300
23,11,11,300
*Output,field,frequency=1
*Node Output
NT,U,RF,RFL
*End Step
*Step,name=F1_C9,nlgeom=YES,inc=10
*Coupled Temperature-Displacement,steady state
1,1,1,1
*Boundary,op=NEW
CONTROLS,3,5,0
1,1,1,1.6989652648037276e-76
1,2,2,1.2898323267916723e-75
2,1,1,-1.0385869444394222e-70
2,2,2,8.950778500933535e-68
3,1,1,2.3136963025826135e-39
3,2,2,-7.8160094948587765e-37
4,1,1,2.103360275075106e-40
4,2,2,1.7047378005583107e-37
5,1,1,-4.2324138352734505e-76
5,2,2,-9.7016510591361007e-75
6,1,1,1.413575337677428e-68
6,2,2,-2.4945869090726189e-67
7,1,1,-2.5240323300901261e-39
7,2,2,-9.7566404647280134e-37
8,1,1,-2.2295567101923173e-75
8,2,2,-3.5669666128515755e-75
9,1,1,-6.1011882178069286e-76
9,2,2,3.7284402859273098e-75
10,1,1,-2.0332356563504851e-78
10,2,2,2.8188070331523591e-75
11,1,1,3.4877904274429479e-76
11,2,2,-1.169711910959591e-75
12,1,1,3.5052916963718508e-76
12,2,2,-6.286396546088425e-75
13,1,1,6.9616827883740694e-76
13,2,2,4.7359510644285893e-76
14,1,1,2.084476901429539e-06
14,2,2,-0.00012628086152214585
15,1,1,-8.1262952303949406e-21
15,2,2,-0.00011112045345869696
16,1,1,-7.4395905190367407e-38
16,2,2,-0.000125
17,1,1,3.6819095644262449e-44
17,2,2,-0.000125
18,1,1,5.8759435978651008e-07
18,2,2,-0.0001194630260103417
19,1,1,-3.1279718426498294e-21
19,2,2,-0.00011894187073151324
20,1,1,-6.937852862846115e-44
20,2,2,-0.000125
21,1,1,-1.9470571790564803e-06
21,2,2,-0.00012457441685602368
22,1,1,-2.0844769014295373e-06
22,2,2,-0.00012628086152214585
23,1,1,-3.6819095304457219e-44
23,2,2,-0.000125
24,1,1,-5.8759435978651283e-07
24,2,2,-0.0001194630260103417
25,1,1,1.9470571790564735e-06
25,2,2,-0.00012457441685602368
26,1,1,6.9378528211912222e-44
26,2,2,-0.000125
1,11,11,300
2,11,11,300
3,11,11,300
4,11,11,300
9,11,11,300
10,11,11,300
14,11,11,300
15,11,11,300
16,11,11,301
17,11,11,300
22,11,11,300
23,11,11,300
*Output,field,frequency=1
*Node Output
NT,U,RF,RFL
*End Step
*Step,name=F1_C10,nlgeom=YES,inc=10
*Coupled Temperature-Displacement,steady state
1,1,1,1
*Boundary,op=NEW
CONTROLS,3,5,0
1,1,1,1.6989652648037276e-76
1,2,2,1.2898323267916723e-75
2,1,1,-1.0385869444394222e-70
2,2,2,8.950778500933535e-68
3,1,1,2.3136963025826135e-39
3,2,2,-7.8160094948587765e-37
4,1,1,2.103360275075106e-40
4,2,2,1.7047378005583107e-37
5,1,1,-4.2324138352734505e-76
5,2,2,-9.7016510591361007e-75
6,1,1,1.413575337677428e-68
6,2,2,-2.4945869090726189e-67
7,1,1,-2.5240323300901261e-39
7,2,2,-9.7566404647280134e-37
8,1,1,-2.2295567101923173e-75
8,2,2,-3.5669666128515755e-75
9,1,1,-6.1011882178069286e-76
9,2,2,3.7284402859273098e-75
10,1,1,-2.0332356563504851e-78
10,2,2,2.8188070331523591e-75
11,1,1,3.4877904274429479e-76
11,2,2,-1.169711910959591e-75
12,1,1,3.5052916963718508e-76
12,2,2,-6.286396546088425e-75
13,1,1,6.9616827883740694e-76
13,2,2,4.7359510644285893e-76
14,1,1,2.084476901429539e-06
14,2,2,-0.00012628086152214585
15,1,1,-8.1262952303949406e-21
15,2,2,-0.00011112045345869696
16,1,1,-7.4395905190367407e-38
16,2,2,-0.000125
17,1,1,3.6819095644262449e-44
17,2,2,-0.000125
18,1,1,5.8759435978651008e-07
18,2,2,-0.0001194630260103417
19,1,1,-3.1279718426498294e-21
19,2,2,-0.00011894187073151324
20,1,1,-6.937852862846115e-44
20,2,2,-0.000125
21,1,1,-1.9470571790564803e-06
21,2,2,-0.00012457441685602368
22,1,1,-2.0844769014295373e-06
22,2,2,-0.00012628086152214585
23,1,1,-3.6819095304457219e-44
23,2,2,-0.000125
24,1,1,-5.8759435978651283e-07
24,2,2,-0.0001194630260103417
25,1,1,1.9470571790564735e-06
25,2,2,-0.00012457441685602368
26,1,1,6.9378528211912222e-44
26,2,2,-0.000125
1,11,11,300
2,11,11,300
3,11,11,300
4,11,11,300
9,11,11,300
10,11,11,300
14,11,11,300
15,11,11,300
16,11,11,300
17,11,11,301
22,11,11,300
23,11,11,300
*Output,field,frequency=1
*Node Output
NT,U,RF,RFL
*End Step
*Step,name=F1_C11,nlgeom=YES,inc=10
*Coupled Temperature-Displacement,steady state
1,1,1,1
*Boundary,op=NEW
CONTROLS,3,5,0
1,1,1,1.6989652648037276e-76
1,2,2,1.2898323267916723e-75
2,1,1,-1.0385869444394222e-70
2,2,2,8.950778500933535e-68
3,1,1,2.3136963025826135e-39
3,2,2,-7.8160094948587765e-37
4,1,1,2.103360275075106e-40
4,2,2,1.7047378005583107e-37
5,1,1,-4.2324138352734505e-76
5,2,2,-9.7016510591361007e-75
6,1,1,1.413575337677428e-68
6,2,2,-2.4945869090726189e-67
7,1,1,-2.5240323300901261e-39
7,2,2,-9.7566404647280134e-37
8,1,1,-2.2295567101923173e-75
8,2,2,-3.5669666128515755e-75
9,1,1,-6.1011882178069286e-76
9,2,2,3.7284402859273098e-75
10,1,1,-2.0332356563504851e-78
10,2,2,2.8188070331523591e-75
11,1,1,3.4877904274429479e-76
11,2,2,-1.169711910959591e-75
12,1,1,3.5052916963718508e-76
12,2,2,-6.286396546088425e-75
13,1,1,6.9616827883740694e-76
13,2,2,4.7359510644285893e-76
14,1,1,2.084476901429539e-06
14,2,2,-0.00012628086152214585
15,1,1,-8.1262952303949406e-21
15,2,2,-0.00011112045345869696
16,1,1,-7.4395905190367407e-38
16,2,2,-0.000125
17,1,1,3.6819095644262449e-44
17,2,2,-0.000125
18,1,1,5.8759435978651008e-07
18,2,2,-0.0001194630260103417
19,1,1,-3.1279718426498294e-21
19,2,2,-0.00011894187073151324
20,1,1,-6.937852862846115e-44
20,2,2,-0.000125
21,1,1,-1.9470571790564803e-06
21,2,2,-0.00012457441685602368
22,1,1,-2.0844769014295373e-06
22,2,2,-0.00012628086152214585
23,1,1,-3.6819095304457219e-44
23,2,2,-0.000125
24,1,1,-5.8759435978651283e-07
24,2,2,-0.0001194630260103417
25,1,1,1.9470571790564735e-06
25,2,2,-0.00012457441685602368
26,1,1,6.9378528211912222e-44
26,2,2,-0.000125
1,11,11,300
2,11,11,300
3,11,11,300
4,11,11,300
9,11,11,300
10,11,11,300
14,11,11,300
15,11,11,300
16,11,11,300
17,11,11,300
22,11,11,301
23,11,11,300
*Output,field,frequency=1
*Node Output
NT,U,RF,RFL
*End Step
*Step,name=F1_C12,nlgeom=YES,inc=10
*Coupled Temperature-Displacement,steady state
1,1,1,1
*Boundary,op=NEW
CONTROLS,3,5,0
1,1,1,1.6989652648037276e-76
1,2,2,1.2898323267916723e-75
2,1,1,-1.0385869444394222e-70
2,2,2,8.950778500933535e-68
3,1,1,2.3136963025826135e-39
3,2,2,-7.8160094948587765e-37
4,1,1,2.103360275075106e-40
4,2,2,1.7047378005583107e-37
5,1,1,-4.2324138352734505e-76
5,2,2,-9.7016510591361007e-75
6,1,1,1.413575337677428e-68
6,2,2,-2.4945869090726189e-67
7,1,1,-2.5240323300901261e-39
7,2,2,-9.7566404647280134e-37
8,1,1,-2.2295567101923173e-75
8,2,2,-3.5669666128515755e-75
9,1,1,-6.1011882178069286e-76
9,2,2,3.7284402859273098e-75
10,1,1,-2.0332356563504851e-78
10,2,2,2.8188070331523591e-75
11,1,1,3.4877904274429479e-76
11,2,2,-1.169711910959591e-75
12,1,1,3.5052916963718508e-76
12,2,2,-6.286396546088425e-75
13,1,1,6.9616827883740694e-76
13,2,2,4.7359510644285893e-76
14,1,1,2.084476901429539e-06
14,2,2,-0.00012628086152214585
15,1,1,-8.1262952303949406e-21
15,2,2,-0.00011112045345869696
16,1,1,-7.4395905190367407e-38
16,2,2,-0.000125
17,1,1,3.6819095644262449e-44
17,2,2,-0.000125
18,1,1,5.8759435978651008e-07
18,2,2,-0.0001194630260103417
19,1,1,-3.1279718426498294e-21
19,2,2,-0.00011894187073151324
20,1,1,-6.937852862846115e-44
20,2,2,-0.000125
21,1,1,-1.9470571790564803e-06
21,2,2,-0.00012457441685602368
22,1,1,-2.0844769014295373e-06
22,2,2,-0.00012628086152214585
23,1,1,-3.6819095304457219e-44
23,2,2,-0.000125
24,1,1,-5.8759435978651283e-07
24,2,2,-0.0001194630260103417
25,1,1,1.9470571790564735e-06
25,2,2,-0.00012457441685602368
26,1,1,6.9378528211912222e-44
26,2,2,-0.000125
1,11,11,300
2,11,11,300
3,11,11,300
4,11,11,300
9,11,11,300
10,11,11,300
14,11,11,300
15,11,11,300
16,11,11,300
17,11,11,300
22,11,11,300
23,11,11,301
*Output,field,frequency=1
*Node Output
NT,U,RF,RFL
*End Step
*Step,name=F13_C0,nlgeom=YES,inc=10
*Coupled Temperature-Displacement,steady state
1,1,1,1
*Boundary,op=NEW
CONTROLS,3,5,0
1,1,1,2.9930564636509486e-74
1,2,2,1.8457710231614108e-73
2,1,1,-7.4570836282166562e-67
2,2,2,7.2948549310439207e-66
3,1,1,-1.3931291598786326e-37
3,2,2,-8.9665464695319852e-35
4,1,1,5.3728128175470044e-38
4,2,2,5.060601092765452e-36
5,1,1,1.6722300981634099e-74
5,2,2,1.2025541063292564e-72
6,1,1,-8.0492811756906827e-67
6,2,2,-2.7076589850753453e-65
7,1,1,-3.00610343640672e-37
7,2,2,-2.6420431165016581e-35
8,1,1,2.7038076515404676e-73
8,2,2,-1.3275048691187121e-73
9,1,1,-3.8358870064157502e-74
9,2,2,1.3302470468638741e-73
10,1,1,-2.6445235775828702e-38
10,2,2,9.4459142684375507e-36
11,1,1,-1.1076789852264543e-74
11,2,2,1.4698278942892207e-72
12,1,1,-3.069813254936777e-73
12,2,2,1.1869095220872168e-73
13,1,1,4.1264036722889325e-37
13,2,2,-6.9383667020234328e-35
14,1,1,0.0088607092140289348
14,2,2,-0.00039532628538101205
15,1,1,0.0089999999999999993
15,2,2,-0.00017322835970732921
16,1,1,0.0089999999999999993
16,2,2,-0.00087500000000000002
17,1,1,0.0089999999999999993
17,2,2,-0.00087500000000000002
18,1,1,0.0089323848046820239
18,2,2,-0.00025749561434340964
19,1,1,0.0089999999999999993
19,2,2,-0.00055126460522036708
20,1,1,0.0089999999999999993
20,2,2,-0.00087500000000000002
21,1,1,0.0088180605509496236
21,2,2,-0.00061406043167040541
22,1,1,0.0091392907859710638
22,2,2,-0.00039532628538101238
23,1,1,0.0089999999999999993
23,2,2,-0.00087500000000000002
24,1,1,0.0090676151953179764
24,2,2,-0.00025749561434340959
25,1,1,0.0091819394490503768
25,2,2,-0.00061406043167040552
26,1,1,0.0089999999999999993
26,2,2,-0.00087500000000000002
1,11,11,300
2,11,11,300
3,11,11,300
4,11,11,300
9,11,11,300
10,11,11,300
14,11,11,300
15,11,11,300
16,11,11,300
17,11,11,300
22,11,11,300
23,11,11,300
*Output,field,frequency=1
*Node Output
NT,U,RF,RFL
*End Step
*Step,name=F13_C1,nlgeom=YES,inc=10
*Coupled Temperature-Displacement,steady state
1,1,1,1
*Boundary,op=NEW
CONTROLS,3,5,0
1,1,1,2.9930564636509486e-74
1,2,2,1.8457710231614108e-73
2,1,1,-7.4570836282166562e-67
2,2,2,7.2948549310439207e-66
3,1,1,-1.3931291598786326e-37
3,2,2,-8.9665464695319852e-35
4,1,1,5.3728128175470044e-38
4,2,2,5.060601092765452e-36
5,1,1,1.6722300981634099e-74
5,2,2,1.2025541063292564e-72
6,1,1,-8.0492811756906827e-67
6,2,2,-2.7076589850753453e-65
7,1,1,-3.00610343640672e-37
7,2,2,-2.6420431165016581e-35
8,1,1,2.7038076515404676e-73
8,2,2,-1.3275048691187121e-73
9,1,1,-3.8358870064157502e-74
9,2,2,1.3302470468638741e-73
10,1,1,-2.6445235775828702e-38
10,2,2,9.4459142684375507e-36
11,1,1,-1.1076789852264543e-74
11,2,2,1.4698278942892207e-72
12,1,1,-3.069813254936777e-73
12,2,2,1.1869095220872168e-73
13,1,1,4.1264036722889325e-37
13,2,2,-6.9383667020234328e-35
14,1,1,0.0088607092140289348
14,2,2,-0.00039532628538101205
15,1,1,0.0089999999999999993
15,2,2,-0.00017322835970732921
16,1,1,0.0089999999999999993
16,2,2,-0.00087500000000000002
17,1,1,0.0089999999999999993
17,2,2,-0.00087500000000000002
18,1,1,0.0089323848046820239
18,2,2,-0.00025749561434340964
19,1,1,0.0089999999999999993
19,2,2,-0.00055126460522036708
20,1,1,0.0089999999999999993
20,2,2,-0.00087500000000000002
21,1,1,0.0088180605509496236
21,2,2,-0.00061406043167040541
22,1,1,0.0091392907859710638
22,2,2,-0.00039532628538101238
23,1,1,0.0089999999999999993
23,2,2,-0.00087500000000000002
24,1,1,0.0090676151953179764
24,2,2,-0.00025749561434340959
25,1,1,0.0091819394490503768
25,2,2,-0.00061406043167040552
26,1,1,0.0089999999999999993
26,2,2,-0.00087500000000000002
1,11,11,301
2,11,11,300
3,11,11,300
4,11,11,300
9,11,11,300
10,11,11,300
14,11,11,300
15,11,11,300
16,11,11,300
17,11,11,300
22,11,11,300
23,11,11,300
*Output,field,frequency=1
*Node Output
NT,U,RF,RFL
*End Step
*Step,name=F13_C2,nlgeom=YES,inc=10
*Coupled Temperature-Displacement,steady state
1,1,1,1
*Boundary,op=NEW
CONTROLS,3,5,0
1,1,1,2.9930564636509486e-74
1,2,2,1.8457710231614108e-73
2,1,1,-7.4570836282166562e-67
2,2,2,7.2948549310439207e-66
3,1,1,-1.3931291598786326e-37
3,2,2,-8.9665464695319852e-35
4,1,1,5.3728128175470044e-38
4,2,2,5.060601092765452e-36
5,1,1,1.6722300981634099e-74
5,2,2,1.2025541063292564e-72
6,1,1,-8.0492811756906827e-67
6,2,2,-2.7076589850753453e-65
7,1,1,-3.00610343640672e-37
7,2,2,-2.6420431165016581e-35
8,1,1,2.7038076515404676e-73
8,2,2,-1.3275048691187121e-73
9,1,1,-3.8358870064157502e-74
9,2,2,1.3302470468638741e-73
10,1,1,-2.6445235775828702e-38
10,2,2,9.4459142684375507e-36
11,1,1,-1.1076789852264543e-74
11,2,2,1.4698278942892207e-72
12,1,1,-3.069813254936777e-73
12,2,2,1.1869095220872168e-73
13,1,1,4.1264036722889325e-37
13,2,2,-6.9383667020234328e-35
14,1,1,0.0088607092140289348
14,2,2,-0.00039532628538101205
15,1,1,0.0089999999999999993
15,2,2,-0.00017322835970732921
16,1,1,0.0089999999999999993
16,2,2,-0.00087500000000000002
17,1,1,0.0089999999999999993
17,2,2,-0.00087500000000000002
18,1,1,0.0089323848046820239
18,2,2,-0.00025749561434340964
19,1,1,0.0089999999999999993
19,2,2,-0.00055126460522036708
20,1,1,0.0089999999999999993
20,2,2,-0.00087500000000000002
21,1,1,0.0088180605509496236
21,2,2,-0.00061406043167040541
22,1,1,0.0091392907859710638
22,2,2,-0.00039532628538101238
23,1,1,0.0089999999999999993
23,2,2,-0.00087500000000000002
24,1,1,0.0090676151953179764
24,2,2,-0.00025749561434340959
25,1,1,0.0091819394490503768
25,2,2,-0.00061406043167040552
26,1,1,0.0089999999999999993
26,2,2,-0.00087500000000000002
1,11,11,300
2,11,11,301
3,11,11,300
4,11,11,300
9,11,11,300
10,11,11,300
14,11,11,300
15,11,11,300
16,11,11,300
17,11,11,300
22,11,11,300
23,11,11,300
*Output,field,frequency=1
*Node Output
NT,U,RF,RFL
*End Step
*Step,name=F13_C3,nlgeom=YES,inc=10
*Coupled Temperature-Displacement,steady state
1,1,1,1
*Boundary,op=NEW
CONTROLS,3,5,0
1,1,1,2.9930564636509486e-74
1,2,2,1.8457710231614108e-73
2,1,1,-7.4570836282166562e-67
2,2,2,7.2948549310439207e-66
3,1,1,-1.3931291598786326e-37
3,2,2,-8.9665464695319852e-35
4,1,1,5.3728128175470044e-38
4,2,2,5.060601092765452e-36
5,1,1,1.6722300981634099e-74
5,2,2,1.2025541063292564e-72
6,1,1,-8.0492811756906827e-67
6,2,2,-2.7076589850753453e-65
7,1,1,-3.00610343640672e-37
7,2,2,-2.6420431165016581e-35
8,1,1,2.7038076515404676e-73
8,2,2,-1.3275048691187121e-73
9,1,1,-3.8358870064157502e-74
9,2,2,1.3302470468638741e-73
10,1,1,-2.6445235775828702e-38
10,2,2,9.4459142684375507e-36
11,1,1,-1.1076789852264543e-74
11,2,2,1.4698278942892207e-72
12,1,1,-3.069813254936777e-73
12,2,2,1.1869095220872168e-73
13,1,1,4.1264036722889325e-37
13,2,2,-6.9383667020234328e-35
14,1,1,0.0088607092140289348
14,2,2,-0.00039532628538101205
15,1,1,0.0089999999999999993
15,2,2,-0.00017322835970732921
16,1,1,0.0089999999999999993
16,2,2,-0.00087500000000000002
17,1,1,0.0089999999999999993
17,2,2,-0.00087500000000000002
18,1,1,0.0089323848046820239
18,2,2,-0.00025749561434340964
19,1,1,0.0089999999999999993
19,2,2,-0.00055126460522036708
20,1,1,0.0089999999999999993
20,2,2,-0.00087500000000000002
21,1,1,0.0088180605509496236
21,2,2,-0.00061406043167040541
22,1,1,0.0091392907859710638
22,2,2,-0.00039532628538101238
23,1,1,0.0089999999999999993
23,2,2,-0.00087500000000000002
24,1,1,0.0090676151953179764
24,2,2,-0.00025749561434340959
25,1,1,0.0091819394490503768
25,2,2,-0.00061406043167040552
26,1,1,0.0089999999999999993
26,2,2,-0.00087500000000000002
1,11,11,300
2,11,11,300
3,11,11,301
4,11,11,300
9,11,11,300
10,11,11,300
14,11,11,300
15,11,11,300
16,11,11,300
17,11,11,300
22,11,11,300
23,11,11,300
*Output,field,frequency=1
*Node Output
NT,U,RF,RFL
*End Step
*Step,name=F13_C4,nlgeom=YES,inc=10
*Coupled Temperature-Displacement,steady state
1,1,1,1
*Boundary,op=NEW
CONTROLS,3,5,0
1,1,1,2.9930564636509486e-74
1,2,2,1.8457710231614108e-73
2,1,1,-7.4570836282166562e-67
2,2,2,7.2948549310439207e-66
3,1,1,-1.3931291598786326e-37
3,2,2,-8.9665464695319852e-35
4,1,1,5.3728128175470044e-38
4,2,2,5.060601092765452e-36
5,1,1,1.6722300981634099e-74
5,2,2,1.2025541063292564e-72
6,1,1,-8.0492811756906827e-67
6,2,2,-2.7076589850753453e-65
7,1,1,-3.00610343640672e-37
7,2,2,-2.6420431165016581e-35
8,1,1,2.7038076515404676e-73
8,2,2,-1.3275048691187121e-73
9,1,1,-3.8358870064157502e-74
9,2,2,1.3302470468638741e-73
10,1,1,-2.6445235775828702e-38
10,2,2,9.4459142684375507e-36
11,1,1,-1.1076789852264543e-74
11,2,2,1.4698278942892207e-72
12,1,1,-3.069813254936777e-73
12,2,2,1.1869095220872168e-73
13,1,1,4.1264036722889325e-37
13,2,2,-6.9383667020234328e-35
14,1,1,0.0088607092140289348
14,2,2,-0.00039532628538101205
15,1,1,0.0089999999999999993
15,2,2,-0.00017322835970732921
16,1,1,0.0089999999999999993
16,2,2,-0.00087500000000000002
17,1,1,0.0089999999999999993
17,2,2,-0.00087500000000000002
18,1,1,0.0089323848046820239
18,2,2,-0.00025749561434340964
19,1,1,0.0089999999999999993
19,2,2,-0.00055126460522036708
20,1,1,0.0089999999999999993
20,2,2,-0.00087500000000000002
21,1,1,0.0088180605509496236
21,2,2,-0.00061406043167040541
22,1,1,0.0091392907859710638
22,2,2,-0.00039532628538101238
23,1,1,0.0089999999999999993
23,2,2,-0.00087500000000000002
24,1,1,0.0090676151953179764
24,2,2,-0.00025749561434340959
25,1,1,0.0091819394490503768
25,2,2,-0.00061406043167040552
26,1,1,0.0089999999999999993
26,2,2,-0.00087500000000000002
1,11,11,300
2,11,11,300
3,11,11,300
4,11,11,301
9,11,11,300
10,11,11,300
14,11,11,300
15,11,11,300
16,11,11,300
17,11,11,300
22,11,11,300
23,11,11,300
*Output,field,frequency=1
*Node Output
NT,U,RF,RFL
*End Step
*Step,name=F13_C5,nlgeom=YES,inc=10
*Coupled Temperature-Displacement,steady state
1,1,1,1
*Boundary,op=NEW
CONTROLS,3,5,0
1,1,1,2.9930564636509486e-74
1,2,2,1.8457710231614108e-73
2,1,1,-7.4570836282166562e-67
2,2,2,7.2948549310439207e-66
3,1,1,-1.3931291598786326e-37
3,2,2,-8.9665464695319852e-35
4,1,1,5.3728128175470044e-38
4,2,2,5.060601092765452e-36
5,1,1,1.6722300981634099e-74
5,2,2,1.2025541063292564e-72
6,1,1,-8.0492811756906827e-67
6,2,2,-2.7076589850753453e-65
7,1,1,-3.00610343640672e-37
7,2,2,-2.6420431165016581e-35
8,1,1,2.7038076515404676e-73
8,2,2,-1.3275048691187121e-73
9,1,1,-3.8358870064157502e-74
9,2,2,1.3302470468638741e-73
10,1,1,-2.6445235775828702e-38
10,2,2,9.4459142684375507e-36
11,1,1,-1.1076789852264543e-74
11,2,2,1.4698278942892207e-72
12,1,1,-3.069813254936777e-73
12,2,2,1.1869095220872168e-73
13,1,1,4.1264036722889325e-37
13,2,2,-6.9383667020234328e-35
14,1,1,0.0088607092140289348
14,2,2,-0.00039532628538101205
15,1,1,0.0089999999999999993
15,2,2,-0.00017322835970732921
16,1,1,0.0089999999999999993
16,2,2,-0.00087500000000000002
17,1,1,0.0089999999999999993
17,2,2,-0.00087500000000000002
18,1,1,0.0089323848046820239
18,2,2,-0.00025749561434340964
19,1,1,0.0089999999999999993
19,2,2,-0.00055126460522036708
20,1,1,0.0089999999999999993
20,2,2,-0.00087500000000000002
21,1,1,0.0088180605509496236
21,2,2,-0.00061406043167040541
22,1,1,0.0091392907859710638
22,2,2,-0.00039532628538101238
23,1,1,0.0089999999999999993
23,2,2,-0.00087500000000000002
24,1,1,0.0090676151953179764
24,2,2,-0.00025749561434340959
25,1,1,0.0091819394490503768
25,2,2,-0.00061406043167040552
26,1,1,0.0089999999999999993
26,2,2,-0.00087500000000000002
1,11,11,300
2,11,11,300
3,11,11,300
4,11,11,300
9,11,11,301
10,11,11,300
14,11,11,300
15,11,11,300
16,11,11,300
17,11,11,300
22,11,11,300
23,11,11,300
*Output,field,frequency=1
*Node Output
NT,U,RF,RFL
*End Step
*Step,name=F13_C6,nlgeom=YES,inc=10
*Coupled Temperature-Displacement,steady state
1,1,1,1
*Boundary,op=NEW
CONTROLS,3,5,0
1,1,1,2.9930564636509486e-74
1,2,2,1.8457710231614108e-73
2,1,1,-7.4570836282166562e-67
2,2,2,7.2948549310439207e-66
3,1,1,-1.3931291598786326e-37
3,2,2,-8.9665464695319852e-35
4,1,1,5.3728128175470044e-38
4,2,2,5.060601092765452e-36
5,1,1,1.6722300981634099e-74
5,2,2,1.2025541063292564e-72
6,1,1,-8.0492811756906827e-67
6,2,2,-2.7076589850753453e-65
7,1,1,-3.00610343640672e-37
7,2,2,-2.6420431165016581e-35
8,1,1,2.7038076515404676e-73
8,2,2,-1.3275048691187121e-73
9,1,1,-3.8358870064157502e-74
9,2,2,1.3302470468638741e-73
10,1,1,-2.6445235775828702e-38
10,2,2,9.4459142684375507e-36
11,1,1,-1.1076789852264543e-74
11,2,2,1.4698278942892207e-72
12,1,1,-3.069813254936777e-73
12,2,2,1.1869095220872168e-73
13,1,1,4.1264036722889325e-37
13,2,2,-6.9383667020234328e-35
14,1,1,0.0088607092140289348
14,2,2,-0.00039532628538101205
15,1,1,0.0089999999999999993
15,2,2,-0.00017322835970732921
16,1,1,0.0089999999999999993
16,2,2,-0.00087500000000000002
17,1,1,0.0089999999999999993
17,2,2,-0.00087500000000000002
18,1,1,0.0089323848046820239
18,2,2,-0.00025749561434340964
19,1,1,0.0089999999999999993
19,2,2,-0.00055126460522036708
20,1,1,0.0089999999999999993
20,2,2,-0.00087500000000000002
21,1,1,0.0088180605509496236
21,2,2,-0.00061406043167040541
22,1,1,0.0091392907859710638
22,2,2,-0.00039532628538101238
23,1,1,0.0089999999999999993
23,2,2,-0.00087500000000000002
24,1,1,0.0090676151953179764
24,2,2,-0.00025749561434340959
25,1,1,0.0091819394490503768
25,2,2,-0.00061406043167040552
26,1,1,0.0089999999999999993
26,2,2,-0.00087500000000000002
1,11,11,300
2,11,11,300
3,11,11,300
4,11,11,300
9,11,11,300
10,11,11,301
14,11,11,300
15,11,11,300
16,11,11,300
17,11,11,300
22,11,11,300
23,11,11,300
*Output,field,frequency=1
*Node Output
NT,U,RF,RFL
*End Step
*Step,name=F13_C7,nlgeom=YES,inc=10
*Coupled Temperature-Displacement,steady state
1,1,1,1
*Boundary,op=NEW
CONTROLS,3,5,0
1,1,1,2.9930564636509486e-74
1,2,2,1.8457710231614108e-73
2,1,1,-7.4570836282166562e-67
2,2,2,7.2948549310439207e-66
3,1,1,-1.3931291598786326e-37
3,2,2,-8.9665464695319852e-35
4,1,1,5.3728128175470044e-38
4,2,2,5.060601092765452e-36
5,1,1,1.6722300981634099e-74
5,2,2,1.2025541063292564e-72
6,1,1,-8.0492811756906827e-67
6,2,2,-2.7076589850753453e-65
7,1,1,-3.00610343640672e-37
7,2,2,-2.6420431165016581e-35
8,1,1,2.7038076515404676e-73
8,2,2,-1.3275048691187121e-73
9,1,1,-3.8358870064157502e-74
9,2,2,1.3302470468638741e-73
10,1,1,-2.6445235775828702e-38
10,2,2,9.4459142684375507e-36
11,1,1,-1.1076789852264543e-74
11,2,2,1.4698278942892207e-72
12,1,1,-3.069813254936777e-73
12,2,2,1.1869095220872168e-73
13,1,1,4.1264036722889325e-37
13,2,2,-6.9383667020234328e-35
14,1,1,0.0088607092140289348
14,2,2,-0.00039532628538101205
15,1,1,0.0089999999999999993
15,2,2,-0.00017322835970732921
16,1,1,0.0089999999999999993
16,2,2,-0.00087500000000000002
17,1,1,0.0089999999999999993
17,2,2,-0.00087500000000000002
18,1,1,0.0089323848046820239
18,2,2,-0.00025749561434340964
19,1,1,0.0089999999999999993
19,2,2,-0.00055126460522036708
20,1,1,0.0089999999999999993
20,2,2,-0.00087500000000000002
21,1,1,0.0088180605509496236
21,2,2,-0.00061406043167040541
22,1,1,0.0091392907859710638
22,2,2,-0.00039532628538101238
23,1,1,0.0089999999999999993
23,2,2,-0.00087500000000000002
24,1,1,0.0090676151953179764
24,2,2,-0.00025749561434340959
25,1,1,0.0091819394490503768
25,2,2,-0.00061406043167040552
26,1,1,0.0089999999999999993
26,2,2,-0.00087500000000000002
1,11,11,300
2,11,11,300
3,11,11,300
4,11,11,300
9,11,11,300
10,11,11,300
14,11,11,301
15,11,11,300
16,11,11,300
17,11,11,300
22,11,11,300
23,11,11,300
*Output,field,frequency=1
*Node Output
NT,U,RF,RFL
*End Step
*Step,name=F13_C8,nlgeom=YES,inc=10
*Coupled Temperature-Displacement,steady state
1,1,1,1
*Boundary,op=NEW
CONTROLS,3,5,0
1,1,1,2.9930564636509486e-74
1,2,2,1.8457710231614108e-73
2,1,1,-7.4570836282166562e-67
2,2,2,7.2948549310439207e-66
3,1,1,-1.3931291598786326e-37
3,2,2,-8.9665464695319852e-35
4,1,1,5.3728128175470044e-38
4,2,2,5.060601092765452e-36
5,1,1,1.6722300981634099e-74
5,2,2,1.2025541063292564e-72
6,1,1,-8.0492811756906827e-67
6,2,2,-2.7076589850753453e-65
7,1,1,-3.00610343640672e-37
7,2,2,-2.6420431165016581e-35
8,1,1,2.7038076515404676e-73
8,2,2,-1.3275048691187121e-73
9,1,1,-3.8358870064157502e-74
9,2,2,1.3302470468638741e-73
10,1,1,-2.6445235775828702e-38
10,2,2,9.4459142684375507e-36
11,1,1,-1.1076789852264543e-74
11,2,2,1.4698278942892207e-72
12,1,1,-3.069813254936777e-73
12,2,2,1.1869095220872168e-73
13,1,1,4.1264036722889325e-37
13,2,2,-6.9383667020234328e-35
14,1,1,0.0088607092140289348
14,2,2,-0.00039532628538101205
15,1,1,0.0089999999999999993
15,2,2,-0.00017322835970732921
16,1,1,0.0089999999999999993
16,2,2,-0.00087500000000000002
17,1,1,0.0089999999999999993
17,2,2,-0.00087500000000000002
18,1,1,0.0089323848046820239
18,2,2,-0.00025749561434340964
19,1,1,0.0089999999999999993
19,2,2,-0.00055126460522036708
20,1,1,0.0089999999999999993
20,2,2,-0.00087500000000000002
21,1,1,0.0088180605509496236
21,2,2,-0.00061406043167040541
22,1,1,0.0091392907859710638
22,2,2,-0.00039532628538101238
23,1,1,0.0089999999999999993
23,2,2,-0.00087500000000000002
24,1,1,0.0090676151953179764
24,2,2,-0.00025749561434340959
25,1,1,0.0091819394490503768
25,2,2,-0.00061406043167040552
26,1,1,0.0089999999999999993
26,2,2,-0.00087500000000000002
1,11,11,300
2,11,11,300
3,11,11,300
4,11,11,300
9,11,11,300
10,11,11,300
14,11,11,300
15,11,11,301
16,11,11,300
17,11,11,300
22,11,11,300
23,11,11,300
*Output,field,frequency=1
*Node Output
NT,U,RF,RFL
*End Step
*Step,name=F13_C9,nlgeom=YES,inc=10
*Coupled Temperature-Displacement,steady state
1,1,1,1
*Boundary,op=NEW
CONTROLS,3,5,0
1,1,1,2.9930564636509486e-74
1,2,2,1.8457710231614108e-73
2,1,1,-7.4570836282166562e-67
2,2,2,7.2948549310439207e-66
3,1,1,-1.3931291598786326e-37
3,2,2,-8.9665464695319852e-35
4,1,1,5.3728128175470044e-38
4,2,2,5.060601092765452e-36
5,1,1,1.6722300981634099e-74
5,2,2,1.2025541063292564e-72
6,1,1,-8.0492811756906827e-67
6,2,2,-2.7076589850753453e-65
7,1,1,-3.00610343640672e-37
7,2,2,-2.6420431165016581e-35
8,1,1,2.7038076515404676e-73
8,2,2,-1.3275048691187121e-73
9,1,1,-3.8358870064157502e-74
9,2,2,1.3302470468638741e-73
10,1,1,-2.6445235775828702e-38
10,2,2,9.4459142684375507e-36
11,1,1,-1.1076789852264543e-74
11,2,2,1.4698278942892207e-72
12,1,1,-3.069813254936777e-73
12,2,2,1.1869095220872168e-73
13,1,1,4.1264036722889325e-37
13,2,2,-6.9383667020234328e-35
14,1,1,0.0088607092140289348
14,2,2,-0.00039532628538101205
15,1,1,0.0089999999999999993
15,2,2,-0.00017322835970732921
16,1,1,0.0089999999999999993
16,2,2,-0.00087500000000000002
17,1,1,0.0089999999999999993
17,2,2,-0.00087500000000000002
18,1,1,0.0089323848046820239
18,2,2,-0.00025749561434340964
19,1,1,0.0089999999999999993
19,2,2,-0.00055126460522036708
20,1,1,0.0089999999999999993
20,2,2,-0.00087500000000000002
21,1,1,0.0088180605509496236
21,2,2,-0.00061406043167040541
22,1,1,0.0091392907859710638
22,2,2,-0.00039532628538101238
23,1,1,0.0089999999999999993
23,2,2,-0.00087500000000000002
24,1,1,0.0090676151953179764
24,2,2,-0.00025749561434340959
25,1,1,0.0091819394490503768
25,2,2,-0.00061406043167040552
26,1,1,0.0089999999999999993
26,2,2,-0.00087500000000000002
1,11,11,300
2,11,11,300
3,11,11,300
4,11,11,300
9,11,11,300
10,11,11,300
14,11,11,300
15,11,11,300
16,11,11,301
17,11,11,300
22,11,11,300
23,11,11,300
*Output,field,frequency=1
*Node Output
NT,U,RF,RFL
*End Step
*Step,name=F13_C10,nlgeom=YES,inc=10
*Coupled Temperature-Displacement,steady state
1,1,1,1
*Boundary,op=NEW
CONTROLS,3,5,0
1,1,1,2.9930564636509486e-74
1,2,2,1.8457710231614108e-73
2,1,1,-7.4570836282166562e-67
2,2,2,7.2948549310439207e-66
3,1,1,-1.3931291598786326e-37
3,2,2,-8.9665464695319852e-35
4,1,1,5.3728128175470044e-38
4,2,2,5.060601092765452e-36
5,1,1,1.6722300981634099e-74
5,2,2,1.2025541063292564e-72
6,1,1,-8.0492811756906827e-67
6,2,2,-2.7076589850753453e-65
7,1,1,-3.00610343640672e-37
7,2,2,-2.6420431165016581e-35
8,1,1,2.7038076515404676e-73
8,2,2,-1.3275048691187121e-73
9,1,1,-3.8358870064157502e-74
9,2,2,1.3302470468638741e-73
10,1,1,-2.6445235775828702e-38
10,2,2,9.4459142684375507e-36
11,1,1,-1.1076789852264543e-74
11,2,2,1.4698278942892207e-72
12,1,1,-3.069813254936777e-73
12,2,2,1.1869095220872168e-73
13,1,1,4.1264036722889325e-37
13,2,2,-6.9383667020234328e-35
14,1,1,0.0088607092140289348
14,2,2,-0.00039532628538101205
15,1,1,0.0089999999999999993
15,2,2,-0.00017322835970732921
16,1,1,0.0089999999999999993
16,2,2,-0.00087500000000000002
17,1,1,0.0089999999999999993
17,2,2,-0.00087500000000000002
18,1,1,0.0089323848046820239
18,2,2,-0.00025749561434340964
19,1,1,0.0089999999999999993
19,2,2,-0.00055126460522036708
20,1,1,0.0089999999999999993
20,2,2,-0.00087500000000000002
21,1,1,0.0088180605509496236
21,2,2,-0.00061406043167040541
22,1,1,0.0091392907859710638
22,2,2,-0.00039532628538101238
23,1,1,0.0089999999999999993
23,2,2,-0.00087500000000000002
24,1,1,0.0090676151953179764
24,2,2,-0.00025749561434340959
25,1,1,0.0091819394490503768
25,2,2,-0.00061406043167040552
26,1,1,0.0089999999999999993
26,2,2,-0.00087500000000000002
1,11,11,300
2,11,11,300
3,11,11,300
4,11,11,300
9,11,11,300
10,11,11,300
14,11,11,300
15,11,11,300
16,11,11,300
17,11,11,301
22,11,11,300
23,11,11,300
*Output,field,frequency=1
*Node Output
NT,U,RF,RFL
*End Step
*Step,name=F13_C11,nlgeom=YES,inc=10
*Coupled Temperature-Displacement,steady state
1,1,1,1
*Boundary,op=NEW
CONTROLS,3,5,0
1,1,1,2.9930564636509486e-74
1,2,2,1.8457710231614108e-73
2,1,1,-7.4570836282166562e-67
2,2,2,7.2948549310439207e-66
3,1,1,-1.3931291598786326e-37
3,2,2,-8.9665464695319852e-35
4,1,1,5.3728128175470044e-38
4,2,2,5.060601092765452e-36
5,1,1,1.6722300981634099e-74
5,2,2,1.2025541063292564e-72
6,1,1,-8.0492811756906827e-67
6,2,2,-2.7076589850753453e-65
7,1,1,-3.00610343640672e-37
7,2,2,-2.6420431165016581e-35
8,1,1,2.7038076515404676e-73
8,2,2,-1.3275048691187121e-73
9,1,1,-3.8358870064157502e-74
9,2,2,1.3302470468638741e-73
10,1,1,-2.6445235775828702e-38
10,2,2,9.4459142684375507e-36
11,1,1,-1.1076789852264543e-74
11,2,2,1.4698278942892207e-72
12,1,1,-3.069813254936777e-73
12,2,2,1.1869095220872168e-73
13,1,1,4.1264036722889325e-37
13,2,2,-6.9383667020234328e-35
14,1,1,0.0088607092140289348
14,2,2,-0.00039532628538101205
15,1,1,0.0089999999999999993
15,2,2,-0.00017322835970732921
16,1,1,0.0089999999999999993
16,2,2,-0.00087500000000000002
17,1,1,0.0089999999999999993
17,2,2,-0.00087500000000000002
18,1,1,0.0089323848046820239
18,2,2,-0.00025749561434340964
19,1,1,0.0089999999999999993
19,2,2,-0.00055126460522036708
20,1,1,0.0089999999999999993
20,2,2,-0.00087500000000000002
21,1,1,0.0088180605509496236
21,2,2,-0.00061406043167040541
22,1,1,0.0091392907859710638
22,2,2,-0.00039532628538101238
23,1,1,0.0089999999999999993
23,2,2,-0.00087500000000000002
24,1,1,0.0090676151953179764
24,2,2,-0.00025749561434340959
25,1,1,0.0091819394490503768
25,2,2,-0.00061406043167040552
26,1,1,0.0089999999999999993
26,2,2,-0.00087500000000000002
1,11,11,300
2,11,11,300
3,11,11,300
4,11,11,300
9,11,11,300
10,11,11,300
14,11,11,300
15,11,11,300
16,11,11,300
17,11,11,300
22,11,11,301
23,11,11,300
*Output,field,frequency=1
*Node Output
NT,U,RF,RFL
*End Step
*Step,name=F13_C12,nlgeom=YES,inc=10
*Coupled Temperature-Displacement,steady state
1,1,1,1
*Boundary,op=NEW
CONTROLS,3,5,0
1,1,1,2.9930564636509486e-74
1,2,2,1.8457710231614108e-73
2,1,1,-7.4570836282166562e-67
2,2,2,7.2948549310439207e-66
3,1,1,-1.3931291598786326e-37
3,2,2,-8.9665464695319852e-35
4,1,1,5.3728128175470044e-38
4,2,2,5.060601092765452e-36
5,1,1,1.6722300981634099e-74
5,2,2,1.2025541063292564e-72
6,1,1,-8.0492811756906827e-67
6,2,2,-2.7076589850753453e-65
7,1,1,-3.00610343640672e-37
7,2,2,-2.6420431165016581e-35
8,1,1,2.7038076515404676e-73
8,2,2,-1.3275048691187121e-73
9,1,1,-3.8358870064157502e-74
9,2,2,1.3302470468638741e-73
10,1,1,-2.6445235775828702e-38
10,2,2,9.4459142684375507e-36
11,1,1,-1.1076789852264543e-74
11,2,2,1.4698278942892207e-72
12,1,1,-3.069813254936777e-73
12,2,2,1.1869095220872168e-73
13,1,1,4.1264036722889325e-37
13,2,2,-6.9383667020234328e-35
14,1,1,0.0088607092140289348
14,2,2,-0.00039532628538101205
15,1,1,0.0089999999999999993
15,2,2,-0.00017322835970732921
16,1,1,0.0089999999999999993
16,2,2,-0.00087500000000000002
17,1,1,0.0089999999999999993
17,2,2,-0.00087500000000000002
18,1,1,0.0089323848046820239
18,2,2,-0.00025749561434340964
19,1,1,0.0089999999999999993
19,2,2,-0.00055126460522036708
20,1,1,0.0089999999999999993
20,2,2,-0.00087500000000000002
21,1,1,0.0088180605509496236
21,2,2,-0.00061406043167040541
22,1,1,0.0091392907859710638
22,2,2,-0.00039532628538101238
23,1,1,0.0089999999999999993
23,2,2,-0.00087500000000000002
24,1,1,0.0090676151953179764
24,2,2,-0.00025749561434340959
25,1,1,0.0091819394490503768
25,2,2,-0.00061406043167040552
26,1,1,0.0089999999999999993
26,2,2,-0.00087500000000000002
1,11,11,300
2,11,11,300
3,11,11,300
4,11,11,300
9,11,11,300
10,11,11,300
14,11,11,300
15,11,11,300
16,11,11,300
17,11,11,300
22,11,11,300
23,11,11,301
*Output,field,frequency=1
*Node Output
NT,U,RF,RFL
*End Step
