*HEADING
DC3D8 13824-element transient thermal interface benchmark
*INCLUDE, INPUT=interface_mesh.inp
*MATERIAL, NAME=FIRST
*CONDUCTIVITY
10.
*DENSITY
1000.
*SPECIFIC HEAT
100.
*MATERIAL, NAME=SECOND
*CONDUCTIVITY
20.
*DENSITY
2000.
*SPECIFIC HEAT
200.
*SOLID SECTION, ELSET=HOT, MATERIAL=FIRST
*SOLID SECTION, ELSET=COLD, MATERIAL=SECOND
*SURFACE INTERACTION, NAME=GAP
*GAP CONDUCTANCE
1000.,0.
1000.,1.
*CONTACT PAIR, INTERACTION=GAP, TYPE=SURFACE TO SURFACE
SECONDARY,PRIMARY
*INITIAL CONDITIONS, TYPE=TEMPERATURE
ALL,300.
LEFT,400.
*STEP, NAME=HEATING, INC=20, AMPLITUDE=STEP
*HEAT TRANSFER
0.1,2.,0.1,0.1
*BOUNDARY
LEFT,11,11,400.
RIGHT,11,11,300.
*DFLUX
HOT,BF,1000000.
COLD,BF,2000000.
*OUTPUT, FIELD, FREQUENCY=0
*OUTPUT, HISTORY, FREQUENCY=0
*RESTART, WRITE, FREQUENCY=0
*END STEP
