*HEADING
DC3D8 13824-element transient conduction benchmark
*INCLUDE, INPUT=bulk_mesh.inp
*MATERIAL, NAME=SOLID
*CONDUCTIVITY
10.
*DENSITY
1000.
*SPECIFIC HEAT
100.
*SOLID SECTION, ELSET=SOLID, MATERIAL=SOLID
*INITIAL CONDITIONS, TYPE=TEMPERATURE
ALL,300.
LEFT,400.
*STEP, NAME=HEATING, INC=20, AMPLITUDE=STEP
*HEAT TRANSFER
0.1,2.,0.1,0.1
*BOUNDARY
LEFT,11,11,400.
RIGHT,11,11,300.
*DFLUX
SOLID,BF,1000000.
*OUTPUT, FIELD, FREQUENCY=0
*OUTPUT, HISTORY, FREQUENCY=0
*RESTART, WRITE, FREQUENCY=0
*END STEP
