*Heading
** small original axisymmetric PCMI path, CAX4T.
*Preprint, echo=NO, model=NO, history=NO, contact=NO
*Include, input=b13_small_cax4t_mesh.inc
*Material, name=FUEL
*Elastic
2e11, 0.316
*Expansion, zero=600
1e-5
*Density
10970
*Specific Heat
300
*Conductivity
8.257999999999999, 500.0
8.254942023190724, 500.2
8.251886490807355, 500.4
8.248833399920095, 500.6
8.245782747603833, 500.8
8.242734530938124, 501.0
8.239688747007182, 501.2
8.236645392899881, 501.4
8.233604465709728, 501.6
8.230565962534873, 501.8
8.227529880478087, 502.0
8.224496216646754, 502.2
8.221464968152867, 502.4
8.218436132113013, 502.6
8.215409705648369, 502.8
8.212385685884692, 503.0
8.209364069952306, 503.2
8.206344854986094, 503.4
8.203328038125496, 503.6
8.200313616514489, 503.8
8.197301587301586, 504.0
8.194291947639826, 504.2
8.191284694686757, 504.4
8.188279825604440, 504.6
8.185277337559429, 504.8
8.182277227722771, 505.0
8.179279493269991, 505.2
8.176284131381085, 505.4
8.173291139240506, 505.6
8.170300514037169, 505.8
8.167312252964427, 506.0
8.164326353220071, 506.2
8.161342812006319, 506.4
8.158361626529807, 506.6
8.155382794001579, 506.8
8.152406311637082, 507.0
8.149432176656152, 507.2
8.146460386283012, 507.4
8.143490937746256, 507.6
8.140523828278850, 507.8
8.137559055118111, 508.0
8.134596615505707, 508.2
8.131636506687649, 508.4
8.128678725914273, 508.6
8.125723270440250, 508.8
8.122770137524558, 509.0
8.119819324430479, 509.2
8.116870828425599, 509.4
8.113924646781790, 509.6
8.110980776775206, 509.8
8.108039215686274, 510.0
8.105099960799686, 510.2
8.102163009404389, 510.4
8.099228358793576, 510.6
8.096296006264682, 510.8
8.093365949119374, 511.0
8.090438184663537, 511.2
8.087512710207275, 511.4
8.084589523064894, 511.6
8.081668620554904, 511.8
8.078749999999999, 512.0
8.075833658727060, 512.2
8.072919594067136, 512.4
8.070007803355443, 512.6
8.067098283931358, 512.8
8.064191033138401, 513.0
8.061286048324240, 513.2
8.058383326840671, 513.4
8.055482866043613, 513.6
8.052584663293111, 513.8
8.049688715953307, 514.0
8.046795021392454, 514.2
8.043903576982894, 514.4
8.041014380101048, 514.6
8.038127428127428, 514.8
8.035242718446602, 515.0
8.032360248447205, 515.2
8.029480015521925, 515.4
8.026602017067495, 515.6
8.023726250484685, 515.8
8.020852713178295, 516.0
8.017981402557147, 516.2
8.015112316034083, 516.4
8.012245451025938, 516.6
8.009380804953562, 516.8
8.006518375241779, 517.0
8.003658159319411, 517.2
8.000800154619251, 517.4
7.997944358578053, 517.6
7.995090768636540, 517.8
7.992239382239383, 518.0
7.989390196835198, 518.2
7.986543209876544, 518.4
7.983698418819900, 518.6
7.980855821125676, 518.8
7.978015414258189, 519.0
7.975177195685670, 519.2
7.972341162880247, 519.4
7.969507313317937, 519.6
7.966675644478647, 519.8
7.963846153846154, 520.0
7.961018838908112, 520.2
7.958193697156035, 520.4
7.955370726085286, 520.6
7.952549923195085, 520.8
7.949731285988484, 521.0
7.946914811972371, 521.2
7.944100498657462, 521.4
7.941288343558282, 521.6
7.938478344193179, 521.8
7.935670498084291, 522.0
7.932864802757564, 522.2
7.930061255742727, 522.4
7.927259854573287, 522.6
7.924460596786535, 522.8
7.921663479923518, 523.0
7.918868501529052, 523.2
7.916075659151701, 523.4
7.913284950343773, 523.6
7.910496372661322, 523.8
7.907709923664123, 524.0
7.904925600915680, 524.2
7.902143401983220, 524.4
7.899363324437667, 524.6
7.896585365853659, 524.8
7.893809523809524, 525.0
7.891035795887281, 525.2
7.888264179672631, 525.4
7.885494672754946, 525.6
7.882727272727274, 525.8
7.879961977186312, 526.0
7.877198783732421, 526.2
7.874437689969605, 526.4
7.871678693505507, 526.6
7.868921791951406, 526.8
7.866166982922201, 527.0
7.863414264036418, 527.2
7.860663632916193, 527.4
7.857915087187263, 527.6
7.855168624478971, 527.8
7.852424242424243, 528.0
7.849681938659598, 528.2
7.846941710825133, 528.4
7.844203556564510, 528.6
7.841467473524963, 528.8
7.838733459357278, 529.0
7.836001511715797, 529.2
7.833271628258406, 529.4
7.830543806646526, 529.6
7.827818044545112, 529.8
7.825094339622642, 530.0
7.822372689551113, 530.2
7.819653092006034, 530.4
7.816935544666415, 530.6
7.814220045214771, 530.8
7.811506591337100, 531.0
7.808795180722892, 531.2
7.806085811065111, 531.4
7.803378480060196, 531.6
7.800673185408049, 531.8
7.797969924812031, 532.0
7.795268695978955, 532.2
7.792569496619084, 532.4
7.789872324446113, 532.6
7.787177177177178, 532.8
7.784484052532833, 533.0
7.781792948237059, 533.2
7.779103862017249, 533.4
7.776416791604198, 533.6
7.773731734732110, 533.8
7.771048689138577, 534.0
7.768367652564582, 534.2
7.765688622754491, 534.4
7.763011597456042, 534.6
7.760336574420345, 534.8
7.757663551401870, 535.0
7.754992526158445, 535.2
7.752323496451252, 535.4
7.749656460044809, 535.6
7.746991414706981, 535.8
7.744328358208955, 536.0
7.741667288325251, 536.2
7.739008202833706, 536.4
7.736351099515468, 536.6
7.733695976154993, 536.8
7.731042830540037, 537.0
7.728391660461653, 537.2
7.725742463714180, 537.4
7.723095238095238, 537.6
7.720449981405728, 537.8
7.717806691449814, 538.0
7.715165366034931, 538.2
7.712526002971769, 538.4
7.709888600074267, 538.6
7.707253155159615, 538.8
7.704619666048238, 539.0
7.701988130563798, 539.2
7.699358546533186, 539.4
7.696730911786508, 539.6
7.694105224157096, 539.8
7.691481481481482, 540.0
7.688859681599407, 540.2
7.686239822353812, 540.4
7.683621901590825, 540.6
7.681005917159764, 540.8
7.678391866913124, 541.0
7.675779748706578, 541.2
7.673169560398966, 541.4
7.670561299852290, 541.6
7.667954964931710, 541.8
7.665350553505536, 542.0
7.662748063445223, 542.2
7.660147492625369, 542.4
7.657548838923701, 542.6
7.654952100221077, 542.8
7.652357274401473, 543.0
7.649764359351988, 543.2
7.647173352962827, 543.4
7.644584253127300, 543.6
7.641997057741817, 543.8
7.639411764705883, 544.0
7.636828371922087, 544.2
7.634246877296106, 544.4
7.631667278736687, 544.6
7.629089574155654, 544.8
7.626513761467891, 545.0
7.623939838591342, 545.2
7.621367803447012, 545.4
7.618797653958945, 545.6
7.616229388054233, 545.8
7.613663003663004, 546.0
7.611098498718418, 546.2
7.608535871156662, 546.4
7.605975118916941, 546.6
7.603416239941478, 546.8
7.600859232175503, 547.0
7.598304093567251, 547.2
7.595750822067958, 547.4
7.593199415631848, 547.6
7.590649872216138, 547.8
7.588102189781022, 548.0
7.585556366289675, 548.2
7.583012399708243, 548.4
7.580470288005833, 548.6
7.577930029154520, 548.8
7.575391621129326, 549.0
7.572855061908230, 549.2
7.570320349472152, 549.4
7.567787481804949, 549.6
7.565256456893417, 549.8
7.562727272727273, 550.0
7.560199927299164, 550.2
7.557674418604652, 550.4
7.555150744642209, 550.6
7.552628903413218, 550.8
7.550108892921960, 551.0
7.547590711175617, 551.2
7.545074356184259, 551.4
7.542559825960841, 551.6
7.540047118521204, 551.8
7.537536231884058, 552.0
7.535027164070988, 552.2
7.532519913106445, 552.4
7.530014477017734, 552.6
7.527510853835023, 552.8
7.525009041591320, 553.0
7.522509038322487, 553.2
7.520010842067221, 553.4
7.517514450867052, 553.6
7.515019862766342, 553.8
7.512527075812275, 554.0
7.510036088054854, 554.2
7.507546897546898, 554.4
7.505059502344031, 554.6
7.502573900504688, 554.8
7.500090090090090, 555.0
7.497608069164265, 555.2
7.495127835794023, 555.4
7.492649388048956, 555.6
7.490172724001440, 555.8
7.487697841726619, 556.0
7.485224739302409, 556.2
7.482753414809491, 556.4
7.480283866331297, 556.6
7.477816091954024, 556.8
7.475350089766607, 557.0
7.472885857860732, 557.2
7.470423394330822, 557.4
7.467962697274031, 557.6
7.465503764790248, 557.8
7.463046594982079, 558.0
7.460591185954855, 558.2
7.458137535816619, 558.4
7.455685642678124, 558.6
7.453235504652828, 558.8
7.450787119856888, 559.0
7.448340486409156, 559.2
7.445895602431177, 559.4
7.443452466047177, 559.6
7.441011075384067, 559.8
7.438571428571429, 560.0
7.436133523741520, 560.2
7.433697359029265, 560.4
7.431262932572244, 560.6
7.428830242510700, 560.8
7.426399286987523, 561.0
7.423970064148254, 561.2
7.421542572141076, 561.4
7.419116809116809, 561.6
7.416692773228908, 561.8
7.414270462633453, 562.0
7.411849875489150, 562.2
7.409431009957326, 562.4
7.407013864201920, 562.6
7.404598436389482, 562.8
7.402184724689166, 563.0
7.399772727272727, 563.2
7.397362442314519, 563.4
7.394953867991483, 563.6
7.392547002483151, 563.8
7.390141843971631, 564.0
7.387738390641617, 564.2
7.385336640680369, 564.4
7.382936592277718, 564.6
7.380538243626063, 564.8
7.378141592920354, 565.0
7.375746638358103, 565.2
7.373353378139371, 565.4
7.370961810466761, 565.6
7.368571933545423, 565.8
7.366183745583039, 566.0
7.363797244789827, 566.2
7.361412429378531, 566.4
7.359029297564420, 566.6
7.356647847565280, 566.8
7.354268077601411, 567.0
7.351889985895627, 567.2
7.349513570673247, 567.4
7.347138830162086, 567.6
7.344765762592463, 567.8
7.342394366197183, 568.0
7.340024639211545, 568.2
7.337656579873329, 568.4
7.335290186422793, 568.6
7.332925457102673, 568.8
7.330562390158173, 569.0
7.328200983836964, 569.2
7.325841236389182, 569.4
7.323483146067415, 569.6
7.321126711126712, 569.8
7.318771929824562, 570.0
7.316418800420904, 570.2
7.314067321178121, 570.4
7.311717490361024, 570.6
7.309369306236861, 570.8
7.307022767075307, 571.0
7.304677871148459, 571.2
7.302334616730837, 571.4
7.299993002099370, 571.6
7.297653025533404, 571.8
7.295314685314685, 572.0
7.292977979727368, 572.2
7.290642907058002, 572.4
7.288309465595529, 572.6
7.285977653631286, 572.8
7.283647469458988, 573.0
7.281318911374738, 573.2
7.278991977677014, 573.4
7.276666666666666, 573.6
7.274342976646916, 573.8
7.272020905923346, 574.0
7.269700452803901, 574.2
7.267381615598886, 574.4
7.265064392620954, 574.6
7.262748782185109, 574.8
7.260434782608696, 575.0
7.258122392211405, 575.2
7.255811609315259, 575.4
7.253502432244614, 575.6
7.251194859326156, 575.8
7.248888888888890, 576.0
7.246584519264144, 576.2
7.244281748785566, 576.4
7.241980575789109, 576.6
7.239680998613038, 576.8
7.237383015597921, 577.0
7.235086625086625, 577.2
7.232791825424316, 577.4
7.230498614958448, 577.6
7.228206992038769, 577.8
7.225916955017301, 578.0
7.223628502248356, 578.2
7.221341632088521, 578.4
7.219056342896647, 578.6
7.216772633033864, 578.8
7.214490500863558, 579.0
7.212209944751381, 579.2
7.209930963065241, 579.4
7.207653554175294, 579.6
7.205377716453951, 579.8
7.203103448275862, 580.0
7.200830748017925, 580.2
7.198559614059270, 580.4
7.196290044781261, 580.6
7.194022038567494, 580.8
7.191755593803787, 581.0
7.189490708878183, 581.2
7.187227382180943, 581.4
7.184965612104540, 581.6
7.182705397043659, 581.8
7.180446735395189, 582.0
7.178189625558227, 582.2
7.175934065934067, 582.4
7.173680054926193, 582.6
7.171427590940289, 582.8
7.169176672384220, 583.0
7.166927297668038, 583.2
7.164679465203977, 583.4
7.162433173406443, 583.6
7.160188420692019, 583.8
7.157945205479453, 584.0
7.155703526189661, 584.2
7.153463381245722, 584.4
7.151224769072870, 584.6
7.148987688098496, 584.8
7.146752136752137, 585.0
7.144518113465482, 585.2
7.142285616672361, 585.4
7.140054644808743, 585.6
7.137825196312735, 585.8
7.135597269624574, 586.0
7.133370863186625, 586.2
7.131145975443384, 586.4
7.128922604841459, 586.6
7.126700749829585, 586.8
7.124480408858603, 587.0
7.122261580381471, 587.2
7.120044262853252, 587.4
7.117828454731110, 587.6
7.115614154474311, 587.8
7.113401360544218, 588.0
7.111190071404284, 588.2
7.108980285520055, 588.4
7.106772001359158, 588.6
7.104565217391305, 588.8
7.102359932088286, 589.0
7.100156143923964, 589.2
7.097953851374280, 589.4
7.095753052917232, 589.6
7.093553747032893, 589.8
7.091355932203390, 590.0
7.089159606912911, 590.2
7.086964769647697, 590.4
7.084771418896038, 590.6
7.082579553148275, 590.8
7.080389170896785, 591.0
7.078200270635994, 591.2
7.076012850862361, 591.4
7.073826910074374, 591.6
7.071642446772559, 591.8
7.069459459459460, 592.0
7.067277946639648, 592.2
7.065097906819717, 592.4
7.062919338508268, 592.6
7.060742240215926, 592.8
7.058566610455312, 593.0
7.056392447741065, 593.2
7.054219750589822, 593.4
7.052048517520216, 593.6
7.049878747052881, 593.8
7.047710437710438, 594.0
7.045543588017503, 594.2
7.043378196500673, 594.4
7.041214261688530, 594.6
7.039051782111635, 594.8
7.036890756302522, 595.0
7.034731182795698, 595.2
7.032573060127646, 595.4
7.030416386836803, 595.6
7.028261161463579, 595.8
7.026107382550336, 596.0
7.023955048641396, 596.2
7.021804158283032, 596.4
7.019654710023467, 596.6
7.017506702412869, 596.8
7.015360134003350, 597.0
7.013215003348962, 597.2
7.011071309005692, 597.4
7.008929049531459, 597.6
7.006788223486117, 597.8
7.004648829431439, 598.0
7.002510865931127, 598.2
7.000374331550803, 598.4
6.998239224858002, 598.6
6.996105544422178, 598.8
6.993973288814692, 599.0
6.991842456608811, 599.2
6.989713046379713, 599.4
6.987585056704470, 599.6
6.985458486162055, 599.8
6.983333333333333, 600.0
6.981209596801066, 600.2
6.979087275149901, 600.4
6.976966366966367, 600.6
6.974846870838882, 600.8
6.972728785357737, 601.0
6.970612109115103, 601.2
6.968496840705022, 601.4
6.966382978723404, 601.6
6.964270521768030, 601.8
6.962159468438538, 602.0
6.960049817336433, 602.2
6.957941567065074, 602.4
6.955834716229671, 602.6
6.953729263437293, 602.8
6.951625207296850, 603.0
6.949522546419098, 603.2
6.947421279416639, 603.4
6.945321404903910, 603.6
6.943222921497186, 603.8
6.941125827814570, 604.0
6.939030122476002, 604.2
6.936935804103244, 604.4
6.934842871319881, 604.6
6.932751322751323, 604.8
6.930661157024794, 605.0
6.928572372769333, 605.2
6.926484968615791, 605.4
6.924398943196830, 605.6
6.922314295146914, 605.8
6.920231023102311, 606.0
6.918149125701088, 606.2
6.916068601583114, 606.4
6.913989449390043, 606.6
6.911911667765327, 606.8
6.909835255354201, 607.0
6.907760210803689, 607.2
6.905686532762595, 607.4
6.903614219881501, 607.6
6.901543270812768, 607.8
6.899473684210527, 608.0
6.897405458730680, 608.2
6.895338593030901, 608.4
6.893273085770621, 608.6
6.891208935611039, 608.8
6.889146141215107, 609.0
6.887084701247538, 609.2
6.885024614374795, 609.4
6.882965879265092, 609.6
6.880908494588390, 609.8
6.878852459016394, 610.0
6.876797771222550, 610.2
6.874744429882045, 610.4
6.872692433671799, 610.6
6.870641781270466, 610.8
6.868592471358429, 611.0
6.866544502617801, 611.2
6.864497873732418, 611.4
6.862452583387835, 611.6
6.860408630271332, 611.8
6.858366013071896, 612.0
6.856324730480235, 612.2
6.854284781188766, 612.4
6.852246163891610, 612.6
6.850208877284596, 612.8
6.848172920065253, 613.0
6.846138290932811, 613.2
6.844104988588198, 613.4
6.842073011734029, 613.6
6.840042359074618, 613.8
6.838013029315961, 614.0
6.835985021165744, 614.2
6.833958333333334, 614.4
6.831932964529775, 614.6
6.829908913467795, 614.8
6.827886178861789, 615.0
6.825864759427828, 615.2
6.823844653883653, 615.4
6.821825860948668, 615.6
6.819808379343944, 615.8
6.817792207792208, 616.0
6.815777345017851, 616.2
6.813763789746918, 616.4
6.811751540707103, 616.6
6.809740596627757, 616.8
6.807730956239871, 617.0
6.805722618276086, 617.2
6.803715581470684, 617.4
6.801709844559586, 617.6
6.799705406280350, 617.8
6.797702265372169, 618.0
6.795700420575865, 618.2
6.793699870633895, 618.4
6.791700614290333, 618.6
6.789702650290886, 618.8
6.787705977382876, 619.0
6.785710594315245, 619.2
6.783716499838554, 619.4
6.781723692704971, 619.6
6.779732171668281, 619.8
6.777741935483871, 620.0
6.775752982908739, 620.2
6.773765312701483, 620.4
6.771778923622301, 620.6
6.769793814432990, 620.8
6.767809983896941, 621.0
6.765827430779137, 621.2
6.763846153846155, 621.4
6.761866151866152, 621.6
6.759887423608879, 621.8
6.757909967845659, 622.0
6.755933783349406, 622.2
6.753958868894602, 622.4
6.751985223257308, 622.6
6.750012845215158, 622.8
6.748041733547351, 623.0
6.746071887034660, 623.2
6.744103304459417, 623.4
6.742135984605516, 623.6
6.740169926258416, 623.8
6.738205128205129, 624.0
6.736241589234219, 624.2
6.734279308135811, 624.4
6.732318283701569, 624.6
6.730358514724712, 624.8
6.728400000000001, 625.0
6.726442738323736, 625.2
6.724486728493765, 625.4
6.722531969309463, 625.6
6.720578459571749, 625.8
6.718626198083068, 626.0
6.716675183647397, 626.2
6.714725415070244, 626.4
6.712776891158634, 626.6
6.710829610721124, 626.8
6.708883572567784, 627.0
6.706938775510204, 627.2
6.704995218361493, 627.4
6.703052899936266, 627.6
6.701111819050654, 627.8
6.699171974522294, 628.0
6.697233365170328, 628.2
6.695295989815405, 628.4
6.693359847279670, 628.6
6.691424936386769, 628.8
6.689491255961845, 629.0
6.687558804831532, 629.2
6.685627581823960, 629.4
6.683697585768742, 629.6
6.681768815496984, 629.8
6.679841269841270, 630.0
6.677914947635671, 630.2
6.675989847715736, 630.4
6.674065968918490, 630.6
6.672143310082435, 630.8
6.670221870047544, 631.0
6.668301647655260, 631.2
6.666382641748496, 631.4
6.664464851171628, 631.6
6.662548274770498, 631.8
6.660632911392406, 632.0
6.658718759886112, 632.2
6.656805819101835, 632.4
6.654894087891242, 632.6
6.652983565107459, 632.8
6.651074249605055, 633.0
6.649166140240051, 633.2
6.647259235869909, 633.4
6.645353535353536, 633.6
6.643449037551279, 633.8
6.641545741324921, 634.0
6.639643645537685, 634.2
6.637742749054225, 634.4
6.635843050740625, 634.6
6.633944549464399, 634.8
6.632047244094489, 635.0
6.630151133501260, 635.2
6.628256216556500, 635.4
6.626362492133417, 635.6
6.624469959106638, 635.8
6.622578616352202, 636.0
6.620688462747563, 636.2
6.618799497171591, 636.4
6.616911718504555, 636.6
6.615025125628142, 636.8
6.613139717425432, 637.0
6.611255492780916, 637.2
6.609372450580484, 637.4
6.607490589711418, 637.6
6.605609909062403, 637.8
6.603730407523511, 638.0
6.601852083986211, 638.2
6.599974937343359, 638.4
6.598098966489196, 638.6
6.596224170319349, 638.8
6.594350547730830, 639.0
6.592478097622028, 639.2
6.590606818892712, 639.4
6.588736710444028, 639.6
6.586867771178494, 639.8
6.585000000000000, 640.0
6.583133395813809, 640.2
6.581267957526546, 640.4
6.579403684046206, 640.6
6.577540574282148, 640.8
6.575678627145086, 641.0
6.573817841547099, 641.2
6.571958216401622, 641.4
6.570099750623442, 641.6
6.568242443128701, 641.8
6.566386292834891, 642.0
6.564531298660853, 642.2
6.562677459526775, 642.4
6.560824774354186, 642.6
6.558973242065962, 642.8
6.557122861586315, 643.0
6.555273631840796, 643.2
6.553425551756296, 643.4
6.551578620261032, 643.6
6.549732836284561, 643.8
6.547888198757764, 644.0
6.546044706612853, 644.2
6.544202358783365, 644.4
6.542361154204158, 644.6
6.540521091811415, 644.8
6.538682170542636, 645.0
6.536844389336640, 645.2
6.535007747133561, 645.4
6.533172242874845, 645.6
6.531337875503253, 645.8
6.529504643962849, 646.0
6.527672547199010, 646.2
6.525841584158417, 646.4
6.524011753789051, 646.6
6.522183055040198, 646.8
6.520355486862442, 647.0
6.518529048207664, 647.2
6.516703738029039, 647.4
6.514879555281038, 647.6
6.513056498919420, 647.8
6.511234567901234, 648.0
6.509413761184820, 648.2
6.507594077729797, 648.4
6.505775516497071, 648.6
6.503958076448829, 648.8
6.502141756548537, 649.0
6.500326555760936, 649.2
6.498512473052049, 649.4
6.496699507389162, 649.6
6.494887657740844, 649.8
6.493076923076924, 650.0
6.491267302368501, 650.2
6.489458794587946, 650.4
6.487651398708884, 650.6
6.485845113706208, 650.8
6.484039938556068, 651.0
6.482235872235872, 651.2
6.480432913724287, 651.4
6.478631062001228, 651.6
6.476830316047868, 651.8
6.475030674846626, 652.0
6.473232137381172, 652.2
6.471434702636420, 652.4
6.469638369598529, 652.6
6.467843137254903, 652.8
6.466049004594181, 653.0
6.464255970606246, 653.2
6.462464034282217, 653.4
6.460673194614444, 653.6
6.458883450596513, 653.8
6.457094801223242, 654.0
6.455307245490675, 654.2
6.453520782396089, 654.4
6.451735410937977, 654.6
6.449951130116067, 654.8
6.448167938931298, 655.0
6.446385836385836, 655.2
6.444604821483065, 655.4
6.442824893227578, 655.6
6.441046050625191, 655.8
6.439268292682927, 656.0
6.437491618409021, 656.2
6.435716026812919, 656.4
6.433941516905270, 656.6
6.432168087697930, 656.8
6.430395738203957, 657.0
6.428624467437614, 657.2
6.426854274414360, 657.4
6.425085158150852, 657.6
6.423317117664944, 657.8
6.421550151975684, 658.0
6.419784260103312, 658.2
6.418019441069259, 658.4
6.416255693896144, 658.6
6.414493017607772, 658.8
6.412731411229135, 659.0
6.410970873786408, 659.2
6.409211404306946, 659.4
6.407453001819285, 659.6
6.405695665353138, 659.8
6.403939393939394, 660.0
6.402184186610118, 660.2
6.400430042398547, 660.4
6.398676960339086, 660.6
6.396924939467313, 660.8
6.395173978819970, 661.0
6.393424077434966, 661.2
6.391675234351377, 661.4
6.389927448609432, 661.6
6.388180719250530, 661.8
6.386435045317221, 662.0
6.384690425853217, 662.2
6.382946859903382, 662.4
6.381204346513734, 662.6
6.379462884731443, 662.8
6.377722473604827, 663.0
6.375983112183353, 663.2
6.374244799517637, 663.4
6.372507534659434, 663.6
6.370771316661646, 663.8
6.369036144578313, 664.0
6.367302017464619, 664.2
6.365568934376882, 664.4
6.363836894372555, 664.6
6.362105896510229, 664.8
6.360375939849624, 665.0
6.358647023451593, 665.2
6.356919146378119, 665.4
6.355192307692308, 665.6
6.353466506458397, 665.8
6.351741741741742, 666.0
6.350018012608826, 666.2
6.348295318127251, 666.4
6.346573657365736, 666.6
6.344853029394122, 666.8
6.343133433283358, 667.0
6.341414868105516, 667.2
6.339697332933773, 667.4
6.337980826842421, 667.6
6.336265348906859, 667.8
6.334550898203593, 668.0
6.332837473810236, 668.2
6.331125074805506, 668.4
6.329413700269219, 668.6
6.327703349282297, 668.8
6.325994020926757, 669.0
6.324285714285714, 669.2
6.322578428443383, 669.4
6.320872162485066, 669.6
6.319166915497164, 669.8
6.317462686567165, 670.0
6.315759474783647, 670.2
6.314057279236278, 670.4
6.312356099015807, 670.6
6.310655933214074, 670.8
6.308956780923994, 671.0
6.307258641239571, 671.2
6.305561513255884, 671.4
6.303865396069089, 671.6
6.302170288776423, 671.8
6.300476190476191, 672.0
6.298783100267777, 672.2
6.297091017251637, 672.4
6.295399940529290, 672.6
6.293709869203330, 672.8
6.292020802377415, 673.0
6.290332739156269, 673.2
6.288645678645679, 673.4
6.286959619952494, 673.6
6.285274562184625, 673.8
6.283590504451039, 674.0
6.281907445861762, 674.2
6.280225385527877, 674.4
6.278544322561518, 674.6
6.276864256075875, 674.8
6.275185185185186, 675.0
6.273507109004739, 675.2
6.271830026650874, 675.4
6.270153937240971, 675.6
6.268478839893461, 675.8
6.266804733727811, 676.0
6.265131617864537, 676.2
6.263459491425193, 676.4
6.261788353532368, 676.6
6.260118203309693, 676.8
6.258449039881832, 677.0
6.256780862374483, 677.2
6.255113669914379, 677.4
6.253447461629280, 677.6
6.251782236647980, 677.8
6.250117994100295, 678.0
6.248454733117074, 678.2
6.246792452830189, 678.4
6.245131152372532, 678.6
6.243470830878021, 678.8
6.241811487481591, 679.0
6.240153121319199, 679.2
6.238495731527819, 679.4
6.236839317245439, 679.6
6.235183877611063, 679.8
6.233529411764706, 680.0
6.231875918847398, 680.2
6.230223398001177, 680.4
6.228571848369087, 680.6
6.226921269095183, 680.8
6.225271659324523, 681.0
6.223623018203170, 681.2
6.221975344878192, 681.4
6.220328638497652, 681.6
6.218682898210620, 681.8
6.217038123167156, 682.0
6.215394312518323, 682.2
6.213751465416179, 682.4
6.212109581013771, 682.6
6.210468658465144, 682.8
6.208828696925329, 683.0
6.207189695550351, 683.2
6.205551653497221, 683.4
6.203914569923932, 683.6
6.202278443989472, 683.8
6.200643274853801, 684.0
6.199009061677872, 684.2
6.197375803623612, 684.4
6.195743499853929, 684.6
6.194112149532711, 684.8
6.192481751824817, 685.0
6.190852305896088, 685.2
6.189223810913336, 685.4
6.187596266044340, 685.6
6.185969670457860, 685.8
6.184344023323615, 686.0
6.182719323812299, 686.2
6.181095571095572, 686.4
6.179472764346053, 686.6
6.177850902737333, 686.8
6.176229985443960, 687.0
6.174610011641444, 687.2
6.172990980506256, 687.4
6.171372891215824, 687.6
6.169755742948532, 687.8
6.168139534883721, 688.0
6.166524266201685, 688.2
6.164909936083673, 688.4
6.163296543711879, 688.6
6.161684088269455, 688.8
6.160072568940493, 689.0
6.158461984910041, 689.2
6.156852335364086, 689.4
6.155243619489560, 689.6
6.153635836474341, 689.8
6.152028985507247, 690.0
6.150423065778035, 690.2
6.148818076477405, 690.4
6.147214016796989, 690.6
6.145610885929358, 690.8
6.144008683068018, 691.0
6.142407407407408, 691.2
6.140807058142899, 691.4
6.139207634470792, 691.6
6.137609135588321, 691.8
6.136011560693642, 692.0
6.134414908985843, 692.2
6.132819179664934, 692.4
6.131224371931851, 692.6
6.129630484988454, 692.8
6.128037518037519, 693.0
6.126445470282746, 693.2
6.124854340928757, 693.4
6.123264129181084, 693.6
6.121674834246181, 693.8
6.120086455331412, 694.0
6.118498991645059, 694.2
6.116912442396313, 694.4
6.115326806795278, 694.6
6.113742084052966, 694.8
6.112158273381295, 695.0
6.110575373993096, 695.2
6.108993385102100, 695.4
6.107412305922944, 695.6
6.105832135671171, 695.8
6.104252873563219, 696.0
6.102674518816432, 696.2
6.101097070649053, 696.4
6.099520528280219, 696.6
6.097944890929966, 696.8
6.096370157819226, 697.0
6.094796328169823, 697.2
6.093223401204474, 697.4
6.091651376146789, 697.6
6.090080252221267, 697.8
6.088510028653295, 698.0
6.086940704669149, 698.2
6.085372279495991, 698.4
6.083804752361867, 698.6
6.082238122495707, 698.8
6.080672389127325, 699.0
6.079107551487414, 699.2
6.077543608807550, 699.4
6.075980560320184, 699.6
6.074418405258646, 699.8
6.072857142857143, 700.0
6.071296772350757, 700.2
6.069737292975443, 700.4
6.068178703968027, 700.6
6.066621004566211, 700.8
6.065064194008560, 701.0
6.063508271534512, 701.2
6.061953236384374, 701.4
6.060399087799316, 701.6
6.058845825021375, 701.8
6.057293447293447, 702.0
6.055741953859299, 702.2
6.054191343963554, 702.4
6.052641616851694, 702.6
6.051092771770064, 702.8
6.049544807965861, 703.0
6.047997724687145, 703.2
6.046451521182827, 703.4
6.044906196702672, 703.6
6.043361750497301, 703.8
6.041818181818182, 704.0
6.040275489917637, 704.2
6.038733674048836, 704.4
6.037192733465797, 704.6
6.035652667423383, 704.8
6.034113475177305, 705.0
6.032575155984118, 705.2
6.031037709101220, 705.4
6.029501133786848, 705.6
6.027965429300085, 705.8
6.026430594900850, 706.0
6.024896629849901, 706.2
6.023363533408834, 706.4
6.021831304840079, 706.6
6.020299943406905, 706.8
6.018769448373409, 707.0
6.017239819004525, 707.2
6.015711054566017, 707.4
6.014183154324477, 707.6
6.012656117547331, 707.8
6.011129943502826, 708.0
6.009604631460039, 708.2
6.008080180688877, 708.4
6.006556590460062, 708.6
6.005033860045147, 708.8
6.003511988716502, 709.0
6.001990975747321, 709.2
6.000470820411616, 709.4
5.998951521984217, 709.6
5.997433079740773, 709.8
5.995915492957747, 710.0
5.994398760912419, 710.2
5.992882882882883, 710.4
5.991367858148044, 710.6
5.989853685987621, 710.8
5.988340365682138, 711.0
5.986827896512936, 711.2
5.985316277762160, 711.4
5.983805508712760, 711.6
5.982295588648498, 711.8
5.980786516853933, 712.0
5.979278292614434, 712.2
5.977770915216171, 712.4
5.976264383946113, 712.6
5.974758698092032, 712.8
5.973253856942497, 713.0
5.971749859786876, 713.2
5.970246705915335, 713.4
5.968744394618835, 713.6
5.967242925189129, 713.8
5.965742296918767, 714.0
5.964242509101092, 714.2
5.962743561030235, 714.4
5.961245452001120, 714.6
5.959748181309457, 714.8
5.958251748251748, 715.0
5.956756152125280, 715.2
5.955261392228125, 715.4
5.953767467859139, 715.6
5.952274378317966, 715.8
5.950782122905029, 716.0
5.949290700921530, 716.2
5.947800111669459, 716.4
5.946310354451577, 716.6
5.944821428571429, 716.8
5.943333333333333, 717.0
5.941846068042387, 717.2
5.940359632004461, 717.4
5.938874024526198, 717.6
5.937389244915019, 717.8
5.935905292479109, 718.0
5.934422166527430, 718.2
5.932939866369711, 718.4
5.931458391316449, 718.6
5.929977740678910, 718.8
5.928497913769124, 719.0
5.927018909899889, 719.2
5.925540728384766, 719.4
5.924063368538077, 719.6
5.922586829674910, 719.8
5.921111111111111, 720.0
5.919636212163288, 720.2
5.918162132148806, 720.4
5.916688870385790, 720.6
5.915216426193119, 720.8
5.913744798890431, 721.0
5.912273987798114, 721.2
5.910803992237317, 721.4
5.909334811529933, 721.6
5.907866444998615, 721.8
5.906398891966759, 722.0
5.904932151758516, 722.2
5.903466223698782, 722.4
5.902001107113202, 722.6
5.900536801328169, 722.8
5.899073305670816, 723.0
5.897610619469027, 723.2
5.896148742051424, 723.4
5.894687672747374, 723.6
5.893227410886986, 723.8
5.891767955801106, 724.0
5.890309306821320, 724.2
5.888851463279956, 724.4
5.887394424510075, 724.6
5.885938189845476, 724.8
5.884482758620690, 725.0
5.883028130170987, 725.2
5.881574303832369, 725.4
5.880121278941566, 725.6
5.878669054836044, 725.8
5.877217630853995, 726.0
5.875767006334343, 726.2
5.874317180616741, 726.4
5.872868153041564, 726.6
5.871419922949918, 726.8
5.869972489683632, 727.0
5.868525852585258, 727.2
5.867080010998076, 727.4
5.865634964266080, 727.6
5.864190711733993, 727.8
5.862747252747253, 728.0
5.861304586652019, 728.2
5.859862712795168, 728.4
5.858421630524293, 728.6
5.856981339187707, 728.8
5.855541838134431, 729.0
5.854103126714207, 729.2
5.852665204277489, 729.4
5.851228070175439, 729.6
5.849791723759935, 729.8
5.848356164383562, 730.0
5.846921391399617, 730.2
5.845487404162103, 730.4
5.844054202025732, 730.6
5.842621784345923, 730.8
5.841190150478797, 731.0
5.839759299781182, 731.2
5.838329231610611, 731.4
5.836899945325315, 731.6
5.835471440284231, 731.8
5.834043715846994, 732.0
5.832616771373941, 732.2
5.831190606226106, 732.4
5.829765219765220, 732.6
5.828340611353712, 732.8
5.826916780354707, 733.0
5.825493726132024, 733.2
5.824071448050177, 733.4
5.822649945474373, 733.6
5.821229217770511, 733.8
5.819809264305177, 734.0
5.818390084445655, 734.2
5.816971677559914, 734.4
5.815554043016608, 734.6
5.814137180185085, 734.8
5.812721088435374, 735.0
5.811305767138194, 735.2
5.809891215664945, 735.4
5.808477433387710, 735.6
5.807064419679262, 735.8
5.805652173913044, 736.0
5.804240695463189, 736.2
5.802829983704509, 736.4
5.801420038012490, 736.6
5.800010857763302, 736.8
5.798602442333786, 737.0
5.797194791101465, 737.2
5.795787903444535, 737.4
5.794381778741866, 737.6
5.792976416373001, 737.8
5.791571815718157, 738.0
5.790167976158223, 738.2
5.788764897074756, 738.4
5.787362577849986, 738.6
5.785961017866811, 738.8
5.784560216508796, 739.0
5.783160173160173, 739.2
5.781760887205843, 739.4
5.780362358031368, 739.6
5.778964585022980, 739.8
5.777567567567568, 740.0
5.776171305052689, 740.2
5.774775796866559, 740.4
5.773381042398055, 740.6
5.771987041036717, 740.8
5.770593792172740, 741.0
5.769201295196978, 741.2
5.767809549500945, 741.4
5.766418554476807, 741.6
5.765028309517390, 741.8
5.763638814016173, 742.0
5.762250067367287, 742.2
5.760862068965518, 742.4
5.759474818206303, 742.6
5.758088314485731, 742.8
5.756702557200539, 743.0
5.755317545748116, 743.2
5.753933279526501, 743.4
5.752549757934373, 743.6
5.751166980371068, 743.8
5.749784946236559, 744.0
5.748403654931470, 744.2
5.747023105857067, 744.4
5.745643298415256, 744.6
5.744264232008594, 744.8
5.742885906040269, 745.0
5.741508319914117, 745.2
5.740131473034613, 745.4
5.738755364806867, 745.6
5.737379994636632, 745.8
5.736005361930295, 746.0
5.734631466094881, 746.2
5.733258306538049, 746.4
5.731885882668095, 746.6
5.730514193893948, 746.8
5.729143239625167, 747.0
5.727773019271948, 747.2
5.726403532245117, 747.4
5.725034777956126, 747.6
5.723666755817064, 747.8
5.722299465240642, 748.0
5.720932905640203, 748.2
5.719567076429717, 748.4
5.718201977023778, 748.6
5.716837606837608, 748.8
5.715473965287050, 749.0
5.714111051788574, 749.2
5.712748865759274, 749.4
5.711387406616862, 749.6
5.710026673779675, 749.8
5.708666666666667, 750.0
5.707307384697414, 750.2
5.705948827292112, 750.4
5.704590993871570, 750.6
5.703233883857219, 750.8
5.701877496671106, 751.0
5.700521831735889, 751.2
5.699166888474847, 751.4
5.697812666311868, 751.6
5.696459164671456, 751.8
5.695106382978723, 752.0
5.693754320659399, 752.2
5.692402977139820, 752.4
5.691052351846931, 752.6
5.689702444208289, 752.8
5.688353253652059, 753.0
5.687004779607010, 753.2
5.685657021502522, 753.4
5.684309978768578, 753.6
5.682963650835766, 753.8
5.681618037135279, 754.0
5.680273137098912, 754.2
5.678928950159067, 754.4
5.677585475748741, 754.6
5.676242713301537, 754.8
5.674900662251656, 755.0
5.673559322033898, 755.2
5.672218692083665, 755.4
5.670878771836951, 755.6
5.669539560730352, 755.8
5.668201058201059, 756.0
5.666863263686856, 756.2
5.665526176626124, 756.4
5.664189796457838, 756.6
5.662854122621565, 756.8
5.661519154557464, 757.0
5.660184891706287, 757.2
5.658851333509375, 757.4
5.657518479408659, 757.6
5.656186328846662, 757.8
5.654854881266491, 758.0
5.653524136111844, 758.2
5.652194092827004, 758.4
5.650864750856842, 758.6
5.649536109646811, 758.8
5.648208168642951, 759.0
5.646880927291886, 759.2
5.645554385040822, 759.4
5.644228541337546, 759.6
5.642903395630429, 759.8
5.641578947368421, 760.0
5.640255196001053, 760.2
5.638932140978433, 760.4
5.637609781751249, 760.6
5.636288117770769, 760.8
5.634967148488831, 761.0
5.633646873357856, 761.2
5.632327291830839, 761.4
5.631008403361345, 761.6
5.629690207403518, 761.8
5.628372703412074, 762.0
5.627055890842299, 762.2
5.625739769150053, 762.4
5.624424337791766, 762.6
5.623109596224437, 762.8
5.621795543905636, 763.0
5.620482180293501, 763.2
5.619169504846739, 763.4
5.617857517024620, 763.6
5.616546216286987, 763.8
5.615235602094241, 764.0
5.613925673907354, 764.2
5.612616431187861, 764.4
5.611307873397855, 764.6
5.610000000000000, 764.8
5.608692810457517, 765.0
5.607386304234187, 765.2
5.606080480794357, 765.4
5.604775339602926, 765.6
5.603470880125360, 765.8
5.602167101827677, 766.0
5.600864004176455, 766.2
5.599561586638831, 766.4
5.598259848682495, 766.6
5.596958789775692, 766.8
5.595658409387223, 767.0
5.594358706986444, 767.2
5.593059682043264, 767.4
5.591761334028140, 767.6
5.590463662412087, 767.8
5.589166666666667, 768.0
5.587870346263994, 768.2
5.586574700676731, 768.4
5.585279729378090, 768.6
5.583985431841832, 768.8
5.582691807542263, 769.0
5.581398855954238, 769.2
5.580106576553159, 769.4
5.578814968814969, 769.6
5.577524032216161, 769.8
5.576233766233766, 770.0
5.574944170345365, 770.2
5.573655244029077, 770.4
5.572366986763561, 770.6
5.571079398028023, 770.8
5.569792477302205, 771.0
5.568506224066391, 771.2
5.567220637801401, 771.4
5.565935717988595, 771.6
5.564651464109874, 771.8
5.563367875647669, 772.0
5.562084952084952, 772.2
5.560802692905231, 772.4
5.559521097592545, 772.6
5.558240165631471, 772.8
5.556959896507116, 773.0
5.555680289705122, 773.2
5.554401344711663, 773.4
5.553123061013443, 773.6
5.551845438097700, 773.8
5.550568475452197, 774.0
5.549292172565228, 774.2
5.548016528925620, 774.4
5.546741544022722, 774.6
5.545467217346412, 774.8
5.544193548387097, 775.0
5.542920536635707, 775.2
5.541648181583700, 775.4
5.540376482723054, 775.6
5.539105439546275, 775.8
5.537835051546392, 776.0
5.536565318216955, 776.2
5.535296239052036, 776.4
5.534027813546228, 776.6
5.532760041194646, 776.8
5.531492921492922, 777.0
5.530226453937210, 777.2
5.528960638024183, 777.4
5.527695473251029, 777.6
5.526430959115454, 777.8
5.525167095115681, 778.0
5.523903880750450, 778.2
5.522641315519014, 778.4
5.521379398921141, 778.6
5.520118130457115, 778.8
5.518857509627728, 779.0
5.517597535934292, 779.2
5.516338208878625, 779.4
5.515079527963058, 779.6
5.513821492690434, 779.8
5.512564102564103, 780.0
5.511307357087926, 780.2
5.510051255766274, 780.4
5.508795798104023, 780.6
5.507540983606558, 780.8
5.506286811779770, 781.0
5.505033282130056, 781.2
5.503780394164321, 781.4
5.502528147389969, 781.6
5.501276541314915, 781.8
5.500025575447570, 782.0
5.498775249296855, 782.2
5.497525562372188, 782.4
5.496276514183491, 782.6
5.495028104241186, 782.8
5.493780332056194, 783.0
5.492533197139939, 783.2
5.491286699004340, 783.4
5.490040837161818, 783.6
5.488795611125288, 783.8
5.487551020408164, 784.0
5.486307064524356, 784.2
5.485063742988272, 784.4
5.483821055314810, 784.6
5.482579001019369, 784.8
5.481337579617835, 785.0
5.480096790626592, 785.2
5.478856633562517, 785.4
5.477617107942974, 785.6
5.476378213285824, 785.8
5.475139949109415, 786.0
5.473902314932587, 786.2
5.472665310274670, 786.4
5.471428934655480, 786.6
5.470193187595323, 786.8
5.468958068614994, 787.0
5.467723577235772, 787.2
5.466489712979427, 787.4
5.465256475368207, 787.6
5.464023863924854, 787.8
5.462791878172589, 788.0
5.461560517635118, 788.2
5.460329781836632, 788.4
5.459099670301801, 788.6
5.457870182555782, 788.8
5.456641318124208, 789.0
5.455413076533199, 789.2
5.454185457309349, 789.4
5.452958459979737, 789.6
5.451732084071917, 789.8
5.450506329113924, 790.0
5.449281194634270, 790.2
5.448056680161944, 790.4
5.446832785226411, 790.6
5.445609509357613, 790.8
5.444386852085968, 791.0
5.443164812942366, 791.2
5.441943391458175, 791.4
5.440722587165235, 791.6
5.439502399595858, 791.8
5.438282828282828, 792.0
5.437063872759405, 792.2
5.435845532559314, 792.4
5.434627807216756, 792.6
5.433410696266399, 792.8
5.432194199243380, 793.0
5.430978315683308, 793.2
5.429763045122259, 793.4
5.428548387096774, 793.6
5.427334341143865, 793.8
5.426120906801008, 794.0
5.424908083606145, 794.2
5.423695871097684, 794.4
5.422484268814498, 794.6
5.421273276295924, 794.8
5.420062893081761, 795.0
5.418853118712273, 795.2
5.417643952728188, 795.4
5.416435394670689, 795.6
5.415227444081428, 795.8
5.414020100502513, 796.0
5.412813363476514, 796.2
5.411607232546459, 796.4
5.410401707255837, 796.6
5.409196787148595, 796.8
5.407992471769135, 797.0
5.406788760662318, 797.2
5.405585653373464, 797.4
5.404383149448345, 797.6
5.403181248433192, 797.8
5.401979949874687, 798.0
5.400779253319970, 798.2
5.399579158316634, 798.4
5.398379664412722, 798.6
5.397180771156735, 798.8
5.395982478097622, 799.0
5.394784784784785, 799.2
5.393587690768077, 799.4
5.392391195597799, 799.6
5.391195298824707, 799.8
5.390000000000001, 800.0
5.388805298675331, 800.2
5.387611194402799, 800.4
5.386417686734949, 800.6
5.385224775224776, 800.8
5.384032459425718, 801.0
5.382840738891662, 801.2
5.381649613176941, 801.4
5.380459081836327, 801.6
5.379269144425044, 801.8
5.378079800498753, 802.0
5.376891049613563, 802.2
5.375702891326022, 802.4
5.374515325193123, 802.6
5.373328350772297, 802.8
5.372141967621420, 803.0
5.370956175298804, 803.2
5.369770973363207, 803.4
5.368586361373818, 803.6
5.367402338890272, 803.8
5.366218905472637, 804.0
5.365036060681422, 804.2
5.363853804077574, 804.4
5.362672135222471, 804.6
5.361491053677933, 804.8
5.360310559006211, 805.0
5.359130650769995, 805.2
5.357951328532407, 805.4
5.356772591857001, 805.6
5.355594440307769, 805.8
5.354416873449132, 806.0
5.353239890845944, 806.2
5.352063492063492, 806.4
5.350887676667494, 806.6
5.349712444224096, 806.8
5.348537794299876, 807.0
5.347363726461843, 807.2
5.346190240277434, 807.4
5.345017335314513, 807.6
5.343845011141372, 807.8
5.342673267326733, 808.0
5.341502103439742, 808.2
5.340331519049975, 808.4
5.339161513727430, 808.6
5.337992087042533, 808.8
5.336823238566131, 809.0
5.335654967869501, 809.2
5.334487274524339, 809.4
5.333320158102767, 809.6
5.332153618177328, 809.8
5.330987654320988, 810.0
5.329822266107134, 810.2
5.328657453109576, 810.4
5.327493214902542, 810.6
5.326329551060681, 810.8
5.325166461159063, 811.0
5.324003944773176, 811.2
5.322842001478926, 811.4
5.321680630852637, 811.6
5.320519832471053, 811.8
5.319359605911330, 812.0
5.318199950751047, 812.2
5.317040866568194, 812.4
5.315882352941177, 812.6
5.314724409448820, 812.8
5.313567035670357, 813.0
5.312410231185440, 813.2
5.311253995574134, 813.4
5.310098328416912, 813.6
5.308943229294668, 813.8
5.307788697788698, 814.0
5.306634733480717, 814.2
5.305481335952849, 814.4
5.304328504787626, 814.6
5.303176239567993, 814.8
5.302024539877300, 815.0
5.300873405299313, 815.2
5.299722835418200, 815.4
5.298572829818538, 815.6
5.297423388085315, 815.8
5.296274509803922, 816.0
5.295126194560157, 816.2
5.293978441940226, 816.4
5.292831251530737, 816.6
5.291684622918708, 816.8
5.290538555691555, 817.0
5.289393049437102, 817.2
5.288248103743578, 817.4
5.287103718199609, 817.6
5.285959892394229, 817.8
5.284816625916871, 818.0
5.283673918357370, 818.2
5.282531769305963, 818.4
5.281390178353286, 818.6
5.280249145090377, 818.8
5.279108669108670, 819.0
5.277968750000000, 819.2
5.276829387356603, 819.4
5.275690580771108, 819.6
5.274552329836546, 819.8
5.273414634146341, 820.0
5.272277493294318, 820.2
5.271140906874695, 820.4
5.270004874482087, 820.6
5.268869395711501, 820.8
5.267734470158344, 821.0
5.266600097418412, 821.2
5.265466277087899, 821.4
5.264333008763389, 821.6
5.263200292041860, 821.8
5.262068126520681, 822.0
5.260936511797616, 822.2
5.259805447470818, 822.4
5.258674933138829, 822.6
5.257544968400584, 822.8
5.256415552855407, 823.0
5.255286686103013, 823.2
5.254158367743503, 823.4
5.253030597377368, 823.6
5.251903374605488, 823.8
5.250776699029126, 824.0
5.249650570249940, 824.2
5.248524987869967, 824.4
5.247399951491633, 824.6
5.246275460717750, 824.8
5.245151515151515, 825.0
5.244028114396510, 825.2
5.242905258056700, 825.4
5.241782945736435, 825.6
5.240661177040447, 825.8
5.239539951573851, 826.0
5.238419268942144, 826.2
5.237299128751211, 826.4
5.236179530607307, 826.6
5.235060474117079, 826.8
5.233941958887546, 827.0
5.232823984526112, 827.2
5.231706550640562, 827.4
5.230589656839053, 827.6
5.229473302730129, 827.8
5.228357487922706, 828.0
5.227242212026081, 828.2
5.226127474649928, 828.4
5.225013275404296, 828.6
5.223899613899614, 828.8
5.222786489746683, 829.0
5.221673902556681, 829.2
5.220561851941163, 829.4
5.219450337512054, 829.6
5.218339358881659, 829.8
5.217228915662651, 830.0
5.216119007468080, 830.2
5.215009633911368, 830.4
5.213900794606309, 830.6
5.212792489167068, 830.8
5.211684717208183, 831.0
5.210577478344562, 831.2
5.209470772191485, 831.4
5.208364598364598, 831.6
5.207258956479923, 831.8
5.206153846153846, 832.0
5.205049267003124, 832.2
5.203945218644883, 832.4
5.202841700696613, 832.6
5.201738712776177, 832.8
5.200636254501801, 833.0
5.199534325492079, 833.2
5.198432925365971, 833.4
5.197332053742802, 833.6
5.196231710242265, 833.8
5.195131894484413, 834.0
5.194032606089666, 834.2
5.192933844678811, 834.4
5.191835609872993, 834.6
5.190737901293724, 834.8
5.189640718562875, 835.0
5.188544061302682, 835.2
5.187447929135744, 835.4
5.186352321685017, 835.6
5.185257238573822, 835.8
5.184162679425838, 836.0
5.183068643865104, 836.2
5.181975131516022, 836.4
5.180882142003347, 836.6
5.179789674952199, 836.8
5.178697729988053, 837.0
5.177606306736742, 837.2
5.176515404824457, 837.4
5.175425023877746, 837.6
5.174335163523515, 837.8
5.173245823389022, 838.0
5.172157003101885, 838.2
5.171068702290077, 838.4
5.169980920581922, 838.6
5.168893657606104, 838.8
5.167806912991657, 839.0
5.166720686367969, 839.2
5.165634977364784, 839.4
5.164549785612197, 839.6
5.163465110740654, 839.8
5.162380952380953, 840.0
5.161297310164247, 840.2
5.160214183722037, 840.4
5.159131572686177, 840.6
5.158049476688868, 840.8
5.156967895362664, 841.0
5.155886828340466, 841.2
5.154806275255527, 841.4
5.153726235741445, 841.6
5.152646709432170, 841.8
5.151567695961996, 842.0
5.150489194965567, 842.2
5.149411206077874, 842.4
5.148333728934252, 842.6
5.147256763170385, 842.8
5.146180308422301, 843.0
5.145104364326376, 843.2
5.144028930519327, 843.4
5.142954006638218, 843.6
5.141879592320455, 843.8
5.140805687203792, 844.0
5.139732290926321, 844.2
5.138659403126481, 844.4
5.137587023443050, 844.6
5.136515151515152, 844.8
5.135443786982249, 845.0
5.134372929484146, 845.2
5.133302578660989, 845.4
5.132232734153265, 845.6
5.131163395601797, 845.8
5.130094562647755, 846.0
5.129026234932640, 846.2
5.127958412098299, 846.4
5.126891093786913, 846.6
5.125824279641002, 846.8
5.124757969303424, 847.0
5.123692162417375, 847.2
5.122626858626387, 847.4
5.121562057574327, 847.6
5.120497758905403, 847.8
5.119433962264151, 848.0
5.118370667295450, 848.2
5.117307873644508, 848.4
5.116245580956870, 848.6
5.115183788878417, 848.8
5.114122497055360, 849.0
5.113061705134244, 849.2
5.112001412761950, 849.4
5.110941619585687, 849.6
5.109882325253001, 849.8
5.108823529411765, 850.0
5.107765231710186, 850.2
5.106707431796802, 850.4
5.105650129320479, 850.6
5.104593323930419, 850.8
5.103537015276146, 851.0
5.102481203007519, 851.2
5.101425886774725, 851.4
5.100371066228276, 851.6
5.099316741019019, 851.8
5.098262910798122, 852.0
5.097209575217085, 852.2
5.096156733927734, 852.4
5.095104386582220, 852.6
5.094052532833021, 852.8
5.093001172332943, 853.0
5.091950304735115, 853.2
5.090899929692993, 853.4
5.089850046860357, 853.6
5.088800655891310, 853.8
5.087751756440281, 854.0
5.086703348162023, 854.2
5.085655430711611, 854.4
5.084608003744442, 854.6
5.083561066916238, 854.8
5.082514619883042, 855.0
5.081468662301216, 855.2
5.080423193827450, 855.4
5.079378214118747, 855.6
5.078333722832438, 855.8
5.077289719626169, 856.0
5.076246204157907, 856.2
5.075203176085942, 856.4
5.074160635068877, 856.6
5.073118580765640, 856.8
5.072077012835473, 857.0
5.071035930937938, 857.2
5.069995334732914, 857.4
5.068955223880597, 857.6
5.067915598041502, 857.8
5.066876456876457, 858.0
5.065837800046610, 858.2
5.064799627213421, 858.4
5.063761938038668, 858.6
5.062724732184444, 858.8
5.061688009313155, 859.0
5.060651769087523, 859.2
5.059616011170585, 859.4
5.058580735225687, 859.6
5.057545940916492, 859.8
5.056511627906978, 860.0
5.055477795861428, 860.2
5.054444444444445, 860.4
5.053411573320939, 860.6
5.052379182156135, 860.8
5.051347270615564, 861.0
5.050315838365072, 861.2
5.049284885070815, 861.4
5.048254410399258, 861.6
5.047224414017174, 861.8
5.046194895591648, 862.0
5.045165854790072, 862.2
5.044137291280149, 862.4
5.043109204729887, 862.6
5.042081594807604, 862.8
5.041054461181924, 863.0
5.040027803521779, 863.2
5.039001621496410, 863.4
5.037975914775359, 863.6
5.036950683028479, 863.8
5.035925925925926, 864.0
5.034901643138163, 864.2
5.033877834335956, 864.4
5.032854499190377, 864.6
5.031831637372804, 864.8
5.030809248554913, 865.0
5.029787332408691, 865.2
5.028765888606425, 865.4
5.027744916820702, 865.6
5.026724416724417, 865.8
5.025704387990762, 866.0
5.024684830293235, 866.2
5.023665743305633, 866.4
5.022647126702054, 866.6
5.021628980156899, 866.8
5.020611303344868, 867.0
5.019594095940960, 867.2
5.018577357620475, 867.4
5.017561088059014, 867.6
5.016545286932473, 867.8
5.015529953917051, 868.0
5.014515088689242, 868.2
5.013500690925841, 868.4
5.012486760303937, 868.6
5.011473296500921, 868.8
5.010460299194476, 869.0
5.009447768062587, 869.2
5.008435702783530, 869.4
5.007424103035879, 869.6
5.006412968498506, 869.8
5.005402298850575, 870.0
5.004392093771547, 870.2
5.003382352941177, 870.4
5.002373076039513, 870.6
5.001364262746900, 870.8
5.000355912743973, 871.0
4.999348025711662, 871.2
4.998340601331192, 871.4
4.997333639284076, 871.6
4.996327139252123, 871.8
4.995321100917431, 872.0
4.994315523962394, 872.2
4.993310408069693, 872.4
4.992305752922301, 872.6
4.991301558203483, 872.8
4.990297823596793, 873.0
4.989294548786074, 873.2
4.988291733455462, 873.4
4.987289377289377, 873.6
4.986287479972535, 873.8
4.985286041189932, 874.0
4.984285060626859, 874.2
4.983284537968894, 874.4
4.982284472901898, 874.6
4.981284865112026, 874.8
4.980285714285714, 875.0
4.979287020109689, 875.2
4.978288782270963, 875.4
4.977291000456829, 875.6
4.976293674354876, 875.8
4.975296803652968, 876.0
4.974300388039261, 876.2
4.973304427202192, 876.4
4.972308920830482, 876.6
4.971313868613139, 876.8
4.970319270239453, 877.0
4.969325125398997, 877.2
4.968331433781628, 877.4
4.967338195077485, 877.6
4.966345408976989, 877.8
4.965353075170843, 878.0
4.964361193350034, 878.2
4.963369763205829, 878.4
4.962378784429775, 878.6
4.961388256713701, 878.8
4.960398179749716, 879.0
4.959408553230209, 879.2
4.958419376847851, 879.4
4.957430650295589, 879.6
4.956442373266652, 879.8
4.955454545454546, 880.0
4.954467166553056, 880.2
4.953480236256247, 880.4
4.952493754258461, 880.6
4.951507720254315, 880.8
4.950522133938707, 881.0
4.949536995006809, 881.2
4.948552303154074, 881.4
4.947568058076225, 881.6
4.946584259469268, 881.8
4.945600907029479, 882.0
4.944618000453412, 882.2
4.943635539437897, 882.4
4.942653523680036, 882.6
4.941671952877210, 882.8
4.940690826727067, 883.0
4.939710144927536, 883.2
4.938729907176818, 883.4
4.937750113173382, 883.6
4.936770762615977, 883.8
4.935791855203620, 884.0
4.934813390635603, 884.2
4.933835368611488, 884.4
4.932857788831110, 884.6
4.931880650994575, 884.8
4.930903954802260, 885.0
4.929927699954813, 885.2
4.928951886153151, 885.4
4.927976513098464, 885.6
4.927001580492211, 885.8
4.926027088036117, 886.0
4.925053035432183, 886.2
4.924079422382672, 886.4
4.923106248590120, 886.6
4.922133513757331, 886.8
4.921161217587374, 887.0
4.920189359783589, 887.2
4.919217940049584, 887.4
4.918246958089229, 887.6
4.917276413606669, 887.8
4.916306306306307, 888.0
4.915336635892817, 888.2
4.914367402071139, 888.4
4.913398604546478, 888.6
4.912430243024303, 888.8
4.911462317210349, 889.0
4.910494826810616, 889.2
4.909527771531370, 889.4
4.908561151079136, 889.6
4.907594965160711, 889.8
4.906629213483146, 890.0
4.905663895753763, 890.2
4.904699011680144, 890.4
4.903734560970133, 890.6
4.902770543331837, 890.8
4.901806958473625, 891.0
4.900843806104129, 891.2
4.899881085932241, 891.4
4.898918797667116, 891.6
4.897956941018166, 891.8
4.896995515695068, 892.0
4.896034521407756, 892.2
4.895073957866428, 892.4
4.894113824781537, 892.6
4.893154121863800, 892.8
4.892194848824189, 893.0
4.891236005373936, 893.2
4.890277591224536, 893.4
4.889319606087735, 893.6
4.888362049675544, 893.8
4.887404921700224, 894.0
4.886448221874301, 894.2
4.885491949910555, 894.4
4.884536105522021, 894.6
4.883580688421994, 894.8
4.882625698324023, 895.0
4.881671134941913, 895.2
4.880716997989726, 895.4
4.879763287181778, 895.6
4.878810002232642, 895.8
4.877857142857144, 896.0
4.876904708770364, 896.2
4.875952699687640, 896.4
4.875001115324560, 896.6
4.874049955396967, 896.8
4.873099219620959, 897.0
4.872148907712885, 897.2
4.871199019389348, 897.4
4.870249554367201, 897.6
4.869300512363556, 897.8
4.868351893095769, 898.0
4.867403696281452, 898.2
4.866455921638469, 898.4
4.865508568884932, 898.6
4.864561637739208, 898.8
4.863615127919911, 899.0
4.862669039145907, 899.2
4.861723371136313, 899.4
4.860778123610494, 899.6
4.859833296288064, 899.8
4.858888888888889, 900.0
4.857944901133082, 900.2
4.857001332741004, 900.4
4.856058183433267, 900.6
4.855115452930729, 900.8
4.854173140954495, 901.0
4.853231247225921, 901.2
4.852289771466608, 901.4
4.851348713398403, 901.6
4.850408072743402, 901.8
4.849467849223947, 902.0
4.848528042562624, 902.2
4.847588652482270, 902.4
4.846649678705961, 902.6
4.845711120957023, 902.8
4.844772978959026, 903.0
4.843835252435784, 903.2
4.842897941111358, 903.4
4.841961044710049, 903.6
4.841024562956407, 903.8
4.840088495575221, 904.0
4.839152842291528, 904.2
4.838217602830606, 904.4
4.837282776917975, 904.6
4.836348364279400, 904.8
4.835414364640885, 905.0
4.834480777728679, 905.2
4.833547603269274, 905.4
4.832614840989399, 905.6
4.831682490616030, 905.8
4.830750551876380, 906.0
4.829819024497904, 906.2
4.828887908208297, 906.4
4.827957202735496, 906.6
4.827026907807676, 906.8
4.826097023153253, 907.0
4.825167548500882, 907.2
4.824238483579459, 907.4
4.823309828118114, 907.6
4.822381581846222, 907.8
4.821453744493392, 908.0
4.820526315789474, 908.2
4.819599295464553, 908.4
4.818672683248955, 908.6
4.817746478873240, 908.8
4.816820682068207, 909.0
4.815895292564893, 909.2
4.814970310094568, 909.4
4.814045734388743, 909.6
4.813121565179161, 909.8
4.812197802197803, 910.0
4.811274445176885, 910.2
4.810351493848858, 910.4
4.809428947946409, 910.6
4.808506807202460, 910.8
4.807585071350165, 911.0
4.806663740122915, 911.2
4.805742813254335, 911.4
4.804822290478280, 911.6
4.803902171528844, 911.8
4.802982456140351, 912.0
4.802063144047358, 912.2
4.801144234984656, 912.4
4.800225728687267, 912.6
4.799307624890448, 912.8
4.798389923329682, 913.0
4.797472623740692, 913.2
4.796555725859426, 913.4
4.795639229422067, 913.6
4.794723134165026, 913.8
4.793807439824946, 914.0
4.792892146138700, 914.2
4.791977252843395, 914.4
4.791062759676361, 914.6
4.790148666375164, 914.8
4.789234972677596, 915.0
4.788321678321679, 915.2
4.787408783045663, 915.4
4.786496286588030, 915.6
4.785584188687487, 915.8
4.784672489082970, 916.0
4.783761187513643, 916.2
4.782850283718901, 916.4
4.781939777438359, 916.6
4.781029668411868, 916.8
4.780119956379498, 917.0
4.779210641081552, 917.2
4.778301722258557, 917.4
4.777393199651264, 917.6
4.776485073000655, 917.8
4.775577342047931, 918.0
4.774670006534524, 918.2
4.773763066202091, 918.4
4.772856520792510, 918.6
4.771950370047889, 918.8
4.771044613710555, 919.0
4.770139251523064, 919.2
4.769234283228193, 919.4
4.768329708568944, 919.6
4.767425527288541, 919.8
4.766521739130435, 920.0
4.765618343838296, 920.2
4.764715341156020, 920.4
4.763812730827722, 920.6
4.762910512597742, 920.8
4.762008686210641, 921.0
4.761107251411203, 921.2
4.760206207944432, 921.4
4.759305555555556, 921.6
4.758405293990020, 921.8
4.757505422993493, 922.0
4.756605942311863, 922.2
4.755706851691241, 922.4
4.754808150877953, 922.6
4.753909839618553, 922.8
4.753011917659805, 923.0
4.752114384748700, 923.2
4.751217240632446, 923.4
4.750320485058467, 923.6
4.749424117774411, 923.8
4.748528138528139, 924.0
4.747632547067735, 924.2
4.746737343141498, 924.4
4.745842526497945, 924.6
4.744948096885814, 924.8
4.744054054054055, 925.0
4.743160397751837, 925.2
4.742267127728550, 925.4
4.741374243733794, 925.6
4.740481745517391, 925.8
4.739589632829374, 926.0
4.738697905419996, 926.2
4.737806563039724, 926.4
4.736915605439241, 926.6
4.736025032369444, 926.8
4.735134843581446, 927.0
4.734245038826574, 927.2
4.733355617856373, 927.4
4.732466580422596, 927.6
4.731577926277216, 927.8
4.730689655172414, 928.0
4.729801766860590, 928.2
4.728914261094356, 928.4
4.728027137626535, 928.6
4.727140396210165, 928.8
4.726254036598493, 929.0
4.725368058544985, 929.2
4.724482461803315, 929.4
4.723597246127367, 929.6
4.722712411271242, 929.8
4.721827956989248, 930.0
4.720943883035907, 930.2
4.720060189165951, 930.4
4.719176875134322, 930.6
4.718293940696176, 930.8
4.717411385606875, 931.0
4.716529209621993, 931.2
4.715647412497316, 931.4
4.714765993988837, 931.6
4.713884953852759, 931.8
4.713004291845494, 932.0
4.712124007723665, 932.2
4.711244101244102, 932.4
4.710364572163844, 932.6
4.709485420240138, 932.8
4.708606645230439, 933.0
4.707728246892414, 933.2
4.706850224983930, 933.4
4.705972579263068, 933.6
4.705095309488113, 933.8
4.704218415417559, 934.0
4.703341896810105, 934.2
4.702465753424658, 934.4
4.701589985020330, 934.6
4.700714591356441, 934.8
4.699839572192514, 935.0
4.698964927288281, 935.2
4.698090656403678, 935.4
4.697216759298846, 935.6
4.696343235734131, 935.8
4.695470085470085, 936.0
4.694597308267464, 936.2
4.693724903887228, 936.4
4.692852872090540, 936.6
4.691981212638771, 936.8
4.691109925293490, 937.0
4.690239009816475, 937.2
4.689368465969704, 937.4
4.688498293515359, 937.6
4.687628492215825, 937.8
4.686759061833689, 938.0
4.685890002131742, 938.2
4.685021312872975, 938.4
4.684152993820584, 938.6
4.683285044737964, 938.8
4.682417465388712, 939.0
4.681550255536627, 939.2
4.680683414945711, 939.4
4.679816943380162, 939.6
4.678950840604385, 939.8
4.678085106382979, 940.0
4.677219740480749, 940.2
4.676354742662697, 940.4
4.675490112694026, 940.6
4.674625850340137, 940.8
4.673761955366632, 941.0
4.672898427539312, 941.2
4.672035266624177, 941.4
4.671172472387426, 941.6
4.670310044595456, 941.8
4.669447983014862, 942.0
4.668586287412439, 942.2
4.667724957555179, 942.4
4.666863993210270, 942.6
4.666003394145100, 942.8
4.665143160127254, 943.0
4.664283290924512, 943.2
4.663423786304855, 943.4
4.662564646036456, 943.6
4.661705869887689, 943.8
4.660847457627119, 944.0
4.659989409023512, 944.2
4.659131723845828, 944.4
4.658274401863223, 944.6
4.657417442845047, 944.8
4.656560846560847, 945.0
4.655704612780364, 945.2
4.654848741273535, 945.4
4.653993231810491, 945.6
4.653138084161557, 945.8
4.652283298097251, 946.0
4.651428873388290, 946.2
4.650574809805580, 946.4
4.649721107120220, 946.6
4.648867765103507, 946.8
4.648014783526928, 947.0
4.647162162162163, 947.2
4.646309900781086, 947.4
4.645457999155762, 947.6
4.644606457058452, 947.8
4.643755274261603, 948.0
4.642904450537861, 948.2
4.642053985660059, 948.4
4.641203879401223, 948.6
4.640354131534570, 948.8
4.639504741833509, 949.0
4.638655710071640, 949.2
4.637807036022751, 949.4
4.636958719460826, 949.6
4.636110760160034, 949.8
4.635263157894737, 950.0
4.634415912439486, 950.2
4.633569023569024, 950.4
4.632722491058280, 950.6
4.631876314682374, 950.8
4.631030494216614, 951.0
4.630185029436501, 951.2
4.629339920117721, 951.4
4.628495166036150, 951.6
4.627650766967851, 951.8
4.626806722689076, 952.0
4.625963032976266, 952.2
4.625119697606048, 952.4
4.624276716355238, 952.6
4.623434089000840, 952.8
4.622591815320042, 953.0
4.621749895090223, 953.2
4.620908328088945, 953.4
4.620067114093960, 953.6
4.619226252883204, 953.8
4.618385744234801, 954.0
4.617545587927060, 954.2
4.616705783738475, 954.4
4.615866331447727, 954.6
4.615027230833683, 954.8
4.614188481675393, 955.0
4.613350083752094, 955.2
4.612512036843207, 955.4
4.611674340728339, 955.6
4.610836995187278, 955.8
4.610000000000000, 956.0
4.609163354946664, 956.2
4.608327059807612, 956.4
4.607491114363370, 956.6
4.606655518394649, 956.8
4.605820271682341, 957.0
4.604985374007522, 957.2
4.604150825151452, 957.4
4.603316624895572, 957.6
4.602482773021508, 957.8
4.601649269311065, 958.0
4.600816113546232, 958.2
4.599983305509182, 958.4
4.599150844982266, 958.6
4.598318731748019, 958.8
4.597486965589155, 959.0
4.596655546288574, 959.2
4.595824473629352, 959.4
4.594993747394748, 959.6
4.594163367368202, 959.8
4.593333333333334, 960.0
4.592503645073942, 960.2
4.591674302374011, 960.4
4.590845305017697, 960.6
4.590016652789343, 960.8
4.589188345473465, 961.0
4.588360382854765, 961.2
4.587532764718119, 961.4
4.586705490848586, 961.6
4.585878561031400, 961.8
4.585051975051975, 962.0
4.584225732695905, 962.2
4.583399833748961, 962.4
4.582574277997091, 962.6
4.581749065226423, 962.8
4.580924195223261, 963.0
4.580099667774086, 963.2
4.579275482665560, 963.4
4.578451639684516, 963.6
4.577628138617971, 963.8
4.576804979253112, 964.0
4.575982161377308, 964.2
4.575159684778100, 964.4
4.574337549243210, 964.6
4.573515754560531, 964.8
4.572694300518135, 965.0
4.571873186904268, 965.2
4.571052413507354, 965.4
4.570231980115990, 965.6
4.569411886518949, 965.8
4.568592132505176, 966.0
4.567772717863797, 966.2
4.566953642384106, 966.4
4.566134905855576, 966.6
4.565316508067853, 966.8
4.564498448810755, 967.0
4.563680727874276, 967.2
4.562863345048584, 967.4
4.562046300124019, 967.6
4.561229592891094, 967.8
4.560413223140496, 968.0
4.559597190663086, 968.2
4.558781495249897, 968.4
4.557966136692133, 968.6
4.557151114781173, 968.8
4.556336429308566, 969.0
4.555522080066034, 969.2
4.554708066845472, 969.4
4.553894389438944, 969.6
4.553081047638688, 969.8
4.552268041237114, 970.0
4.551455370026798, 970.2
4.550643033800495, 970.4
4.549831032351123, 970.6
4.549019365471776, 970.8
4.548208032955716, 971.0
4.547397034596376, 971.2
4.546586370187359, 971.4
4.545776039522437, 971.6
4.544966042395555, 971.8
4.544156378600823, 972.0
4.543347047932524, 972.2
4.542538050185109, 972.4
4.541729385153197, 972.6
4.540921052631579, 972.8
4.540113052415211, 973.0
4.539305384299219, 973.2
4.538498048078899, 973.4
4.537691043549712, 973.6
4.536884370507291, 973.8
4.536078028747434, 974.0
4.535272018066105, 974.2
4.534466338259442, 974.4
4.533660989123743, 974.6
4.532855970455478, 974.8
4.532051282051282, 975.0
4.531246923707958, 975.2
4.530442895222473, 975.4
4.529639196391964, 975.6
4.528835827013733, 975.8
4.528032786885246, 976.0
4.527230075804138, 976.2
4.526427693568210, 976.4
4.525625639975425, 976.6
4.524823914823915, 976.8
4.524022517911976, 977.0
4.523221449038068, 977.2
4.522420708000818, 977.4
4.521620294599018, 977.6
4.520820208631623, 977.8
4.520020449897751, 978.0
4.519221018196688, 978.2
4.518421913327883, 978.4
4.517623135090946, 978.6
4.516824683285656, 978.8
4.516026557711951, 979.0
4.515228758169934, 979.2
4.514431284459874, 979.4
4.513634136382197, 979.6
4.512837313737498, 979.8
4.512040816326531, 980.0
4.511244643950215, 980.2
4.510448796409629, 980.4
4.509653273506017, 980.6
4.508858075040783, 980.8
4.508063200815495, 981.0
4.507268650631879, 981.2
4.506474424291828, 981.4
4.505680521597392, 981.6
4.504886942350785, 981.8
4.504093686354379, 982.0
4.503300753410711, 982.2
4.502508143322475, 982.4
4.501715855892530, 982.6
4.500923890923891, 982.8
4.500132248219735, 983.0
4.499340927583401, 983.2
4.498549928818385, 983.4
4.497759251728345, 983.6
4.496968896117097, 983.8
4.496178861788618, 984.0
4.495389148547043, 984.2
4.494599756196668, 984.4
4.493810684541946, 984.6
4.493021933387491, 984.8
4.492233502538071, 985.0
4.491445391798620, 985.2
4.490657600974224, 985.4
4.489870129870130, 985.6
4.489082978291743, 985.8
4.488296146044624, 986.0
4.487509632934496, 986.2
4.486723438767235, 986.4
4.485937563348875, 986.6
4.485152006485611, 986.8
4.484366767983789, 987.0
4.483581847649919, 987.2
4.482797245290662, 987.4
4.482012960712839, 987.6
4.481228993723426, 987.8
4.480445344129555, 988.0
4.479662011738514, 988.2
4.478878996357750, 988.4
4.478096297794862, 988.6
4.477313915857605, 988.8
4.476531850353893, 989.0
4.475750101091791, 989.2
4.474968667879523, 989.4
4.474187550525465, 989.6
4.473406748838149, 989.8
4.472626262626263, 990.0
4.471846091698646, 990.2
4.471066235864297, 990.4
4.470286694932364, 990.6
4.469507468712152, 990.8
4.468728557013118, 991.0
4.467949959644875, 991.2
4.467171676417188, 991.4
4.466393707139976, 991.6
4.465616051623312, 991.8
4.464838709677419, 992.0
4.464061681112679, 992.2
4.463284965739621, 992.4
4.462508563368930, 992.6
4.461732473811443, 992.8
4.460956696878148, 993.0
4.460181232380185, 993.2
4.459406080128851, 993.4
4.458631239935587, 993.6
4.457856711611995, 993.8
4.457082494969819, 994.0
4.456308589820962, 994.2
4.455534995977474, 994.4
4.454761713251559, 994.6
4.453988741455570, 994.8
4.453216080402010, 995.0
4.452443729903537, 995.2
4.451671689772955, 995.4
4.450899959823222, 995.6
4.450128539867444, 995.8
4.449357429718876, 996.0
4.448586629190926, 996.2
4.447816138097150, 996.4
4.447045956251254, 996.6
4.446276083467095, 996.8
4.445506519558676, 997.0
4.444737264340152, 997.2
4.443968317625828, 997.4
4.443199679230152, 997.6
4.442431348967729, 997.8
4.441663326653306, 998.0
4.440895612101783, 998.2
4.440128205128206, 998.4
4.439361105547767, 998.6
4.438594313175812, 998.8
4.437827827827828, 999.0
4.437061649319456, 999.2
4.436295777466480, 999.4
4.435530212084834, 999.6
4.434764952990599, 999.8
4.434000000000000, 1000.0
4.433235352929414, 1000.2
4.432471011595362, 1000.4
4.431706975814511, 1000.6
4.430943245403677, 1000.8
4.430179820179820, 1001.0
4.429416699960048, 1001.2
4.428653884561614, 1001.4
4.427891373801917, 1001.6
4.427129167498503, 1001.8
4.426367265469062, 1002.0
4.425605667531431, 1002.2
4.424844373503592, 1002.4
4.424083383203670, 1002.6
4.423322696449940, 1002.8
4.422562313060817, 1003.0
4.421802232854865, 1003.2
4.421042455650787, 1003.4
4.420282981267437, 1003.6
4.419523809523810, 1003.8
4.418764940239044, 1004.0
4.418006373232424, 1004.2
4.417248108323378, 1004.4
4.416490145331475, 1004.6
4.415732484076433, 1004.8
4.414975124378110, 1005.0
4.414218066056506, 1005.2
4.413461308931769, 1005.4
4.412704852824184, 1005.6
4.411948697554186, 1005.8
4.411192842942346, 1006.0
4.410437288809382, 1006.2
4.409682034976153, 1006.4
4.408927081263660, 1006.6
4.408172427493048, 1006.8
4.407418073485601, 1007.0
4.406664019062748, 1007.2
4.405910264046059, 1007.4
4.405156808257245, 1007.6
4.404403651518159, 1007.8
4.403650793650794, 1008.0
4.402898234477286, 1008.2
4.402145973819913, 1008.4
4.401394011501091, 1008.6
4.400642347343378, 1008.8
4.399890981169475, 1009.0
4.399139912802219, 1009.2
4.398389142064593, 1009.4
4.397638668779715, 1009.6
4.396888492770846, 1009.8
4.396138613861386, 1010.0
4.395389031874876, 1010.2
4.394639746634996, 1010.4
4.393890757965565, 1010.6
4.393142065690542, 1010.8
4.392393669634026, 1011.0
4.391645569620253, 1011.2
4.390897765473601, 1011.4
4.390150257018584, 1011.6
4.389403044079858, 1011.8
4.388656126482213, 1012.0
4.387909504050583, 1012.2
4.387163176610036, 1012.4
4.386417143985780, 1012.6
4.385671406003159, 1012.8
4.384925962487660, 1013.0
4.384180813264903, 1013.2
4.383435958160647, 1013.4
4.382691397000789, 1013.6
4.381947129611364, 1013.8
4.381203155818540, 1014.0
4.380459475448629, 1014.2
4.379716088328076, 1014.4
4.378972994283462, 1014.6
4.378230193141506, 1014.8
4.377487684729064, 1015.0
4.376745468873128, 1015.2
4.376003545400827, 1015.4
4.375261914139425, 1015.6
4.374520574916322, 1015.8
4.373779527559055, 1016.0
4.373038771895296, 1016.2
4.372298307752853, 1016.4
4.371558134959669, 1016.6
4.370818253343824, 1016.8
4.370078662733530, 1017.0
4.369339362957137, 1017.2
4.368600353843130, 1017.4
4.367861635220126, 1017.6
4.367123206916879, 1017.8
4.366385068762279, 1018.0
4.365647220585346, 1018.2
4.364909662215240, 1018.4
4.364172393481248, 1018.6
4.363435414212800, 1018.8
4.362698724239451, 1019.0
4.361962323390895, 1019.2
4.361226211496959, 1019.4
4.360490388387603, 1019.6
4.359754853892921, 1019.8
4.359019607843138, 1020.0
4.358284650068614, 1020.2
4.357549980399844, 1020.4
4.356815598667451, 1020.6
4.356081504702194, 1020.8
4.355347698334966, 1021.0
4.354614179396788, 1021.2
4.353880947718817, 1021.4
4.353148003132342, 1021.6
4.352415345468781, 1021.8
4.351682974559687, 1022.0
4.350950890236744, 1022.2
4.350219092331769, 1022.4
4.349487580676707, 1022.6
4.348756355103637, 1022.8
4.348025415444770, 1023.0
4.347294761532448, 1023.2
4.346564393199141, 1023.4
4.345834310277452, 1023.6
4.345104512600117, 1023.8
4.344375000000000, 1024.0
4.343645772310095, 1024.2
4.342916829363530, 1024.4
4.342188170993559, 1024.6
4.341459797033568, 1024.8
4.340731707317073, 1025.0
4.340003901677721, 1025.2
4.339276379949288, 1025.4
4.338549141965679, 1025.6
4.337822187560929, 1025.8
4.337095516569200, 1026.0
4.336369128824790, 1026.2
4.335643024162120, 1026.4
4.334917202415742, 1026.6
4.334191663420335, 1026.8
4.333466407010711, 1027.0
4.332741433021806, 1027.2
4.332016741288689, 1027.4
4.331292331646556, 1027.6
4.330568203930726, 1027.8
4.329844357976654, 1028.0
4.329120793619918, 1028.2
4.328397510696227, 1028.4
4.327674509041416, 1028.6
4.326951788491447, 1028.8
4.326229348882411, 1029.0
4.325507190050525, 1029.2
4.324785311832135, 1029.4
4.324063714063715, 1029.6
4.323342396581861, 1029.8
4.322621359223301, 1030.0
4.321900601824888, 1030.2
4.321180124223602, 1030.4
4.320459926256550, 1030.6
4.319740007760963, 1030.8
4.319020368574200, 1031.0
4.318301008533747, 1031.2
4.317581927477216, 1031.4
4.316863125242342, 1031.6
4.316144601666990, 1031.8
4.315426356589147, 1032.0
4.314708389846929, 1032.2
4.313990701278574, 1032.4
4.313273290722448, 1032.6
4.312556158017041, 1032.8
4.311839303000968, 1033.0
4.311122725512969, 1033.2
4.310406425391910, 1033.4
4.309690402476781, 1033.6
4.308974656606694, 1033.8
4.308259187620890, 1034.0
4.307543995358731, 1034.2
4.306829079659706, 1034.4
4.306114440363426, 1034.6
4.305400077309625, 1034.8
4.304685990338164, 1035.0
4.303972179289026, 1035.2
4.303258644002318, 1035.4
4.302545384318270, 1035.6
4.301832400077235, 1035.8
4.301119691119691, 1036.0
4.300407257286238, 1036.2
4.299695098417599, 1036.4
4.298983214354621, 1036.6
4.298271604938272, 1036.8
4.297560270009643, 1037.0
4.296849209409950, 1037.2
4.296138422980528, 1037.4
4.295427910562838, 1037.6
4.294717671998458, 1037.8
4.294007707129095, 1038.0
4.293298015796571, 1038.2
4.292588597842835, 1038.4
4.291879453109956, 1038.6
4.291170581440124, 1038.8
4.290461982675650, 1039.0
4.289753656658968, 1039.2
4.289045603232634, 1039.4
4.288337822239323, 1039.6
4.287630313521832, 1039.8
4.286923076923077, 1040.0
4.286216112286099, 1040.2
4.285509419454056, 1040.4
4.284802998270229, 1040.6
4.284096848578018, 1040.8
4.283390970220942, 1041.0
4.282685363042643, 1041.2
4.281980026886883, 1041.4
4.281274961597543, 1041.6
4.280570167018622, 1041.8
4.279865642994242, 1042.0
4.279161389368643, 1042.2
4.278457405986186, 1042.4
4.277753692691349, 1042.6
4.277050249328731, 1042.8
4.276347075743049, 1043.0
4.275644171779141, 1043.2
4.274941537281963, 1043.4
4.274239172096589, 1043.6
4.273537076068212, 1043.8
4.272835249042146, 1044.0
4.272133690863819, 1044.2
4.271432401378782, 1044.4
4.270731380432702, 1044.6
4.270030627871363, 1044.8
4.269330143540670, 1045.0
4.268629927286644, 1045.2
4.267929978955424, 1045.4
4.267230298393267, 1045.6
4.266530885446548, 1045.8
4.265831739961759, 1046.0
4.265132861785509, 1046.2
4.264434250764526, 1046.4
4.263735906745653, 1046.6
4.263037829575850, 1046.8
4.262340019102197, 1047.0
4.261642475171887, 1047.2
4.260945197632232, 1047.4
4.260248186330661, 1047.6
4.259551441114716, 1047.8
4.258854961832061, 1048.0
4.258158748330471, 1048.2
4.257462800457840, 1048.4
4.256767118062179, 1048.6
4.256071700991610, 1048.8
4.255376549094375, 1049.0
4.254681662218833, 1049.2
4.253987040213455, 1049.4
4.253292682926830, 1049.6
4.252598590207659, 1049.8
4.251904761904762, 1050.0
4.251211197867073, 1050.2
4.250517897943641, 1050.4
4.249824861983629, 1050.6
4.249132089836316, 1050.8
4.248439581351095, 1051.0
4.247747336377473, 1051.2
4.247055354765075, 1051.4
4.246363636363637, 1051.6
4.245672181023008, 1051.8
4.244980988593156, 1052.0
4.244290058924159, 1052.2
4.243599391866210, 1052.4
4.242908987269619, 1052.6
4.242218844984802, 1052.8
4.241528964862298, 1053.0
4.240839346752754, 1053.2
4.240149990506930, 1053.4
4.239460895975703, 1053.6
4.238772063010059, 1053.8
4.238083491461101, 1054.0
4.237395181180042, 1054.2
4.236707132018209, 1054.4
4.236019343827044, 1054.6
4.235331816458096, 1054.8
4.234644549763034, 1055.0
4.233957543593632, 1055.2
4.233270797801781, 1055.4
4.232584312239485, 1055.6
4.231898086758856, 1055.8
4.231212121212121, 1056.0
4.230526415451619, 1056.2
4.229840969329799, 1056.4
4.229155782699224, 1056.6
4.228470855412566, 1056.8
4.227786187322612, 1057.0
4.227101778282255, 1057.2
4.226417628144505, 1057.4
4.225733736762481, 1057.6
4.225050103989412, 1057.8
4.224366729678639, 1058.0
4.223683613683614, 1058.2
4.223000755857899, 1058.4
4.222318156055167, 1058.6
4.221635814129203, 1058.8
4.220953729933900, 1059.0
4.220271903323263, 1059.2
4.219590334151406, 1059.4
4.218909022272556, 1059.6
4.218227967541046, 1059.8
4.217547169811321, 1060.0
4.216866628937936, 1060.2
4.216186344775556, 1060.4
4.215506317178956, 1060.6
4.214826546003017, 1060.8
4.214147031102733, 1061.0
4.213467772333208, 1061.2
4.212788769549651, 1061.4
4.212110022607385, 1061.6
4.211431531361838, 1061.8
4.210753295668550, 1062.0
4.210075315383167, 1062.2
4.209397590361446, 1062.4
4.208720120459251, 1062.6
4.208042905532555, 1062.8
4.207365945437441, 1063.0
4.206689240030098, 1063.2
4.206012789166823, 1063.4
4.205336592704024, 1063.6
4.204660650498214, 1063.8
4.203984962406015, 1064.0
4.203309528284157, 1064.2
4.202634347989477, 1064.4
4.201959421378922, 1064.6
4.201284748309542, 1064.8
4.200610328638498, 1065.0
4.199936162223056, 1065.2
4.199262248920593, 1065.4
4.198588588588589, 1065.6
4.197915181084632, 1065.8
4.197242026266417, 1066.0
4.196569123991746, 1066.2
4.195896474118530, 1066.4
4.195224076504782, 1066.6
4.194551931008625, 1066.8
4.193880037488285, 1067.0
4.193208395802099, 1067.2
4.192537005808506, 1067.4
4.191865867366055, 1067.6
4.191194980333396, 1067.8
4.190524344569289, 1068.0
4.189853959932597, 1068.2
4.189183826282291, 1068.4
4.188513943477448, 1068.6
4.187844311377246, 1068.8
4.187174929840973, 1069.0
4.186505798728021, 1069.2
4.185836917897887, 1069.4
4.185168287210172, 1069.6
4.184499906524584, 1069.8
4.183831775700935, 1070.0
4.183163894599140, 1070.2
4.182496263079223, 1070.4
4.181828881001308, 1070.6
4.181161748225626, 1070.8
4.180494864612512, 1071.0
4.179828230022404, 1071.2
4.179161844315848, 1071.4
4.178495707353490, 1071.6
4.177829818996082, 1071.8
4.177164179104477, 1072.0
4.176498787539638, 1072.2
4.175833644162625, 1072.4
4.175168748834608, 1072.6
4.174504101416853, 1072.8
4.173839701770737, 1073.0
4.173175549757734, 1073.2
4.172511645239426, 1073.4
4.171847988077497, 1073.6
4.171184578133731, 1073.8
4.170521415270018, 1074.0
4.169858499348353, 1074.2
4.169195830230827, 1074.4
4.168533407779639, 1074.6
4.167871231857090, 1074.8
4.167209302325581, 1075.0
4.166547619047619, 1075.2
4.165886181885810, 1075.4
4.165224990702864, 1075.6
4.164564045361591, 1075.8
4.163903345724907, 1076.0
4.163242891655826, 1076.2
4.162582683017465, 1076.4
4.161922719673045, 1076.6
4.161263001485884, 1076.8
4.160603528319406, 1077.0
4.159944300037133, 1077.2
4.159285316502691, 1077.4
4.158626577579807, 1077.6
4.157968083132307, 1077.8
4.157309833024119, 1078.0
4.156651827119273, 1078.2
4.155994065281899, 1078.4
4.155336547376229, 1078.6
4.154679273266593, 1078.8
4.154022242817423, 1079.0
4.153365455893254, 1079.2
4.152708912358718, 1079.4
4.152052612078548, 1079.6
4.151396554917578, 1079.8
4.150740740740741, 1080.0
4.150085169413072, 1080.2
4.149429840799703, 1080.4
4.148774754765872, 1080.6
4.148119911176906, 1080.8
4.147465309898243, 1081.0
4.146810950795413, 1081.2
4.146156833734048, 1081.4
4.145502958579882, 1081.6
4.144849325198743, 1081.8
4.144195933456562, 1082.0
4.143542783219368, 1082.2
4.142889874353289, 1082.4
4.142237206724553, 1082.6
4.141584780199483, 1082.8
4.140932594644506, 1083.0
4.140280649926145, 1083.2
4.139628945911021, 1083.4
4.138977482465855, 1083.6
4.138326259457465, 1083.8
4.137675276752768, 1084.0
4.137024534218779, 1084.2
4.136374031722611, 1084.4
4.135723769131477, 1084.6
4.135073746312685, 1084.8
4.134423963133640, 1085.0
4.133774419461850, 1085.2
4.133125115164916, 1085.4
4.132476050110538, 1085.6
4.131827224166513, 1085.8
4.131178637200737, 1086.0
4.130530289081200, 1086.2
4.129882179675993, 1086.4
4.129234308853304, 1086.6
4.128586676481413, 1086.8
4.127939282428703, 1087.0
4.127292126563650, 1087.2
4.126645208754828, 1087.4
4.125998528870909, 1087.6
4.125352086780659, 1087.8
4.124705882352941, 1088.0
4.124059915456717, 1088.2
4.123414185961043, 1088.4
4.122768693735073, 1088.6
4.122123438648053, 1088.8
4.121478420569329, 1089.0
4.120833639368343, 1089.2
4.120189094914632, 1089.4
4.119544787077827, 1089.6
4.118900715727657, 1089.8
4.118256880733945, 1090.0
4.117613281966611, 1090.2
4.116969919295671, 1090.4
4.116326792591234, 1090.6
4.115683901723506, 1090.8
4.115041246562787, 1091.0
4.114398826979472, 1091.2
4.113756642844053, 1091.4
4.113114694027116, 1091.6
4.112472980399341, 1091.8
4.111831501831502, 1092.0
4.111190258194470, 1092.2
4.110549249359209, 1092.4
4.109908475196779, 1092.6
4.109267935578331, 1092.8
4.108627630375114, 1093.0
4.107987559458470, 1093.2
4.107347722699835, 1093.4
4.106708119970739, 1093.6
4.106068751142805, 1093.8
4.105429616087751, 1094.0
4.104790714677390, 1094.2
4.104152046783626, 1094.4
4.103513612278459, 1094.6
4.102875411033979, 1094.8
4.102237442922375, 1095.0
4.101599707815924, 1095.2
4.100962205587000, 1095.4
4.100324936108069, 1095.6
4.099687899251689, 1095.8
4.099051094890511, 1096.0
4.098414522897281, 1096.2
4.097778183144838, 1096.4
4.097142075506111, 1096.6
4.096506199854121, 1096.8
4.095870556061987, 1097.0
4.095235144002917, 1097.2
4.094599963550209, 1097.4
4.093965014577260, 1097.6
4.093330296957552, 1097.8
4.092695810564663, 1098.0
4.092061555272264, 1098.2
4.091427530954115, 1098.4
4.090793737484071, 1098.6
4.090160174736076, 1098.8
4.089526842584167, 1099.0
4.088893740902474, 1099.2
4.088260869565217, 1099.4
4.087628228446708, 1099.6
4.086995817421349, 1099.8
4.086363636363637, 1100.0
4.085731685148155, 1100.2
4.085099963649582, 1100.4
4.084468471742686, 1100.6
4.083837209302326, 1100.8
4.083206176203451, 1101.0
4.082575372321104, 1101.2
4.081944797530416, 1101.4
4.081314451706609, 1101.6
4.080684334724996, 1101.8
4.080054446460980, 1102.0
4.079424786790057, 1102.2
4.078795355587808, 1102.4
4.078166152729912, 1102.6
4.077537178092129, 1102.8
4.076908431550318, 1103.0
4.076279912980421, 1103.2
4.075651622258474, 1103.4
4.075023559260602, 1103.6
4.074395723863019, 1103.8
4.073768115942029, 1104.0
4.073140735374026, 1104.2
4.072513582035494, 1104.4
4.071886655803006, 1104.6
4.071259956553223, 1104.8
4.070633484162896, 1105.0
4.070007238508867, 1105.2
4.069381219468066, 1105.4
4.068755426917511, 1105.6
4.068129860734310, 1105.8
4.067504520795660, 1106.0
4.066879406978846, 1106.2
4.066254519161244, 1106.4
4.065629857220315, 1106.6
4.065005421033611, 1106.8
4.064381210478771, 1107.0
4.063757225433526, 1107.2
4.063133465775691, 1107.4
4.062509931383171, 1107.6
4.061886622133960, 1107.8
4.061263537906138, 1108.0
4.060640678577874, 1108.2
4.060018044027426, 1108.4
4.059395634133141, 1108.6
4.058773448773449, 1108.8
4.058151487826871, 1109.0
4.057529751172016, 1109.2
4.056908238687579, 1109.4
4.056286950252344, 1109.6
4.055665885745180, 1109.8
4.055045045045045, 1110.0
4.054424428030986, 1110.2
4.053804034582132, 1110.4
4.053183864577706, 1110.6
4.052563917897011, 1110.8
4.051944194419442, 1111.0
4.051324694024478, 1111.2
4.050705416591686, 1111.4
4.050086362000720, 1111.6
4.049467530131319, 1111.8
4.048848920863310, 1112.0
4.048230534076604, 1112.2
4.047612369651205, 1112.4
4.046994427467195, 1112.6
4.046376707404745, 1112.8
4.045759209344115, 1113.0
4.045141933165649, 1113.2
4.044524878749775, 1113.4
4.043908045977012, 1113.6
4.043291434727958, 1113.8
4.042675044883303, 1114.0
4.042058876323820, 1114.2
4.041442928930365, 1114.4
4.040827202583887, 1114.6
4.040211697165411, 1114.8
4.039596412556054, 1115.0
4.038981348637016, 1115.2
4.038366505289582, 1115.4
4.037751882395124, 1115.6
4.037137479835097, 1115.8
4.036523297491040, 1116.0
4.035909335244580, 1116.2
4.035295592977428, 1116.4
4.034682070571378, 1116.6
4.034068767908310, 1116.8
4.033455684870188, 1117.0
4.032842821339062, 1117.2
4.032230177197064, 1117.4
4.031617752326414, 1117.6
4.031005546609411, 1117.8
4.030393559928444, 1118.0
4.029781792165981, 1118.2
4.029170243204578, 1118.4
4.028558912926873, 1118.6
4.027947801215588, 1118.8
4.027336907953530, 1119.0
4.026726233023588, 1119.2
4.026115776308736, 1119.4
4.025505537692033, 1119.6
4.024895517056618, 1119.8
4.024285714285714, 1120.0
4.023676129262632, 1120.2
4.023066761870760, 1120.4
4.022457611993575, 1120.6
4.021848679514632, 1120.8
4.021239964317574, 1121.0
4.020631466286122, 1121.2
4.020023185304084, 1121.4
4.019415121255350, 1121.6
4.018807274023890, 1121.8
4.018199643493761, 1122.0
4.017592229549100, 1122.2
4.016985032074126, 1122.4
4.016378050953145, 1122.6
4.015771286070538, 1122.8
4.015164737310775, 1123.0
4.014558404558405, 1123.2
4.013952287698059, 1123.4
4.013346386614454, 1123.6
4.012740701192383, 1123.8
4.012135231316726, 1124.0
4.011529976872443, 1124.2
4.010924937744575, 1124.4
4.010320113818246, 1124.6
4.009715504978663, 1124.8
4.009111111111111, 1125.0
4.008506932100960, 1125.2
4.007902967833659, 1125.4
4.007299218194741, 1125.6
4.006695683069817, 1125.8
4.006092362344583, 1126.0
4.005489255904813, 1126.2
4.004886363636364, 1126.4
4.004283685425174, 1126.6
4.003681221157260, 1126.8
4.003078970718723, 1127.0
4.002476933995742, 1127.2
4.001875110874579, 1127.4
4.001273501241576, 1127.6
4.000672104983154, 1127.8
4.000070921985816, 1128.0
3.999469952136146, 1128.2
3.998869195320808, 1128.4
3.998268651426546, 1128.6
3.997668320340184, 1128.8
3.997068201948627, 1129.0
3.996468296138859, 1129.2
3.995868602797946, 1129.4
3.995269121813031, 1129.6
3.994669853071340, 1129.8
3.994070796460177, 1130.0
3.993471951866926, 1130.2
3.992873319179051, 1130.4
3.992274898284097, 1130.6
3.991676689069685, 1130.8
3.991078691423519, 1131.0
3.990480905233380, 1131.2
3.989883330387130, 1131.4
3.989285966772711, 1131.6
3.988688814278141, 1131.8
3.988091872791519, 1132.0
3.987495142201024, 1132.2
3.986898622394913, 1132.4
3.986302313261522, 1132.6
3.985706214689265, 1132.8
3.985110326566637, 1133.0
3.984514648782210, 1133.2
3.983919181224633, 1133.4
3.983323923782640, 1133.6
3.982728876345035, 1133.8
3.982134038800705, 1134.0
3.981539411038617, 1134.2
3.980944992947813, 1134.4
3.980350784417416, 1134.6
3.979756785336623, 1134.8
3.979162995594713, 1135.0
3.978569415081043, 1135.2
3.977976043685044, 1135.4
3.977382881296231, 1135.6
3.976789927804191, 1135.8
3.976197183098591, 1136.0
3.975604647069177, 1136.2
3.975012319605772, 1136.4
3.974420200598276, 1136.6
3.973828289936664, 1136.8
3.973236587510994, 1137.0
3.972645093211396, 1137.2
3.972053806928081, 1137.4
3.971462728551336, 1137.6
3.970871857971524, 1137.8
3.970281195079086, 1138.0
3.969690739764540, 1138.2
3.969100491918482, 1138.4
3.968510451431583, 1138.6
3.967920618194591, 1138.8
3.967330992098332, 1139.0
3.966741573033707, 1139.2
3.966152360891697, 1139.4
3.965563355563356, 1139.6
3.964974556939814, 1139.8
3.964385964912281, 1140.0
3.963797579372040, 1140.2
3.963209400210452, 1140.4
3.962621427318955, 1140.6
3.962033660589060, 1140.8
3.961446099912358, 1141.0
3.960858745180512, 1141.2
3.960271596285263, 1141.4
3.959684653118430, 1141.6
3.959097915571904, 1141.8
3.958511383537653, 1142.0
3.957925056907722, 1142.2
3.957338935574229, 1142.4
3.956753019429372, 1142.6
3.956167308365418, 1142.8
3.955581802274716, 1143.0
3.954996501049685, 1143.2
3.954411404582823, 1143.4
3.953826512766702, 1143.6
3.953241825493968, 1143.8
3.952657342657342, 1144.0
3.952073064149624, 1144.2
3.951488989863684, 1144.4
3.950905119692469, 1144.6
3.950321453529001, 1144.8
3.949737991266375, 1145.0
3.949154732797764, 1145.2
3.948571678016413, 1145.4
3.947988826815643, 1145.6
3.947406179088846, 1145.8
3.946823734729494, 1146.0
3.946241493631129, 1146.2
3.945659455687369, 1146.4
3.945077620791907, 1146.6
3.944495988838507, 1146.8
3.943914559721011, 1147.0
3.943333333333333, 1147.2
3.942752309569461, 1147.4
3.942171488323458, 1147.6
3.941590869489458, 1147.8
3.941010452961673, 1148.0
3.940430238634384, 1148.2
3.939850226401950, 1148.4
3.939270416158802, 1148.6
3.938690807799443, 1148.8
3.938111401218451, 1149.0
3.937532196310477, 1149.2
3.936953192970245, 1149.4
3.936374391092554, 1149.6
3.935795790572274, 1149.8
3.935217391304348, 1150.0
3.934639193183794, 1150.2
3.934061196105702, 1150.4
3.933483399965236, 1150.6
3.932905804657629, 1150.8
3.932328410078193, 1151.0
3.931751216122307, 1151.2
3.931174222685426, 1151.4
3.930597429663078, 1151.6
3.930020836950860, 1151.8
3.929444444444445, 1152.0
3.928868252039576, 1152.2
3.928292259632072, 1152.4
3.927716467117821, 1152.6
3.927140874392783, 1152.8
3.926565481352992, 1153.0
3.925990287894554, 1153.2
3.925415293913646, 1153.4
3.924840499306519, 1153.6
3.924265903969492, 1153.8
3.923691507798960, 1154.0
3.923117310691388, 1154.2
3.922543312543312, 1154.4
3.921969513251343, 1154.6
3.921395912712158, 1154.8
3.920822510822511, 1155.0
3.920249307479224, 1155.2
3.919676302579193, 1155.4
3.919103496019384, 1155.6
3.918530887696833, 1155.8
3.917958477508650, 1156.0
3.917386265352015, 1156.2
3.916814251124178, 1156.4
3.916242434722462, 1156.6
3.915670816044260, 1156.8
3.915099394987035, 1157.0
3.914528171448323, 1157.2
3.913957145325730, 1157.4
3.913386316516932, 1157.6
3.912815684919675, 1157.8
3.912245250431779, 1158.0
3.911675012951131, 1158.2
3.911104972375690, 1158.4
3.910535128603487, 1158.6
3.909965481532620, 1158.8
3.909396031061259, 1159.0
3.908826777087647, 1159.2
3.908257719510091, 1159.4
3.907688858226975, 1159.6
3.907120193136748, 1159.8
3.906551724137931, 1160.0
3.905983451129115, 1160.2
3.905415374008962, 1160.4
3.904847492676202, 1160.6
3.904279807029635, 1160.8
3.903712316968131, 1161.0
3.903145022390630, 1161.2
3.902577923196142, 1161.4
3.902011019283746, 1161.6
3.901444310552591, 1161.8
3.900877796901893, 1162.0
3.900311478230941, 1162.2
3.899745354439091, 1162.4
3.899179425425770, 1162.6
3.898613691090471, 1162.8
3.898048151332760, 1163.0
3.897482806052269, 1163.2
3.896917655148702, 1163.4
3.896352698521829, 1163.6
3.895787936071490, 1163.8
3.895223367697594, 1164.0
3.894658993300120, 1164.2
3.894094812779113, 1164.4
3.893530826034690, 1164.6
3.892967032967033, 1164.8
3.892403433476395, 1165.0
3.891840027463096, 1165.2
3.891276814827527, 1165.4
3.890713795470144, 1165.6
3.890150969291474, 1165.8
3.889588336192110, 1166.0
3.889025896072714, 1166.2
3.888463648834019, 1166.4
3.887901594376822, 1166.6
3.887339732601988, 1166.8
3.886778063410454, 1167.0
3.886216586703221, 1167.2
3.885655302381360, 1167.4
3.885094210346009, 1167.6
3.884533310498373, 1167.8
3.883972602739726, 1168.0
3.883412086971409, 1168.2
3.882851763094830, 1168.4
3.882291631011467, 1168.6
3.881731690622861, 1168.8
3.881171941830624, 1169.0
3.880612384536435, 1169.2
3.880053018642038, 1169.4
3.879493844049248, 1169.6
3.878934860659942, 1169.8
3.878376068376068, 1170.0
3.877817467099641, 1170.2
3.877259056732741, 1170.4
3.876700837177516, 1170.6
3.876142808336180, 1170.8
3.875584970111016, 1171.0
3.875027322404371, 1171.2
3.874469865118661, 1171.4
3.873912598156367, 1171.6
3.873355521420037, 1171.8
3.872798634812287, 1172.0
3.872241938235796, 1172.2
3.871685431593312, 1172.4
3.871129114787652, 1172.6
3.870572987721692, 1172.8
3.870017050298380, 1173.0
3.869461302420729, 1173.2
3.868905743991818, 1173.4
3.868350374914792, 1173.6
3.867795195092861, 1173.8
3.867240204429301, 1174.0
3.866685402827457, 1174.2
3.866130790190735, 1174.4
3.865576366422612, 1174.6
3.865022131426626, 1174.8
3.864468085106383, 1175.0
3.863914227365555, 1175.2
3.863360558107878, 1175.4
3.862807077237155, 1175.6
3.862253784657255, 1175.8
3.861700680272109, 1176.0
3.861147763985716, 1176.2
3.860595035702142, 1176.4
3.860042495325514, 1176.6
3.859490142760027, 1176.8
3.858937977909940, 1177.0
3.858386000679578, 1177.2
3.857834210973331, 1177.4
3.857282608695652, 1177.6
3.856731193751061, 1177.8
3.856179966044142, 1178.0
3.855628925479545, 1178.2
3.855078071961982, 1178.4
3.854527405396233, 1178.6
3.853976925687140, 1178.8
3.853426632739610, 1179.0
3.852876526458616, 1179.2
3.852326606749194, 1179.4
3.851776873516446, 1179.6
3.851227326665537, 1179.8
3.850677966101695, 1180.0
3.850128791730215, 1180.2
3.849579803456455, 1180.4
3.849031001185838, 1180.6
3.848482384823848, 1180.8
3.847933954276037, 1181.0
3.847385709448019, 1181.2
3.846837650245471, 1181.4
3.846289776574137, 1181.6
3.845742088339821, 1181.8
3.845194585448392, 1182.0
3.844647267805786, 1182.2
3.844100135317997, 1182.4
3.843553187891088, 1182.6
3.843006425431180, 1182.8
3.842459847844463, 1183.0
3.841913455037187, 1183.2
3.841367246915667, 1183.4
3.840821223386279, 1183.6
3.840275384355465, 1183.8
3.839729729729730, 1184.0
3.839184259415639, 1184.2
3.838638973319824, 1184.4
3.838093871348979, 1184.6
3.837548953409858, 1184.8
3.837004219409283, 1185.0
3.836459669254134, 1185.2
3.835915302851358, 1185.4
3.835371120107963, 1185.6
3.834827120931017, 1185.8
3.834283305227656, 1186.0
3.833739672905075, 1186.2
3.833196223870532, 1186.4
3.832652958031350, 1186.6
3.832109875294911, 1186.8
3.831566975568661, 1187.0
3.831024258760108, 1187.2
3.830481724776823, 1187.4
3.829939373526440, 1187.6
3.829397204916653, 1187.8
3.828855218855219, 1188.0
3.828313415249958, 1188.2
3.827771794008751, 1188.4
3.827230355039542, 1188.6
3.826689098250336, 1188.8
3.826148023549201, 1189.0
3.825607130844265, 1189.2
3.825066420043719, 1189.4
3.824525891055817, 1189.6
3.823985543788872, 1189.8
3.823445378151261, 1190.0
3.822905394051419, 1190.2
3.822365591397849, 1190.4
3.821825970099110, 1190.6
3.821286530063823, 1190.8
3.820747271200672, 1191.0
3.820208193418401, 1191.2
3.819669296625818, 1191.4
3.819130580731789, 1191.6
3.818592045645242, 1191.8
3.818053691275168, 1192.0
3.817515517530615, 1192.2
3.816977524320698, 1192.4
3.816439711554587, 1192.6
3.815902079141516, 1192.8
3.815364626990779, 1193.0
3.814827355011733, 1193.2
3.814290263113792, 1193.4
3.813753351206434, 1193.6
3.813216619199196, 1193.8
3.812680067001675, 1194.0
3.812143694523530, 1194.2
3.811607501674481, 1194.4
3.811071488364306, 1194.6
3.810535654502845, 1194.8
3.810000000000000, 1195.0
3.809464524765729, 1195.2
3.808929228710055, 1195.4
3.808394111743058, 1195.6
3.807859173774879, 1195.8
3.807324414715719, 1196.0
3.806789834475840, 1196.2
3.806255432965563, 1196.4
3.805721210095270, 1196.6
3.805187165775401, 1196.8
3.804653299916458, 1197.0
3.804119612429001, 1197.2
3.803586103223651, 1197.4
3.803052772211089, 1197.6
3.802519619302054, 1197.8
3.801986644407346, 1198.0
3.801453847437823, 1198.2
3.800921228304405, 1198.4
3.800388786918071, 1198.6
3.799856523189856, 1198.8
3.799324437030859, 1199.0
3.798792528352235, 1199.2
3.798260797065199, 1199.4
3.797729243081027, 1199.6
3.797197866311052, 1199.8
3.796666666666666, 1200.0
3.796135644059323, 1200.2
3.795604798400533, 1200.4
3.795074129601866, 1200.6
3.794543637574950, 1200.8
3.794013322231474, 1201.0
3.793483183483183, 1201.2
3.792953221241884, 1201.4
3.792423435419441, 1201.6
3.791893825927775, 1201.8
3.791364392678868, 1202.0
3.790835135584761, 1202.2
3.790306054557551, 1202.4
3.789777149509396, 1202.6
3.789248420352511, 1202.8
3.788719866999168, 1203.0
3.788191489361702, 1203.2
3.787663287352501, 1203.4
3.787135260884015, 1203.6
3.786607409868749, 1203.8
3.786079734219269, 1204.0
3.785552233848198, 1204.2
3.785024908668216, 1204.4
3.784497758592064, 1204.6
3.783970783532537, 1204.8
3.783443983402489, 1205.0
3.782917358114835, 1205.2
3.782390907582545, 1205.4
3.781864631718646, 1205.6
3.781338530436225, 1205.8
3.780812603648425, 1206.0
3.780286851268446, 1206.2
3.779761273209549, 1206.4
3.779235869385049, 1206.6
3.778710639708319, 1206.8
3.778185584092792, 1207.0
3.777660702451955, 1207.2
3.777135994699353, 1207.4
3.776611460748593, 1207.6
3.776087100513330, 1207.8
3.775562913907285, 1208.0
3.775038900844231, 1208.2
3.774515061238001, 1208.4
3.773991395002482, 1208.6
3.773467902051622, 1208.8
3.772944582299421, 1209.0
3.772421435659940, 1209.2
3.771898462047296, 1209.4
3.771375661375661, 1209.6
3.770853033559266, 1209.8
3.770330578512397, 1210.0
3.769808296149396, 1210.2
3.769286186384666, 1210.4
3.768764249132662, 1210.6
3.768242484307895, 1210.8
3.767720891824938, 1211.0
3.767199471598415, 1211.2
3.766678223543008, 1211.4
3.766157147573457, 1211.6
3.765636243604555, 1211.8
3.765115511551155, 1212.0
3.764594951328164, 1212.2
3.764074562850544, 1212.4
3.763554346033317, 1212.6
3.763034300791557, 1212.8
3.762514427040395, 1213.0
3.761994724695021, 1213.2
3.761475193670677, 1213.4
3.760955833882663, 1213.6
3.760436645246334, 1213.8
3.759917627677100, 1214.0
3.759398781090430, 1214.2
3.758880105401844, 1214.4
3.758361600526923, 1214.6
3.757843266381297, 1214.8
3.757325102880658, 1215.0
3.756807109940750, 1215.2
3.756289287477373, 1215.4
3.755771635406384, 1215.6
3.755254153643691, 1215.8
3.754736842105263, 1216.0
3.754219700707120, 1216.2
3.753702729365340, 1216.4
3.753185927996055, 1216.6
3.752669296515450, 1216.8
3.752152834839770, 1217.0
3.751636542885310, 1217.2
3.751120420568424, 1217.4
3.750604467805519, 1217.6
3.750088684513056, 1217.8
3.749573070607553, 1218.0
3.749057626005582, 1218.2
3.748542350623769, 1218.4
3.748027244378795, 1218.6
3.747512307187397, 1218.8
3.746997538966366, 1219.0
3.746482939632546, 1219.2
3.745968509102837, 1219.4
3.745454247294195, 1219.6
3.744940154123627, 1219.8
3.744426229508197, 1220.0
3.743912473365022, 1220.2
3.743398885611275, 1220.4
3.742885466164182, 1220.6
3.742372214941022, 1220.8
3.741859131859132, 1221.0
3.741346216835899, 1221.2
3.740833469788767, 1221.4
3.740320890635233, 1221.6
3.739808479292847, 1221.8
3.739296235679214, 1222.0
3.738784159711995, 1222.2
3.738272251308900, 1222.4
3.737760510387699, 1222.6
3.737248936866209, 1222.8
3.736737530662306, 1223.0
3.736226291693917, 1223.2
3.735715219879025, 1223.4
3.735204315135666, 1223.6
3.734693577381925, 1223.8
3.734183006535948, 1224.0
3.733672602515929, 1224.2
3.733162365240117, 1224.4
3.732652294626817, 1224.6
3.732142390594383, 1224.8
3.731632653061224, 1225.0
3.731123081945805, 1225.2
3.730613677166639, 1225.4
3.730104438642298, 1225.6
3.729595366291401, 1225.8
3.729086460032626, 1226.0
3.728577719784700, 1226.2
3.728069145466405, 1226.4
3.727560736996576, 1226.6
3.727052494294099, 1226.8
3.726544417277914, 1227.0
3.726036505867014, 1227.2
3.725528759980446, 1227.4
3.725021179537308, 1227.6
3.724513764456752, 1227.8
3.724006514657980, 1228.0
3.723499430060250, 1228.2
3.722992510582872, 1228.4
3.722485756145206, 1228.6
3.721979166666667, 1228.8
3.721472742066721, 1229.0
3.720966482264887, 1229.2
3.720460387180738, 1229.4
3.719954456733897, 1229.6
3.719448690844040, 1229.8
3.718943089430894, 1230.0
3.718437652414242, 1230.2
3.717932379713914, 1230.4
3.717427271249797, 1230.6
3.716922326941826, 1230.8
3.716417546709992, 1231.0
3.715912930474334, 1231.2
3.715408478154945, 1231.4
3.714904189671972, 1231.6
3.714400064945608, 1231.8
3.713896103896104, 1232.0
3.713392306443759, 1232.2
3.712888672508925, 1232.4
3.712385202012007, 1232.6
3.711881894873459, 1232.8
3.711378751013787, 1233.0
3.710875770353551, 1233.2
3.710372952813361, 1233.4
3.709870298313878, 1233.6
3.709367806775814, 1233.8
3.708865478119935, 1234.0
3.708363312267055, 1234.2
3.707861309138043, 1234.4
3.707359468653815, 1234.6
3.706857790735342, 1234.8
3.706356275303643, 1235.0
3.705854922279793, 1235.2
3.705353731584911, 1235.4
3.704852703140175, 1235.6
3.704351836866807, 1235.8
3.703851132686084, 1236.0
3.703350590519333, 1236.2
3.702850210287932, 1236.4
3.702349991913311, 1236.6
3.701849935316947, 1236.8
3.701350040420372, 1237.0
3.700850307145166, 1237.2
3.700350735412962, 1237.4
3.699851325145443, 1237.6
3.699352076264340, 1237.8
3.698852988691438, 1238.0
3.698354062348570, 1238.2
3.697855297157622, 1238.4
3.697356693040530, 1238.6
3.696858249919277, 1238.8
3.696359967715900, 1239.0
3.695861846352485, 1239.2
3.695363885751170, 1239.4
3.694866085834140, 1239.6
3.694368446523633, 1239.8
3.693870967741935, 1240.0
3.693373649411385, 1240.2
3.692876491454369, 1240.4
3.692379493793326, 1240.6
3.691882656350741, 1240.8
3.691385979049154, 1241.0
3.690889461811150, 1241.2
3.690393104559368, 1241.4
3.689896907216495, 1241.6
3.689400869705266, 1241.8
3.688904991948470, 1242.0
3.688409273868942, 1242.2
3.687913715389568, 1242.4
3.687418316433285, 1242.6
3.686923076923077, 1242.8
3.686427996781979, 1243.0
3.685933075933076, 1243.2
3.685438314299501, 1243.4
3.684943711804439, 1243.6
3.684449268371121, 1243.8
3.683954983922829, 1244.0
3.683460858382896, 1244.2
3.682966891674702, 1244.4
3.682473083721678, 1244.6
3.681979434447301, 1244.8
3.681485943775100, 1245.0
3.680992611628654, 1245.2
3.680499437931588, 1245.4
3.680006422607579, 1245.6
3.679513565580350, 1245.8
3.679020866773675, 1246.0
3.678528326111378, 1246.2
3.678035943517330, 1246.4
3.677543718915450, 1246.6
3.677051652229708, 1246.8
3.676559743384122, 1247.0
3.676067992302758, 1247.2
3.675576398909732, 1247.4
3.675084963129208, 1247.6
3.674593684885398, 1247.8
3.674102564102564, 1248.0
3.673611600705015, 1248.2
3.673120794617109, 1248.4
3.672630145763255, 1248.6
3.672139654067905, 1248.8
3.671649319455564, 1249.0
3.671159141850784, 1249.2
3.670669121178165, 1249.4
3.670179257362356, 1249.6
3.669689550328052, 1249.8
3.669200000000000, 1250.0
3.668710606302991, 1250.2
3.668221369161868, 1250.4
3.667732288501520, 1250.6
3.667243364246882, 1250.8
3.666754596322941, 1251.0
3.666265984654731, 1251.2
3.665777529167332, 1251.4
3.665289229785874, 1251.6
3.664801086435533, 1251.8
3.664313099041534, 1252.0
3.663825267529148, 1252.2
3.663337591823698, 1252.4
3.662850071850551, 1252.6
3.662362707535121, 1252.8
3.661875498802873, 1253.0
3.661388445579317, 1253.2
3.660901547790011, 1253.4
3.660414805360562, 1253.6
3.659928218216622, 1253.8
3.659441786283891, 1254.0
3.658955509488120, 1254.2
3.658469387755102, 1254.4
3.657983421010681, 1254.6
3.657497609180746, 1254.8
3.657011952191235, 1255.0
3.656526449968132, 1255.2
3.656041102437470, 1255.4
3.655555909525327, 1255.6
3.655070871157827, 1255.8
3.654585987261147, 1256.0
3.654101257761503, 1256.2
3.653616682585163, 1256.4
3.653132261658444, 1256.6
3.652647994907702, 1256.8
3.652163882259348, 1257.0
3.651679923639835, 1257.2
3.651196118975664, 1257.4
3.650712468193384, 1257.6
3.650228971219590, 1257.8
3.649745627980922, 1258.0
3.649262438404069, 1258.2
3.648779402415766, 1258.4
3.648296519942793, 1258.6
3.647813790911980, 1258.8
3.647331215250198, 1259.0
3.646848792884371, 1259.2
3.646366523741464, 1259.4
3.645884407748492, 1259.6
3.645402444832513, 1259.8
3.644920634920635, 1260.0
3.644438977940009, 1260.2
3.643957473817835, 1260.4
3.643476122481358, 1260.6
3.642994923857868, 1260.8
3.642513877874702, 1261.0
3.642032984459245, 1261.2
3.641552243538924, 1261.4
3.641071655041217, 1261.6
3.640591218893644, 1261.8
3.640110935023772, 1262.0
3.639630803359214, 1262.2
3.639150823827630, 1262.4
3.638670996356725, 1262.6
3.638191320874248, 1262.8
3.637711797307997, 1263.0
3.637232425585814, 1263.2
3.636753205635586, 1263.4
3.636274137385249, 1263.6
3.635795220762779, 1263.8
3.635316455696203, 1264.0
3.634837842113589, 1264.2
3.634359379943056, 1264.4
3.633881069112763, 1264.6
3.633402909550917, 1264.8
3.632924901185770, 1265.0
3.632447043945621, 1265.2
3.631969337758811, 1265.4
3.631491782553729, 1265.6
3.631014378258809, 1265.8
3.630537124802527, 1266.0
3.630060022113410, 1266.2
3.629583070120025, 1266.4
3.629106268750987, 1266.6
3.628629617934954, 1266.8
3.628153117600631, 1267.0
3.627676767676768, 1267.2
3.627200568092157, 1267.4
3.626724518775639, 1267.6
3.626248619656097, 1267.8
3.625772870662460, 1268.0
3.625297271723703, 1268.2
3.624821822768842, 1268.4
3.624346523726943, 1268.6
3.623871374527112, 1268.8
3.623396375098503, 1269.0
3.622921525370312, 1269.2
3.622446825271782, 1269.4
3.621972274732199, 1269.6
3.621497873680894, 1269.8
3.621023622047244, 1270.0
3.620549519760667, 1270.2
3.620075566750629, 1270.4
3.619601762946639, 1270.6
3.619128108278250, 1270.8
3.618654602675059, 1271.0
3.618181246066708, 1271.2
3.617708038382885, 1271.4
3.617234979553319, 1271.6
3.616762069507784, 1271.8
3.616289308176101, 1272.0
3.615816695488131, 1272.2
3.615344231373781, 1272.4
3.614871915763005, 1272.6
3.614399748585795, 1272.8
3.613927729772191, 1273.0
3.613455859252277, 1273.2
3.612984136956180, 1273.4
3.612512562814071, 1273.6
3.612041136756162, 1273.8
3.611569858712716, 1274.0
3.611098728614032, 1274.2
3.610627746390458, 1274.4
3.610156911972384, 1274.6
3.609686225290242, 1274.8
3.609215686274510, 1275.0
3.608745294855709, 1275.2
3.608275050964403, 1275.4
3.607804954531201, 1275.6
3.607335005486753, 1275.8
3.606865203761755, 1276.0
3.606395549286945, 1276.2
3.605926041993105, 1276.4
3.605456681811061, 1276.6
3.604987468671679, 1276.8
3.604518402505873, 1277.0
3.604049483244598, 1277.2
3.603580710818850, 1277.4
3.603112085159674, 1277.6
3.602643606198153, 1277.8
3.602175273865415, 1278.0
3.601707088092630, 1278.2
3.601239048811014, 1278.4
3.600771155951823, 1278.6
3.600303409446356, 1278.8
3.599835809225957, 1279.0
3.599368355222014, 1279.2
3.598901047365953, 1279.4
3.598433885589247, 1279.6
3.597966869823410, 1279.8
3.597500000000000, 1280.0
3.597033276050617, 1280.2
3.596566697906904, 1280.4
3.596100265500547, 1280.6
3.595633978763273, 1280.8
3.595167837626854, 1281.0
3.594701842023103, 1281.2
3.594235991883877, 1281.4
3.593770287141074, 1281.6
3.593304727726634, 1281.8
3.592839313572543, 1282.0
3.592374044610825, 1282.2
3.591908920773549, 1282.4
3.591443941992827, 1282.6
3.590979108200811, 1282.8
3.590514419329696, 1283.0
3.590049875311720, 1283.2
3.589585476079165, 1283.4
3.589121221564350, 1283.6
3.588657111699642, 1283.8
3.588193146417445, 1284.0
3.587729325650210, 1284.2
3.587265649330426, 1284.4
3.586802117390627, 1284.6
3.586338729763387, 1284.8
3.585875486381323, 1285.0
3.585412387177093, 1285.2
3.584949432083398, 1285.4
3.584486621032981, 1285.6
3.584023953958625, 1285.8
3.583561430793157, 1286.0
3.583099051469445, 1286.2
3.582636815920398, 1286.4
3.582174724078968, 1286.6
3.581712775878148, 1286.8
3.581250971250971, 1287.0
3.580789310130516, 1287.2
3.580327792449899, 1287.4
3.579866418142280, 1287.6
3.579405187140861, 1287.8
3.578944099378882, 1288.0
3.578483154789629, 1288.2
3.578022353306426, 1288.4
3.577561694862642, 1288.6
3.577101179391682, 1288.8
3.576640806826997, 1289.0
3.576180577102078, 1289.2
3.575720490150457, 1289.4
3.575260545905707, 1289.6
3.574800744301442, 1289.8
3.574341085271318, 1290.0
3.573881568749031, 1290.2
3.573422194668320, 1290.4
3.572962962962963, 1290.6
3.572503873566780, 1290.8
3.572044926413633, 1291.0
3.571586121437422, 1291.2
3.571127458572092, 1291.4
3.570668937751626, 1291.6
3.570210558910048, 1291.8
3.569752321981424, 1292.0
3.569294226899860, 1292.2
3.568836273599505, 1292.4
3.568378462014544, 1292.6
3.567920792079208, 1292.8
3.567463263727765, 1293.0
3.567005876894525, 1293.2
3.566548631513839, 1293.4
3.566091527520099, 1293.6
3.565634564847735, 1293.8
3.565177743431221, 1294.0
3.564721063205068, 1294.2
3.564264524103832, 1294.4
3.563808126062104, 1294.6
3.563351869014519, 1294.8
3.562895752895753, 1295.0
3.562439777640519, 1295.2
3.561983943183572, 1295.4
3.561528249459710, 1295.6
3.561072696403766, 1295.8
3.560617283950617, 1296.0
3.560162012035180, 1296.2
3.559706880592409, 1296.4
3.559251889557304, 1296.6
3.558797038864898, 1296.8
3.558342328450270, 1297.0
3.557887758248535, 1297.2
3.557433328194851, 1297.4
3.556979038224414, 1297.6
3.556524888272461, 1297.8
3.556070878274268, 1298.0
3.555617008165151, 1298.2
3.555163277880468, 1298.4
3.554709687355614, 1298.6
3.554256236526024, 1298.8
3.553802925327175, 1299.0
3.553349753694581, 1299.2
3.552896721563799, 1299.4
3.552443828870422, 1299.6
3.551991075550085, 1299.8
3.551538461538462, 1300.0
3.551085986771266, 1300.2
3.550633651184250, 1300.4
3.550181454713210, 1300.6
3.549729397293973, 1300.8
3.549277478862413, 1301.0
3.548825699354442, 1301.2
3.548374058706008, 1301.4
3.547922556853104, 1301.6
3.547471193731756, 1301.8
3.547019969278034, 1302.0
3.546568883428045, 1302.2
3.546117936117936, 1302.4
3.545667127283894, 1302.6
3.545216456862143, 1302.8
3.544765924788948, 1303.0
3.544315531000614, 1303.2
3.543865275433481, 1303.4
3.543415158023934, 1303.6
3.542965178708391, 1303.8
3.542515337423313, 1304.0
3.542065634105198, 1304.2
3.541616068690586, 1304.4
3.541166641116051, 1304.6
3.540717351318210, 1304.8
3.540268199233716, 1305.0
3.539819184799264, 1305.2
3.539370307951585, 1305.4
3.538921568627451, 1305.6
3.538472966763670, 1305.8
3.538024502297090, 1306.0
3.537576175164599, 1306.2
3.537127985303123, 1306.4
3.536679932649625, 1306.6
3.536232017141108, 1306.8
3.535784238714613, 1307.0
3.535336597307221, 1307.2
3.534889092856050, 1307.4
3.534441725298256, 1307.6
3.533994494571035, 1307.8
3.533547400611621, 1308.0
3.533100443357285, 1308.2
3.532653622745337, 1308.4
3.532206938713129, 1308.6
3.531760391198044, 1308.8
3.531313980137509, 1309.0
3.530867705468988, 1309.2
3.530421567129983, 1309.4
3.529975565058033, 1309.6
3.529529699190716, 1309.8
3.529083969465649, 1310.0
3.528638375820485, 1310.2
3.528192918192918, 1310.4
3.527747596520677, 1310.6
3.527302410741532, 1310.8
3.526857360793287, 1311.0
3.526412446613789, 1311.2
3.525967668140918, 1311.4
3.525523025312595, 1311.6
3.525078518066779, 1311.8
3.524634146341463, 1312.0
3.524189910074683, 1312.2
3.523745809204510, 1312.4
3.523301843669054, 1312.6
3.522858013406459, 1312.8
3.522414318354912, 1313.0
3.521970758452635, 1313.2
3.521527333637886, 1313.4
3.521084043848965, 1313.6
3.520640889024205, 1313.8
3.520197869101978, 1314.0
3.519754984020697, 1314.2
3.519312233718807, 1314.4
3.518869618134794, 1314.6
3.518427137207180, 1314.8
3.517984790874525, 1315.0
3.517542579075426, 1315.2
3.517100501748517, 1315.4
3.516658558832472, 1315.6
3.516216750265998, 1315.8
3.515775075987842, 1316.0
3.515333535936787, 1316.2
3.514892130051656, 1316.4
3.514450858271305, 1316.6
3.514009720534629, 1316.8
3.513568716780562, 1317.0
3.513127846948072, 1317.2
3.512687110976165, 1317.4
3.512246508803886, 1317.6
3.511806040370314, 1317.8
3.511365705614567, 1318.0
3.510925504475800, 1318.2
3.510485436893203, 1318.4
3.510045502806006, 1318.6
3.509605702153473, 1318.8
3.509166034874905, 1319.0
3.508726500909642, 1319.2
3.508287100197059, 1319.4
3.507847832676569, 1319.6
3.507408698287619, 1319.8
3.506969696969697, 1320.0
3.506530828662324, 1320.2
3.506092093305059, 1320.4
3.505653490837498, 1320.6
3.505215021199273, 1320.8
3.504776684330053, 1321.0
3.504338480169543, 1321.2
3.503900408657484, 1321.4
3.503462469733656, 1321.6
3.503024663337873, 1321.8
3.502586989409985, 1322.0
3.502149447889880, 1322.2
3.501712038717483, 1322.4
3.501274761832754, 1322.6
3.500837617175688, 1322.8
3.500400604686319, 1323.0
3.499963724304715, 1323.2
3.499526975970984, 1323.4
3.499090359625264, 1323.6
3.498653875207735, 1323.8
3.498217522658610, 1324.0
3.497781301918139, 1324.2
3.497345212926608, 1324.4
3.496909255624340, 1324.6
3.496473429951691, 1324.8
3.496037735849057, 1325.0
3.495602173256867, 1325.2
3.495166742115587, 1325.4
3.494731442365721, 1325.6
3.494296273947805, 1325.8
3.493861236802413, 1326.0
3.493426330870155, 1326.2
3.492991556091676, 1326.4
3.492556912407659, 1326.6
3.492122399758818, 1326.8
3.491688018085908, 1327.0
3.491253767329717, 1327.2
3.490819647431068, 1327.4
3.490385658330823, 1327.6
3.489951799969875, 1327.8
3.489518072289156, 1328.0
3.489084475229634, 1328.2
3.488651008732309, 1328.4
3.488217672738221, 1328.6
3.487784467188441, 1328.8
3.487351392024078, 1329.0
3.486918447186277, 1329.2
3.486485632616218, 1329.4
3.486052948255114, 1329.6
3.485620394044217, 1329.8
3.485187969924812, 1330.0
3.484755675838219, 1330.2
3.484323511725796, 1330.4
3.483891477528934, 1330.6
3.483459573189059, 1330.8
3.483027798647633, 1331.0
3.482596153846154, 1331.2
3.482164638726152, 1331.4
3.481733253229198, 1331.6
3.481301997296891, 1331.8
3.480870870870871, 1332.0
3.480439873892809, 1332.2
3.480009006304413, 1332.4
3.479578268047426, 1332.6
3.479147659063625, 1332.8
3.478717179294823, 1333.0
3.478286828682868, 1333.2
3.477856607169641, 1333.4
3.477426514697061, 1333.6
3.476996551207078, 1333.8
3.476566716641679, 1334.0
3.476137010942887, 1334.2
3.475707434052758, 1334.4
3.475277985913382, 1334.6
3.474848666466886, 1334.8
3.474419475655431, 1335.0
3.473990413421210, 1335.2
3.473561479706455, 1335.4
3.473132674453429, 1335.6
3.472703997604432, 1335.8
3.472275449101796, 1336.0
3.471847028887891, 1336.2
3.471418736905118, 1336.4
3.470990573095915, 1336.6
3.470562537402753, 1336.8
3.470134629768137, 1337.0
3.469706850134609, 1337.2
3.469279198444743, 1337.4
3.468851674641148, 1337.6
3.468424278666467, 1337.8
3.467997010463378, 1338.0
3.467569869974592, 1338.2
3.467142857142857, 1338.4
3.466715971910952, 1338.6
3.466289214221691, 1338.8
3.465862584017924, 1339.0
3.465436081242533, 1339.2
3.465009705838435, 1339.4
3.464583457748582, 1339.6
3.464157336915958, 1339.8
3.463731343283582, 1340.0
3.463305476794508, 1340.2
3.462879737391823, 1340.4
3.462454125018648, 1340.6
3.462028639618139, 1340.8
3.461603281133482, 1341.0
3.461178049507903, 1341.2
3.460752944684657, 1341.4
3.460327966607037, 1341.6
3.459903115218363, 1341.8
3.459478390461997, 1342.0
3.459053792281329, 1342.2
3.458629320619785, 1342.4
3.458204975420825, 1342.6
3.457780756627942, 1342.8
3.457356664184661, 1343.0
3.456932698034544, 1343.2
3.456508858121185, 1343.4
3.456085144388211, 1343.6
3.455661556779283, 1343.8
3.455238095238095, 1344.0
3.454814759708376, 1344.2
3.454391550133888, 1344.4
3.453968466458426, 1344.6
3.453545508625818, 1344.8
3.453122676579925, 1345.0
3.452699970264645, 1345.2
3.452277389623903, 1345.4
3.451854934601665, 1345.6
3.451432605141923, 1345.8
3.451010401188707, 1346.0
3.450588322686079, 1346.2
3.450166369578134, 1346.4
3.449744541809001, 1346.6
3.449322839322839, 1346.8
3.448901262063846, 1347.0
3.448479809976247, 1347.2
3.448058483004304, 1347.4
3.447637281092312, 1347.6
3.447216204184597, 1347.8
3.446795252225519, 1348.0
3.446374425159472, 1348.2
3.445953722930881, 1348.4
3.445533145484206, 1348.6
3.445112692763938, 1348.8
3.444692364714603, 1349.0
3.444272161280759, 1349.2
3.443852082406996, 1349.4
3.443432128037937, 1349.6
3.443012298118240, 1349.8
3.442592592592593, 1350.0
3.442173011405718, 1350.2
3.441753554502369, 1350.4
3.441334221827336, 1350.6
3.440915013325437, 1350.8
3.440495928941524, 1351.0
3.440076968620485, 1351.2
3.439658132307237, 1351.4
3.439239419946730, 1351.6
3.438820831483947, 1351.8
3.438402366863905, 1352.0
3.437984026031652, 1352.2
3.437565808932268, 1352.4
3.437147715510868, 1352.6
3.436729745712596, 1352.8
3.436311899482631, 1353.0
3.435894176766184, 1353.2
3.435476577508497, 1353.4
3.435059101654846, 1353.6
3.434641749150539, 1353.8
3.434224519940916, 1354.0
3.433807413971348, 1354.2
3.433390431187241, 1354.4
3.432973571534032, 1354.6
3.432556834957189, 1354.8
3.432140221402214, 1355.0
3.431723730814640, 1355.2
3.431307363140032, 1355.4
3.430891118323990, 1355.6
3.430474996312141, 1355.8
3.430058997050147, 1356.0
3.429643120483704, 1356.2
3.429227366558537, 1356.4
3.428811735220404, 1356.6
3.428396226415094, 1356.8
3.427980840088430, 1357.0
3.427565576186266, 1357.2
3.427150434654486, 1357.4
3.426735415439010, 1357.6
3.426320518485786, 1357.8
3.425905743740795, 1358.0
3.425491091150051, 1358.2
3.425076560659599, 1358.4
3.424662152215516, 1358.6
3.424247865763909, 1358.8
3.423833701250920, 1359.0
3.423419658622719, 1359.2
3.423005737825511, 1359.4
3.422591938805531, 1359.6
3.422178261509045, 1359.8
3.421764705882353, 1360.0
3.421351271871783, 1360.2
3.420937959423699, 1360.4
3.420524768484492, 1360.6
3.420111699000588, 1360.8
3.419698750918442, 1361.0
3.419285924184543, 1361.2
3.418873218745409, 1361.4
3.418460634547591, 1361.6
3.418048171537670, 1361.8
3.417635829662261, 1362.0
3.417223608868007, 1362.2
3.416811509101585, 1362.4
3.416399530309702, 1362.6
3.415987672439096, 1362.8
3.415575935436537, 1363.0
3.415164319248826, 1363.2
3.414752823822796, 1363.4
3.414341449105310, 1363.6
3.413930195043261, 1363.8
3.413519061583578, 1364.0
3.413108048673215, 1364.2
3.412697156259161, 1364.4
3.412286384288436, 1364.6
3.411875732708089, 1364.8
3.411465201465201, 1365.0
3.411054790506885, 1365.2
3.410644499780284, 1365.4
3.410234329232572, 1365.6
3.409824278810953, 1365.8
3.409414348462664, 1366.0
3.409004538134973, 1366.2
3.408594847775175, 1366.4
3.408185277330602, 1366.6
3.407775826748610, 1366.8
3.407366495976591, 1367.0
3.406957284961966, 1367.2
3.406548193652186, 1367.4
3.406139221994736, 1367.6
3.405730369937125, 1367.8
3.405321637426900, 1368.0
3.404913024411635, 1368.2
3.404504530838936, 1368.4
3.404096156656437, 1368.6
3.403687901811806, 1368.8
3.403279766252739, 1369.0
3.402871749926964, 1369.2
3.402463852782240, 1369.4
3.402056074766355, 1369.6
3.401648415827128, 1369.8
3.401240875912408, 1370.0
3.400833454970077, 1370.2
3.400426152948044, 1370.4
3.400018969794251, 1370.6
3.399611905456668, 1370.8
3.399204959883297, 1371.0
3.398798133022170, 1371.2
3.398391424821350, 1371.4
3.397984835228930, 1371.6
3.397578364193031, 1371.8
3.397172011661807, 1372.0
3.396765777583442, 1372.2
3.396359661906149, 1372.4
3.395953664578173, 1372.6
3.395547785547786, 1372.8
3.395142024763292, 1373.0
3.394736382173026, 1373.2
3.394330857725353, 1373.4
3.393925451368666, 1373.6
3.393520163051390, 1373.8
3.393114992721979, 1374.0
3.392709940328918, 1374.2
3.392305005820722, 1374.4
3.391900189145933, 1374.6
3.391495490253128, 1374.8
3.391090909090909, 1375.0
3.390686445607912, 1375.2
3.390282099752799, 1375.4
3.389877871474266, 1375.6
3.389473760721035, 1375.8
3.389069767441860, 1376.0
3.388665891585525, 1376.2
3.388262133100842, 1376.4
3.387858491936655, 1376.6
3.387454968041836, 1376.8
3.387051561365287, 1377.0
3.386648271855939, 1377.2
3.386245099462756, 1377.4
3.385842044134727, 1377.6
3.385439105820874, 1377.8
3.385036284470246, 1378.0
3.384633580031926, 1378.2
3.384230992455020, 1378.4
3.383828521688670, 1378.6
3.383426167682043, 1378.8
3.383023930384336, 1379.0
3.382621809744780, 1379.2
3.382219805712628, 1379.4
3.381817918237170, 1379.6
3.381416147267720, 1379.8
3.381014492753623, 1380.0
3.380612954644254, 1380.2
3.380211532889017, 1380.4
3.379810227437346, 1380.6
3.379409038238702, 1380.8
3.379007965242578, 1381.0
3.378607008398494, 1381.2
3.378206167656001, 1381.4
3.377805442964679, 1381.6
3.377404834274135, 1381.8
3.377004341534009, 1382.0
3.376603964693966, 1382.2
3.376203703703704, 1382.4
3.375803558512947, 1382.6
3.375403529071449, 1382.8
3.375003615328995, 1383.0
3.374603817235396, 1383.2
3.374204134740494, 1383.4
3.373804567794160, 1383.6
3.373405116346293, 1383.8
3.373005780346821, 1384.0
3.372606559745701, 1384.2
3.372207454492921, 1384.4
3.371808464538495, 1384.6
3.371409589832467, 1384.8
3.371010830324910, 1385.0
3.370612185965925, 1385.2
3.370213656705644, 1385.4
3.369815242494226, 1385.6
3.369416943281859, 1385.8
3.369018759018759, 1386.0
3.368620689655172, 1386.2
3.368222735141373, 1386.4
3.367824895427665, 1386.6
3.367427170464378, 1386.8
3.367029560201874, 1387.0
3.366632064590542, 1387.2
3.366234683580798, 1387.4
3.365837417123090, 1387.6
3.365440265167892, 1387.8
3.365043227665706, 1388.0
3.364646304567065, 1388.2
3.364249495822529, 1388.4
3.363852801382688, 1388.6
3.363456221198156, 1388.8
3.363059755219582, 1389.0
3.362663403397639, 1389.2
3.362267165683028, 1389.4
3.361871042026483, 1389.6
3.361475032378760, 1389.8
3.361079136690647, 1390.0
3.360683354912962, 1390.2
3.360287686996548, 1390.4
3.359892132892277, 1390.6
3.359496692551050, 1390.8
3.359101365923796, 1391.0
3.358706152961472, 1391.2
3.358311053615064, 1391.4
3.357916067835585, 1391.6
3.357521195574077, 1391.8
3.357126436781609, 1392.0
3.356731791409280, 1392.2
3.356337259408216, 1392.4
3.355942840729571, 1392.6
3.355548535324526, 1392.8
3.355154343144293, 1393.0
3.354760264140109, 1393.2
3.354366298263241, 1393.4
3.353972445464983, 1393.6
3.353578705696656, 1393.8
3.353185078909612, 1394.0
3.352791565055229, 1394.2
3.352398164084911, 1394.4
3.352004875950093, 1394.6
3.351611700602237, 1394.8
3.351218637992831, 1395.0
3.350825688073394, 1395.2
3.350432850795471, 1395.4
3.350040126110633, 1395.6
3.349647513970483, 1395.8
3.349255014326647, 1396.0
3.348862627130783, 1396.2
3.348470352334574, 1396.4
3.348078189889732, 1396.6
3.347686139747995, 1396.8
3.347294201861131, 1397.0
3.346902376180933, 1397.2
3.346510662659224, 1397.4
3.346119061247853, 1397.6
3.345727571898698, 1397.8
3.345336194563662, 1398.0
3.344944929194678, 1398.2
3.344553775743707, 1398.4
3.344162734162734, 1398.6
3.343771804403775, 1398.8
3.343380986418870, 1399.0
3.342990280160091, 1399.2
3.342599685579534, 1399.4
3.342209202629323, 1399.6
3.341818831261609, 1399.8
3.341428571428571, 1400.0
3.341038423082416, 1400.2
3.340648386175378, 1400.4
3.340258460659717, 1400.6
3.339868646487721, 1400.8
3.339478943611706, 1401.0
3.339089351984013, 1401.2
3.338699871557014, 1401.4
3.338310502283105, 1401.6
3.337921244114709, 1401.8
3.337532097004280, 1402.0
3.337143060904293, 1402.2
3.336754135767256, 1402.4
3.336365321545701, 1402.6
3.335976618192187, 1402.8
3.335588025659301, 1403.0
3.335199543899658, 1403.2
3.334811172865897, 1403.4
3.334422912510687, 1403.6
3.334034762786722, 1403.8
3.333646723646723, 1404.0
3.333258795043441, 1404.2
3.332870976929649, 1404.4
3.332483269258152, 1404.6
3.332095671981777, 1404.8
3.331708185053381, 1405.0
3.331320808425847, 1405.2
3.330933542052084, 1405.4
3.330546385885031, 1405.6
3.330159339877650, 1405.8
3.329772403982930, 1406.0
3.329385578153890, 1406.2
3.328998862343572, 1406.4
3.328612256505048, 1406.6
3.328225760591413, 1406.8
3.327839374555792, 1407.0
3.327453098351336, 1407.2
3.327066931931220, 1407.4
3.326680875248650, 1407.6
3.326294928256855, 1407.8
3.325909090909091, 1408.0
3.325523363158642, 1408.2
3.325137744958818, 1408.4
3.324752236262956, 1408.6
3.324366837024418, 1408.8
3.323981547196593, 1409.0
3.323596366732898, 1409.2
3.323211295586774, 1409.4
3.322826333711691, 1409.6
3.322441481061143, 1409.8
3.322056737588652, 1410.0
3.321672103247766, 1410.2
3.321287577992059, 1410.4
3.320903161775131, 1410.6
3.320518854550610, 1410.8
3.320134656272147, 1411.0
3.319750566893424, 1411.2
3.319366586368145, 1411.4
3.318982714650042, 1411.6
3.318598951692874, 1411.8
3.318215297450425, 1412.0
3.317831751876505, 1412.2
3.317448314924950, 1412.4
3.317064986549625, 1412.6
3.316681766704417, 1412.8
3.316298655343241, 1413.0
3.315915652420039, 1413.2
3.315532757888779, 1413.4
3.315149971703452, 1413.6
3.314767293818079, 1413.8
3.314384724186704, 1414.0
3.314002262763399, 1414.2
3.313619909502262, 1414.4
3.313237664357416, 1414.6
3.312855527283008, 1414.8
3.312473498233215, 1415.0
3.312091577162238, 1415.2
3.311709764024304, 1415.4
3.311328058773665, 1415.6
3.310946461364599, 1415.8
3.310564971751413, 1416.0
3.310183589888434, 1416.2
3.309802315730019, 1416.4
3.309421149230552, 1416.6
3.309040090344438, 1416.8
3.308659139026112, 1417.0
3.308278295230031, 1417.2
3.307897558910681, 1417.4
3.307516930022573, 1417.6
3.307136408520242, 1417.8
3.306755994358251, 1418.0
3.306375687491186, 1418.2
3.305995487873660, 1418.4
3.305615395460313, 1418.6
3.305235410205808, 1418.8
3.304855532064834, 1419.0
3.304475760992108, 1419.2
3.304096096942370, 1419.4
3.303716539870386, 1419.6
3.303337089730948, 1419.8
3.302957746478873, 1420.0
3.302578510069004, 1420.2
3.302199380456209, 1420.4
3.301820357595382, 1420.6
3.301441441441441, 1420.8
3.301062631949331, 1421.0
3.300683929074022, 1421.2
3.300305332770508, 1421.4
3.299926842993810, 1421.6
3.299548459698973, 1421.8
3.299170182841069, 1422.0
3.298792012375193, 1422.2
3.298413948256468, 1422.4
3.298035990440039, 1422.6
3.297658138881080, 1422.8
3.297280393534785, 1423.0
3.296902754356380, 1423.2
3.296525221301110, 1423.4
3.296147794324249, 1423.6
3.295770473381093, 1423.8
3.295393258426966, 1424.0
3.295016149417216, 1424.2
3.294639146307217, 1424.4
3.294262249052366, 1424.6
3.293885457608085, 1424.8
3.293508771929825, 1425.0
3.293132191973056, 1425.2
3.292755717693279, 1425.4
3.292379349046016, 1425.6
3.292003085986814, 1425.8
3.291626928471248, 1426.0
3.291250876454915, 1426.2
3.290874929893438, 1426.4
3.290499088742465, 1426.6
3.290123352957667, 1426.8
3.289747722494744, 1427.0
3.289372197309417, 1427.2
3.288996777357433, 1427.4
3.288621462594564, 1427.6
3.288246252976607, 1427.8
3.287871148459383, 1428.0
3.287496148998740, 1428.2
3.287121254550546, 1428.4
3.286746465070699, 1428.6
3.286371780515117, 1428.8
3.285997200839748, 1429.0
3.285622726000560, 1429.2
3.285248355953547, 1429.4
3.284874090654728, 1429.6
3.284499930060148, 1429.8
3.284125874125874, 1430.0
3.283751922807999, 1430.2
3.283378076062640, 1430.4
3.283004333845939, 1430.6
3.282630696114062, 1430.8
3.282257162823200, 1431.0
3.281883733929569, 1431.2
3.281510409389409, 1431.4
3.281137189158983, 1431.6
3.280764073194580, 1431.8
3.280391061452514, 1432.0
3.280018153889122, 1432.2
3.279645350460765, 1432.4
3.279272651123831, 1432.6
3.278900055834729, 1432.8
3.278527564549895, 1433.0
3.278155177225788, 1433.2
3.277782893818892, 1433.4
3.277410714285714, 1433.6
3.277038638582787, 1433.8
3.276666666666666, 1434.0
3.276294798493934, 1434.2
3.275923034021193, 1434.4
3.275551373205075, 1434.6
3.275179816002230, 1434.8
3.274808362369338, 1435.0
3.274437012263099, 1435.2
3.274065765640239, 1435.4
3.273694622457509, 1435.6
3.273323582671681, 1435.8
3.272952646239554, 1436.0
3.272581813117950, 1436.2
3.272211083263715, 1436.4
3.271840456633718, 1436.6
3.271469933184855, 1436.8
3.271099512874043, 1437.0
3.270729195658224, 1437.2
3.270358981494364, 1437.4
3.269988870339455, 1437.6
3.269618862150508, 1437.8
3.269248956884562, 1438.0
3.268879154498679, 1438.2
3.268509454949944, 1438.4
3.268139858195468, 1438.6
3.267770364192383, 1438.8
3.267400972897846, 1439.0
3.267031684269038, 1439.2
3.266662498263165, 1439.4
3.266293414837455, 1439.6
3.265924433949160, 1439.8
3.265555555555555, 1440.0
3.265186779613942, 1440.2
3.264818106081644, 1440.4
3.264449534916007, 1440.6
3.264081066074403, 1440.8
3.263712699514226, 1441.0
3.263344435192895, 1441.2
3.262976273067850, 1441.4
3.262608213096559, 1441.6
3.262240255236510, 1441.8
3.261872399445215, 1442.0
3.261504645680211, 1442.2
3.261136993899057, 1442.4
3.260769444059338, 1442.6
3.260401996118658, 1442.8
3.260034650034650, 1443.0
3.259667405764966, 1443.2
3.259300263267285, 1443.4
3.258933222499307, 1443.6
3.258566283418756, 1443.8
3.258199445983379, 1444.0
3.257832710150948, 1444.2
3.257466075879258, 1444.4
3.257099543126125, 1444.6
3.256733111849391, 1444.8
3.256366782006920, 1445.0
3.256000553556601, 1445.2
3.255634426456344, 1445.4
3.255268400664084, 1445.6
3.254902476137778, 1445.8
3.254536652835408, 1446.0
3.254170930714977, 1446.2
3.253805309734513, 1446.4
3.253439789852067, 1446.6
3.253074371025712, 1446.8
3.252709053213545, 1447.0
3.252343836373687, 1447.2
3.251978720464280, 1447.4
3.251613705443493, 1447.6
3.251248791269512, 1447.8
3.250883977900553, 1448.0
3.250519265294848, 1448.2
3.250154653410660, 1448.4
3.249790142206268, 1448.6
3.249425731639978, 1448.8
3.249061421670117, 1449.0
3.248697212255037, 1449.2
3.248333103353112, 1449.4
3.247969094922738, 1449.6
3.247605186922334, 1449.8
3.247241379310345, 1450.0
3.246877672045235, 1450.2
3.246514065085493, 1450.4
3.246150558389632, 1450.6
3.245787151916184, 1450.8
3.245423845623708, 1451.0
3.245060639470783, 1451.2
3.244697533416012, 1451.4
3.244334527418022, 1451.6
3.243971621435459, 1451.8
3.243608815426997, 1452.0
3.243246109351329, 1452.2
3.242883503167171, 1452.4
3.242520996833265, 1452.6
3.242158590308370, 1452.8
3.241796283551273, 1453.0
3.241434076520782, 1453.2
3.241071969175726, 1453.4
3.240709961474959, 1453.6
3.240348053377356, 1453.8
3.239986244841816, 1454.0
3.239624535827259, 1454.2
3.239262926292629, 1454.4
3.238901416196893, 1454.6
3.238540005499038, 1454.8
3.238178694158075, 1455.0
3.237817482133040, 1455.2
3.237456369382987, 1455.4
3.237095355866996, 1455.6
3.236734441544168, 1455.8
3.236373626373626, 1456.0
3.236012910314517, 1456.2
3.235652293326009, 1456.4
3.235291775367294, 1456.6
3.234931356397584, 1456.8
3.234571036376115, 1457.0
3.234210815262146, 1457.2
3.233850693014958, 1457.4
3.233490669593853, 1457.6
3.233130744958156, 1457.8
3.232770919067215, 1458.0
3.232411191880400, 1458.2
3.232051563357103, 1458.4
3.231692033456739, 1458.6
3.231332602138744, 1458.8
3.230973269362577, 1459.0
3.230614035087719, 1459.2
3.230254899273674, 1459.4
3.229895861879967, 1459.6
3.229536922866146, 1459.8
3.229178082191781, 1460.0
3.228819339816463, 1460.2
3.228460695699808, 1460.4
3.228102149801451, 1460.6
3.227743702081051, 1460.8
3.227385352498289, 1461.0
3.227027101012866, 1461.2
3.226668947584508, 1461.4
3.226310892172961, 1461.6
3.225952934737994, 1461.8
3.225595075239398, 1462.0
3.225237313636985, 1462.2
3.224879649890591, 1462.4
3.224522083960071, 1462.6
3.224164615805305, 1462.8
3.223807245386193, 1463.0
3.223449972662657, 1463.2
3.223092797594642, 1463.4
3.222735720142115, 1463.6
3.222378740265063, 1463.8
3.222021857923497, 1464.0
3.221665073077448, 1464.2
3.221308385686970, 1464.4
3.220951795712140, 1464.6
3.220595303113053, 1464.8
3.220238907849829, 1465.0
3.219882609882610, 1465.2
3.219526409171557, 1465.4
3.219170305676856, 1465.6
3.218814299358712, 1465.8
3.218458390177353, 1466.0
3.218102578093029, 1466.2
3.217746863066012, 1466.4
3.217391245056593, 1466.6
3.217035724025088, 1466.8
3.216680299931833, 1467.0
3.216324972737186, 1467.2
3.215969742401526, 1467.4
3.215614608885255, 1467.6
3.215259572148794, 1467.8
3.214904632152588, 1468.0
3.214549788857104, 1468.2
3.214195042222827, 1468.4
3.213840392210269, 1468.6
3.213485838779957, 1468.8
3.213131381892444, 1469.0
3.212777021508304, 1469.2
3.212422757588131, 1469.4
3.212068590092542, 1469.6
3.211714518982174, 1469.8
3.211360544217687, 1470.0
3.211006665759760, 1470.2
3.210652883569097, 1470.4
3.210299197606419, 1470.6
3.209945607832472, 1470.8
3.209592114208021, 1471.0
3.209238716693855, 1471.2
3.208885415250781, 1471.4
3.208532209839631, 1471.6
3.208179100421253, 1471.8
3.207826086956522, 1472.0
3.207473169406331, 1472.2
3.207120347731594, 1472.4
3.206767621893250, 1472.6
3.206414991852254, 1472.8
3.206062457569586, 1473.0
3.205710019006245, 1473.2
3.205357676123252, 1473.4
3.205005428881651, 1473.6
3.204653277242502, 1473.8
3.204301221166893, 1474.0
3.203949260615927, 1474.2
3.203597395550732, 1474.4
3.203245625932456, 1474.6
3.202893951722267, 1474.8
3.202542372881356, 1475.0
3.202190889370933, 1475.2
3.201839501152230, 1475.4
3.201488208186500, 1475.6
3.201137010435018, 1475.8
3.200785907859078, 1476.0
3.200434900419997, 1476.2
3.200083988079111, 1476.4
3.199733170797779, 1476.6
3.199382448537378, 1476.8
3.199031821259309, 1477.0
3.198681288924993, 1477.2
3.198330851495871, 1477.4
3.197980508933405, 1477.6
3.197630261199079, 1477.8
3.197280108254398, 1478.0
3.196930050060885, 1478.2
3.196580086580086, 1478.4
3.196230217773570, 1478.6
3.195880443602921, 1478.8
3.195530764029750, 1479.0
3.195181179015684, 1479.2
3.194831688522374, 1479.4
3.194482292511490, 1479.6
3.194132990944722, 1479.8
3.193783783783783, 1480.0
3.193434670990407, 1480.2
3.193085652526344, 1480.4
3.192736728353370, 1480.6
3.192387898433279, 1480.8
3.192039162727887, 1481.0
3.191690521199027, 1481.2
3.191341973808559, 1481.4
3.190993520518358, 1481.6
3.190645161290322, 1481.8
3.190296896086370, 1482.0
3.189948724868438, 1482.2
3.189600647598489, 1482.4
3.189252664238500, 1482.6
3.188904774750472, 1482.8
3.188556979096426, 1483.0
3.188209277238403, 1483.2
3.187861669138465, 1483.4
3.187514154758695, 1483.6
3.187166734061194, 1483.8
3.186819407008086, 1484.0
3.186472173561514, 1484.2
3.186125033683643, 1484.4
3.185777987336656, 1484.6
3.185431034482759, 1484.8
3.185084175084175, 1485.0
3.184737409103151, 1485.2
3.184390736501952, 1485.4
3.184044157242865, 1485.6
3.183697671288195, 1485.8
3.183351278600269, 1486.0
3.183004979141435, 1486.2
3.182658772874058, 1486.4
3.182312659760528, 1486.6
3.181966639763250, 1486.8
3.181620712844654, 1487.0
3.181274878967186, 1487.2
3.180929138093317, 1487.4
3.180583490185534, 1487.6
3.180237935206345, 1487.8
3.179892473118279, 1488.0
3.179547103883886, 1488.2
3.179201827465735, 1488.4
3.178856643826414, 1488.6
3.178511552928533, 1488.8
3.178166554734721, 1489.0
3.177821649207628, 1489.2
3.177476836309923, 1489.4
3.177132116004297, 1489.6
3.176787488253457, 1489.8
3.176442953020134, 1490.0
3.176098510267078, 1490.2
3.175754159957058, 1490.4
3.175409902052865, 1490.6
3.175065736517306, 1490.8
3.174721663313213, 1491.0
3.174377682403433, 1491.2
3.174033793750838, 1491.4
3.173689997318316, 1491.6
3.173346293068776, 1491.8
3.173002680965147, 1492.0
3.172659160970379, 1492.2
3.172315733047440, 1492.4
3.171972397159319, 1492.6
3.171629153269024, 1492.8
3.171286001339585, 1493.0
3.170942941334047, 1493.2
3.170599973215481, 1493.4
3.170257096946974, 1493.6
3.169914312491632, 1493.8
3.169571619812583, 1494.0
3.169229018872975, 1494.2
3.168886509635974, 1494.4
3.168544092064767, 1494.6
3.168201766122558, 1494.8
3.167859531772575, 1495.0
3.167517388978063, 1495.2
3.167175337702287, 1495.4
3.166833377908532, 1495.6
3.166491509560101, 1495.8
3.166149732620321, 1496.0
3.165808047052533, 1496.2
3.165466452820101, 1496.4
3.165124949886409, 1496.6
3.164783538214858, 1496.8
3.164442217768871, 1497.0
3.164100988511889, 1497.2
3.163759850407372, 1497.4
3.163418803418804, 1497.6
3.163077847509681, 1497.8
3.162736982643525, 1498.0
3.162396208783874, 1498.2
3.162055525894287, 1498.4
3.161714933938343, 1498.6
3.161374432879637, 1498.8
3.161034022681788, 1499.0
3.160693703308431, 1499.2
3.160353474723222, 1499.4
3.160013336889837, 1499.6
3.159673289771970, 1499.8
3.159333333333333, 1500.0
3.158993467537662, 1500.2
3.158653692348707, 1500.4
3.158314007730241, 1500.6
3.157974413646055, 1500.8
3.157634910059960, 1501.0
3.157295496935784, 1501.2
3.156956174237378, 1501.4
3.156616941928609, 1501.6
3.156277799973365, 1501.8
3.155938748335553, 1502.0
3.155599786979097, 1502.2
3.155260915867944, 1502.4
3.154922134966059, 1502.6
3.154583444237423, 1502.8
3.154244843646041, 1503.0
3.153906333155934, 1503.2
3.153567912731142, 1503.4
3.153229582335728, 1503.6
3.152891341933768, 1503.8
3.152553191489361, 1504.0
3.152215130966626, 1504.2
3.151877160329699, 1504.4
3.151539279542736, 1504.6
3.151201488569910, 1504.8
3.150863787375415, 1505.0
3.150526175923465, 1505.2
3.150188654178291, 1505.4
3.149851222104144, 1505.6
3.149513879665294, 1505.8
3.149176626826029, 1506.0
3.148839463550657, 1506.2
3.148502389803505, 1506.4
3.148165405548918, 1506.6
3.147828510751261, 1506.8
3.147491705374917, 1507.0
3.147154989384289, 1507.2
3.146818362743797, 1507.4
3.146481825417883, 1507.6
3.146145377371004, 1507.8
3.145809018567639, 1508.0
3.145472748972284, 1508.2
3.145136568549456, 1508.4
3.144800477263688, 1508.6
3.144464475079533, 1508.8
3.144128561961564, 1509.0
3.143792737874370, 1509.2
3.143457002782562, 1509.4
3.143121356650768, 1509.6
3.142785799443635, 1509.8
3.142450331125828, 1510.0
3.142114951662031, 1510.2
3.141779661016949, 1510.4
3.141444459155303, 1510.6
3.141109346041832, 1510.8
3.140774321641297, 1511.0
3.140439385918475, 1511.2
3.140104538838163, 1511.4
3.139769780365176, 1511.6
3.139435110464347, 1511.8
3.139100529100529, 1512.0
3.138766036238593, 1512.2
3.138431631843428, 1512.4
3.138097315879942, 1512.6
3.137763088313062, 1512.8
3.137428949107733, 1513.0
3.137094898228919, 1513.2
3.136760935641601, 1513.4
3.136427061310782, 1513.6
3.136093275201480, 1513.8
3.135759577278732, 1514.0
3.135425967507595, 1514.2
3.135092445853143, 1514.4
3.134759012280470, 1514.6
3.134425666754687, 1514.8
3.134092409240924, 1515.0
3.133759239704329, 1515.2
3.133426158110070, 1515.4
3.133093164423331, 1515.6
3.132760258609315, 1515.8
3.132427440633245, 1516.0
3.132094710460361, 1516.2
3.131762068055921, 1516.4
3.131429513385204, 1516.6
3.131097046413502, 1516.8
3.130764667106130, 1517.0
3.130432375428421, 1517.2
3.130100171345723, 1517.4
3.129768054823405, 1517.6
3.129436025826855, 1517.8
3.129104084321475, 1518.0
3.128772230272691, 1518.2
3.128440463645943, 1518.4
3.128108784406690, 1518.6
3.127777192520411, 1518.8
3.127445687952600, 1519.0
3.127114270668773, 1519.2
3.126782940634460, 1519.4
3.126451697815214, 1519.6
3.126120542176602, 1519.8
3.125789473684210, 1520.0
3.125458492303644, 1520.2
3.125127598000526, 1520.4
3.124796790740497, 1520.6
3.124466070489216, 1520.8
3.124135437212360, 1521.0
3.123804890875624, 1521.2
3.123474431444722, 1521.4
3.123144058885384, 1521.6
3.122813773163359, 1521.8
3.122483574244415, 1522.0
3.122153462094337, 1522.2
3.121823436678928, 1522.4
3.121493497964009, 1522.6
3.121163645915419, 1522.8
3.120833880499015, 1523.0
3.120504201680672, 1523.2
3.120174609426283, 1523.4
3.119845103701759, 1523.6
3.119515684473028, 1523.8
3.119186351706037, 1524.0
3.118857105366750, 1524.2
3.118527945421149, 1524.4
3.118198871835236, 1524.6
3.117869884575026, 1524.8
3.117540983606557, 1525.0
3.117212168895882, 1525.2
3.116883440409073, 1525.4
3.116554798112218, 1525.6
3.116226241971425, 1525.8
3.115897771952818, 1526.0
3.115569388022539, 1526.2
3.115241090146750, 1526.4
3.114912878291629, 1526.6
3.114584752423369, 1526.8
3.114256712508186, 1527.0
3.113928758512310, 1527.2
3.113600890401990, 1527.4
3.113273108143493, 1527.6
3.112945411703103, 1527.8
3.112617801047120, 1528.0
3.112290276141866, 1528.2
3.111962836953677, 1528.4
3.111635483448908, 1528.6
3.111308215593930, 1528.8
3.110981033355134, 1529.0
3.110653936698927, 1529.2
3.110326925591735, 1529.4
3.110000000000000, 1529.6
3.109673159890182, 1529.8
3.109346405228758, 1530.0
3.109019735982224, 1530.2
3.108693152117093, 1530.4
3.108366653599895, 1530.6
3.108040240397178, 1530.8
3.107713912475506, 1531.0
3.107387669801463, 1531.2
3.107061512341648, 1531.4
3.106735440062680, 1531.6
3.106409452931192, 1531.8
3.106083550913838, 1532.0
3.105757733977287, 1532.2
3.105432002088227, 1532.4
3.105106355213363, 1532.6
3.104780793319415, 1532.8
3.104455316373124, 1533.0
3.104129924341247, 1533.2
3.103804617190557, 1533.4
3.103479394887846, 1533.6
3.103154257399922, 1533.8
3.102829204693611, 1534.0
3.102504236735758, 1534.2
3.102179353493222, 1534.4
3.101854554932882, 1534.6
3.101529841021632, 1534.8
3.101205211726384, 1535.0
3.100880667014070, 1535.2
3.100556206851635, 1535.4
3.100231831206043, 1535.6
3.099907540044276, 1535.8
3.099583333333333, 1536.0
3.099259211040229, 1536.2
3.098935173131997, 1536.4
3.098611219575687, 1536.6
3.098287350338365, 1536.8
3.097963565387118, 1537.0
3.097639864689045, 1537.2
3.097316248211265, 1537.4
3.096992715920916, 1537.6
3.096669267785148, 1537.8
3.096345903771131, 1538.0
3.096022623846054, 1538.2
3.095699427977119, 1538.4
3.095376316131548, 1538.6
3.095053288276579, 1538.8
3.094730344379467, 1539.0
3.094407484407484, 1539.2
3.094084708327919, 1539.4
3.093762016108080, 1539.6
3.093439407715288, 1539.8
3.093116883116883, 1540.0
3.092794442280223, 1540.2
3.092472085172682, 1540.4
3.092149811761651, 1540.6
3.091827622014538, 1540.8
3.091505515898767, 1541.0
3.091183493381780, 1541.2
3.090861554431036, 1541.4
3.090539699014011, 1541.6
3.090217927098197, 1541.8
3.089896238651102, 1542.0
3.089574633640254, 1542.2
3.089253112033195, 1542.4
3.088931673797485, 1542.6
3.088610318900700, 1542.8
3.088289047310434, 1543.0
3.087967858994297, 1543.2
3.087646753919917, 1543.4
3.087325732054937, 1543.6
3.087004793367016, 1543.8
3.086683937823834, 1544.0
3.086363165393084, 1544.2
3.086042476042476, 1544.4
3.085721869739738, 1544.6
3.085401346452615, 1544.8
3.085080906148867, 1545.0
3.084760548796272, 1545.2
3.084440274362624, 1545.4
3.084120082815735, 1545.6
3.083799974123431, 1545.8
3.083479948253558, 1546.0
3.083160005173975, 1546.2
3.082840144852561, 1546.4
3.082520367257209, 1546.6
3.082200672355831, 1546.8
3.081881060116354, 1547.0
3.081561530506721, 1547.2
3.081242083494895, 1547.4
3.080922719048850, 1547.6
3.080603437136581, 1547.8
3.080284237726098, 1548.0
3.079965120785428, 1548.2
3.079646086282614, 1548.4
3.079327134185716, 1548.6
3.079008264462810, 1548.8
3.078689477081988, 1549.0
3.078370772011361, 1549.2
3.078052149219052, 1549.4
3.077733608673206, 1549.6
3.077415150341980, 1549.8
3.077096774193548, 1550.0
3.076778480196103, 1550.2
3.076460268317853, 1550.4
3.076142138527022, 1550.6
3.075824090791849, 1550.8
3.075506125080593, 1551.0
3.075188241361527, 1551.2
3.074870439602939, 1551.4
3.074552719773137, 1551.6
3.074235081840443, 1551.8
3.073917525773196, 1552.0
3.073600051539750, 1552.2
3.073282659108477, 1552.4
3.072965348447765, 1552.6
3.072648119526018, 1552.8
3.072330972311655, 1553.0
3.072013906773114, 1553.2
3.071696922878846, 1553.4
3.071380020597323, 1553.6
3.071063199897027, 1553.8
3.070746460746461, 1554.0
3.070429803114142, 1554.2
3.070113226968605, 1554.4
3.069796732278399, 1554.6
3.069480319012091, 1554.8
3.069163987138264, 1555.0
3.068847736625514, 1555.2
3.068531567442458, 1555.4
3.068215479557727, 1555.6
3.067899472939966, 1555.8
3.067583547557840, 1556.0
3.067267703380028, 1556.2
3.066951940375225, 1556.4
3.066636258512142, 1556.6
3.066320657759507, 1556.8
3.066005138086063, 1557.0
3.065689699460570, 1557.2
3.065374341851804, 1557.4
3.065059065228557, 1557.6
3.064743869559635, 1557.8
3.064428754813864, 1558.0
3.064113720960082, 1558.2
3.063798767967146, 1558.4
3.063483895803927, 1558.6
3.063169104439312, 1558.8
3.062854393842207, 1559.0
3.062539763981529, 1559.2
3.062225214826215, 1559.4
3.061910746345217, 1559.6
3.061596358507501, 1559.8
3.061282051282051, 1560.0
3.060967824637867, 1560.2
3.060653678543963, 1560.4
3.060339612969371, 1560.6
3.060025627883137, 1560.8
3.059711723254324, 1561.0
3.059397899052011, 1561.2
3.059084155245293, 1561.4
3.058770491803279, 1561.6
3.058456908695095, 1561.8
3.058143405889885, 1562.0
3.057829983356804, 1562.2
3.057516641065028, 1562.4
3.057203378983745, 1562.6
3.056890197082160, 1562.8
3.056577095329494, 1563.0
3.056264073694984, 1563.2
3.055951132147883, 1563.4
3.055638270657457, 1563.6
3.055325489192991, 1563.8
3.055012787723785, 1564.0
3.054700166219154, 1564.2
3.054387624648427, 1564.4
3.054075162980954, 1564.6
3.053762781186094, 1564.8
3.053450479233227, 1565.0
3.053138257091745, 1565.2
3.052826114731059, 1565.4
3.052514052120593, 1565.6
3.052202069229787, 1565.8
3.051890166028097, 1566.0
3.051578342484995, 1566.2
3.051266598569969, 1566.4
3.050954934252522, 1566.6
3.050643349502170, 1566.8
3.050331844288449, 1567.0
3.050020418580909, 1567.2
3.049709072349113, 1567.4
3.049397805562644, 1567.6
3.049086618191096, 1567.8
3.048775510204082, 1568.0
3.048464481571228, 1568.2
3.048153532262178, 1568.4
3.047842662246589, 1568.6
3.047531871494136, 1568.8
3.047221159974506, 1569.0
3.046910527657405, 1569.2
3.046599974512552, 1569.4
3.046289500509684, 1569.6
3.045979105618550, 1569.8
3.045668789808917, 1570.0
3.045358553050566, 1570.2
3.045048395313296, 1570.4
3.044738316566917, 1570.6
3.044428316781258, 1570.8
3.044118395926162, 1571.0
3.043808553971487, 1571.2
3.043498790887107, 1571.4
3.043189106642912, 1571.6
3.042879501208805, 1571.8
3.042569974554707, 1572.0
3.042260526650553, 1572.2
3.041951157466293, 1572.4
3.041641866971894, 1572.6
3.041332655137335, 1572.8
3.041023521932613, 1573.0
3.040714467327740, 1573.2
3.040405491292741, 1573.4
3.040096593797661, 1573.6
3.039787774812555, 1573.8
3.039479034307497, 1574.0
3.039170372252573, 1574.2
3.038861788617886, 1574.4
3.038553283373555, 1574.6
3.038244856489713, 1574.8
3.037936507936508, 1575.0
3.037628237684103, 1575.2
3.037320045702678, 1575.4
3.037011931962427, 1575.6
3.036703896433557, 1575.8
3.036395939086294, 1576.0
3.036088059890877, 1576.2
3.035780258817559, 1576.4
3.035472535836611, 1576.6
3.035164890918316, 1576.8
3.034857324032974, 1577.0
3.034549835150900, 1577.2
3.034242424242424, 1577.4
3.033935091277891, 1577.6
3.033627836227659, 1577.8
3.033320659062104, 1578.0
3.033013559751616, 1578.2
3.032706538266599, 1578.4
3.032399594577474, 1578.6
3.032092728654674, 1578.8
3.031785940468651, 1579.0
3.031479229989868, 1579.2
3.031172597188806, 1579.4
3.030866042035958, 1579.6
3.030559564501836, 1579.8
3.030253164556962, 1580.0
3.029946842171877, 1580.2
3.029640597317135, 1580.4
3.029334429963305, 1580.6
3.029028340080972, 1580.8
3.028722327640734, 1581.0
3.028416392613205, 1581.2
3.028110534969015, 1581.4
3.027804754678806, 1581.6
3.027499051713238, 1581.8
3.027193426042984, 1582.0
3.026887877638731, 1582.2
3.026582406471183, 1582.4
3.026277012511058, 1582.6
3.025971695729087, 1582.8
3.025666456096020, 1583.0
3.025361293582617, 1583.2
3.025056208159656, 1583.4
3.024751199797929, 1583.6
3.024446268468241, 1583.8
3.024141414141414, 1584.0
3.023836636788284, 1584.2
3.023531936379702, 1584.4
3.023227312886533, 1584.6
3.022922766279657, 1584.8
3.022618296529968, 1585.0
3.022313903608377, 1585.2
3.022009587485808, 1585.4
3.021705348133199, 1585.6
3.021401185521503, 1585.8
3.021097099621690, 1586.0
3.020793090404741, 1586.2
3.020489157841654, 1586.4
3.020185301903441, 1586.6
3.019881522561129, 1586.8
3.019577819785759, 1587.0
3.019274193548387, 1587.2
3.018970643820083, 1587.4
3.018667170571932, 1587.6
3.018363773775035, 1587.8
3.018060453400504, 1588.0
3.017757209419468, 1588.2
3.017454041803072, 1588.4
3.017150950522473, 1588.6
3.016847935548842, 1588.8
3.016544996853367, 1589.0
3.016242134407249, 1589.2
3.015939348181703, 1589.4
3.015636638147962, 1589.6
3.015334004277268, 1589.8
3.015031446540880, 1590.0
3.014728964910074, 1590.2
3.014426559356136, 1590.4
3.014124229850371, 1590.6
3.013821976364094, 1590.8
3.013519798868636, 1591.0
3.013217697335344, 1591.2
3.012915671735578, 1591.4
3.012613722040714, 1591.6
3.012311848222138, 1591.8
3.012010050251256, 1592.0
3.011708328099485, 1592.2
3.011406681738257, 1592.4
3.011105111139018, 1592.6
3.010803616273229, 1592.8
3.010502197112367, 1593.0
3.010200853627918, 1593.2
3.009899585791389, 1593.4
3.009598393574297, 1593.6
3.009297276948174, 1593.8
3.008996235884567, 1594.0
3.008695270355037, 1594.2
3.008394380331159, 1594.4
3.008093565784523, 1594.6
3.007792826686732, 1594.8
3.007492163009404, 1595.0
3.007191574724172, 1595.2
3.006891061802683, 1595.4
3.006590624216596, 1595.6
3.006290261937586, 1595.8
3.005989974937343, 1596.0
3.005689763187570, 1596.2
3.005389626659985, 1596.4
3.005089565326319, 1596.6
3.004789579158317, 1596.8
3.004489668127739, 1597.0
3.004189832206361, 1597.2
3.003890071365969, 1597.4
3.003590385578367, 1597.6
3.003290774815371, 1597.8
3.002991239048811, 1598.0
3.002691778250532, 1598.2
3.002392392392392, 1598.4
3.002093081446266, 1598.6
3.001793845384038, 1598.8
3.001494684177611, 1599.0
3.001195597798899, 1599.2
3.000896586219832, 1599.4
3.000597649412353, 1599.6
3.000298787348418, 1599.8
3.000000000000000, 1600.0
2.999701287339082, 1600.2
2.999402649337665, 1600.4
2.999104085967762, 1600.6
2.998805597201399, 1600.8
2.998507183010618, 1601.0
2.998208843367474, 1601.2
2.997910578244036, 1601.4
2.997612387612388, 1601.6
2.997314271444625, 1601.8
2.997016229712859, 1602.0
2.996718262389215, 1602.2
2.996420369445831, 1602.4
2.996122550854861, 1602.6
2.995824806588470, 1602.8
2.995527136618839, 1603.0
2.995229540918163, 1603.2
2.994932019458650, 1603.4
2.994634572212522, 1603.6
2.994337199152014, 1603.8
2.994039900249376, 1604.0
2.993742675476873, 1604.2
2.993445524806781, 1604.4
2.993148448211392, 1604.6
2.992851445663011, 1604.8
2.992554517133956, 1605.0
2.992257662596561, 1605.2
2.991960882023172, 1605.4
2.991664175386148, 1605.6
2.991367542657865, 1605.8
2.991070983810710, 1606.0
2.990774498817084, 1606.2
2.990478087649402, 1606.4
2.990181750280095, 1606.6
2.989885486681603, 1606.8
2.989589296826384, 1607.0
2.989293180686909, 1607.2
2.988997138235660, 1607.4
2.988701169445136, 1607.6
2.988405274287847, 1607.8
2.988109452736318, 1608.0
2.987813704763089, 1608.2
2.987518030340711, 1608.4
2.987222429441751, 1608.6
2.986926902038787, 1608.8
2.986631448104413, 1609.0
2.986336067611235, 1609.2
2.986040760531875, 1609.4
2.985745526838966, 1609.6
2.985450366505156, 1609.8
2.985155279503105, 1610.0
2.984860265805490, 1610.2
2.984565325384997, 1610.4
2.984270458214330, 1610.6
2.983975664266203, 1610.8
2.983680943513346, 1611.0
2.983386295928500, 1611.2
2.983091721484423, 1611.4
2.982797220153884, 1611.6
2.982502791909666, 1611.8
2.982208436724566, 1612.0
2.981914154571393, 1612.2
2.981619945422972, 1612.4
2.981325809252140, 1612.6
2.981031746031746, 1612.8
2.980737755734656, 1613.0
2.980443838333747, 1613.2
2.980149993801909, 1613.4
2.979856222112048, 1613.6
2.979562523237080, 1613.8
2.979268897149938, 1614.0
2.978975343823566, 1614.2
2.978681863230921, 1614.4
2.978388455344977, 1614.6
2.978095120138717, 1614.8
2.977801857585139, 1615.0
2.977508667657256, 1615.2
2.977215550328092, 1615.4
2.976922505570686, 1615.6
2.976629533358089, 1615.8
2.976336633663366, 1616.0
2.976043806459596, 1616.2
2.975751051719871, 1616.4
2.975458369417296, 1616.6
2.975165759524987, 1616.8
2.974873222016079, 1617.0
2.974580756863715, 1617.2
2.974288364041053, 1617.4
2.973996043521266, 1617.6
2.973703795277537, 1617.8
2.973411619283065, 1618.0
2.973119515511061, 1618.2
2.972827483934750, 1618.4
2.972535524527369, 1618.6
2.972243637262169, 1618.8
2.971951822112415, 1619.0
2.971660079051383, 1619.2
2.971368408052365, 1619.4
2.971076809088664, 1619.6
2.970785282133597, 1619.8
2.970493827160494, 1620.0
2.970202444142698, 1620.2
2.969911133053567, 1620.4
2.969619893866469, 1620.6
2.969328726554788, 1620.8
2.969037631091918, 1621.0
2.968746607451271, 1621.2
2.968455655606266, 1621.4
2.968164775530340, 1621.6
2.967873967196942, 1621.8
2.967583230579531, 1622.0
2.967292565651584, 1622.2
2.967001972386587, 1622.4
2.966711450758043, 1622.6
2.966421000739463, 1622.8
2.966130622304374, 1623.0
2.965840315426318, 1623.2
2.965550080078847, 1623.4
2.965259916235526, 1623.6
2.964969823869934, 1623.8
2.964679802955665, 1624.0
2.964389853466322, 1624.2
2.964099975375523, 1624.4
2.963810168656900, 1624.6
2.963520433284097, 1624.8
2.963230769230769, 1625.0
2.962941176470588, 1625.2
2.962651654977236, 1625.4
2.962362204724410, 1625.6
2.962072825685816, 1625.8
2.961783517835178, 1626.0
2.961494281146230, 1626.2
2.961205115592720, 1626.4
2.960916021148408, 1626.6
2.960626997787067, 1626.8
2.960338045482483, 1627.0
2.960049164208456, 1627.2
2.959760353938798, 1627.4
2.959471614647334, 1627.6
2.959182946307900, 1627.8
2.958894348894349, 1628.0
2.958605822380543, 1628.2
2.958317366740358, 1628.4
2.958028981947685, 1628.6
2.957740667976424, 1628.8
2.957452424800491, 1629.0
2.957164252393813, 1629.2
2.956876150730330, 1629.4
2.956588119783996, 1629.6
2.956300159528777, 1629.8
2.956012269938650, 1630.0
2.955724450987609, 1630.2
2.955436702649656, 1630.4
2.955149024898810, 1630.6
2.954861417709100, 1630.8
2.954573881054567, 1631.0
2.954286414909269, 1631.2
2.953999019247272, 1631.4
2.953711694042657, 1631.6
2.953424439269518, 1631.8
2.953137254901961, 1632.0
2.952850140914104, 1632.2
2.952563097280078, 1632.4
2.952276123974029, 1632.6
2.951989220970113, 1632.8
2.951702388242498, 1633.0
2.951415625765368, 1633.2
2.951128933512917, 1633.4
2.950842311459354, 1633.6
2.950555759578896, 1633.8
2.950269277845777, 1634.0
2.949982866234243, 1634.2
2.949696524718551, 1634.4
2.949410253272972, 1634.6
2.949124051871788, 1634.8
2.948837920489296, 1635.0
2.948551859099804, 1635.2
2.948265867677632, 1635.4
2.947979946197114, 1635.6
2.947694094632596, 1635.8
2.947408312958435, 1636.0
2.947122601149004, 1636.2
2.946836959178685, 1636.4
2.946551387021874, 1636.6
2.946265884652981, 1636.8
2.945980452046426, 1637.0
2.945695089176643, 1637.2
2.945409796018077, 1637.4
2.945124572545188, 1637.6
2.944839418732446, 1637.8
2.944554334554335, 1638.0
2.944269319985350, 1638.2
2.943984375000000, 1638.4
2.943699499572806, 1638.6
2.943414693678301, 1638.8
2.943129957291031, 1639.0
2.942845290385554, 1639.2
2.942560692936440, 1639.4
2.942276164918273, 1639.6
2.941991706305647, 1639.8
2.941707317073170, 1640.0
2.941422997195464, 1640.2
2.941138746647159, 1640.4
2.940854565402901, 1640.6
2.940570453437347, 1640.8
2.940286410725168, 1641.0
2.940002437241043, 1641.2
2.939718532959668, 1641.4
2.939434697855750, 1641.6
2.939150931904008, 1641.8
2.938867235079172, 1642.0
2.938583607355986, 1642.2
2.938300048709206, 1642.4
2.938016559113600, 1642.6
2.937733138543949, 1642.8
2.937449786975046, 1643.0
2.937166504381694, 1643.2
2.936883290738712, 1643.4
2.936600146020930, 1643.6
2.936317070203188, 1643.8
2.936034063260340, 1644.0
2.935751125167255, 1644.2
2.935468255898808, 1644.4
2.935185455429892, 1644.6
2.934902723735409, 1644.8
2.934620060790273, 1645.0
2.934337466569414, 1645.2
2.934054941047769, 1645.4
2.933772484200292, 1645.6
2.933490096001944, 1645.8
2.933207776427703, 1646.0
2.932925525452557, 1646.2
2.932643343051506, 1646.4
2.932361229199563, 1646.6
2.932079183871751, 1646.8
2.931797207043108, 1647.0
2.931515298688684, 1647.2
2.931233458783538, 1647.4
2.930951687302743, 1647.6
2.930669984221386, 1647.8
2.930388349514563, 1648.0
2.930106783157384, 1648.2
2.929825285124970, 1648.4
2.929543855392454, 1648.6
2.929262493934983, 1648.8
2.928981200727714, 1649.0
2.928699975745816, 1649.2
2.928418818964472, 1649.4
2.928137730358875, 1649.6
2.927856709904231, 1649.8
2.927575757575757, 1650.0
2.927294873348685, 1650.2
2.927014057198255, 1650.4
2.926733309099721, 1650.6
2.926452629028350, 1650.8
2.926172016959419, 1651.0
2.925891472868217, 1651.2
2.925610996730047, 1651.4
2.925330588520223, 1651.6
2.925050248214069, 1651.8
2.924769975786925, 1652.0
2.924489771214139, 1652.2
2.924209634471072, 1652.4
2.923929565533099, 1652.6
2.923649564375605, 1652.8
2.923369630973986, 1653.0
2.923089765303653, 1653.2
2.922809967340026, 1653.4
2.922530237058539, 1653.6
2.922250574434635, 1653.8
2.921970979443773, 1654.0
2.921691452061419, 1654.2
2.921411992263056, 1654.4
2.921132600024175, 1654.6
2.920853275320280, 1654.8
2.920574018126888, 1655.0
2.920294828419526, 1655.2
2.920015706173734, 1655.4
2.919736651365064, 1655.6
2.919457663969078, 1655.8
2.919178743961353, 1656.0
2.918899891317474, 1656.2
2.918621106013040, 1656.4
2.918342388023663, 1656.6
2.918063737324964, 1656.8
2.917785153892577, 1657.0
2.917506637702148, 1657.2
2.917228188729335, 1657.4
2.916949806949807, 1657.6
2.916671492339245, 1657.8
2.916393244873341, 1658.0
2.916115064527801, 1658.2
2.915836951278340, 1658.4
2.915558905100687, 1658.6
2.915280925970581, 1658.8
2.915003013863773, 1659.0
2.914725168756027, 1659.2
2.914447390623117, 1659.4
2.914169679440829, 1659.6
2.913892035184962, 1659.8
2.913614457831325, 1660.0
2.913336947355740, 1660.2
2.913059503734040, 1660.4
2.912782126942069, 1660.6
2.912504816955684, 1660.8
2.912227573750752, 1661.0
2.911950397303154, 1661.2
2.911673287588780, 1661.4
2.911396244583534, 1661.6
2.911119268263329, 1661.8
2.910842358604091, 1662.0
2.910565515581759, 1662.2
2.910288739172281, 1662.4
2.910012029351618, 1662.6
2.909735386095742, 1662.8
2.909458809380637, 1663.0
2.909182299182299, 1663.2
2.908905855476734, 1663.4
2.908629478239961, 1663.6
2.908353167448011, 1663.8
2.908076923076923, 1664.0
2.907800745102752, 1664.2
2.907524633501562, 1664.4
2.907248588249429, 1664.6
2.906972609322441, 1664.8
2.906696696696697, 1665.0
2.906420850348306, 1665.2
2.906145070253392, 1665.4
2.905869356388088, 1665.6
2.905593708728539, 1665.8
2.905318127250900, 1666.0
2.905042611931341, 1666.2
2.904767162746039, 1666.4
2.904491779671187, 1666.6
2.904216462682985, 1666.8
2.903941211757648, 1667.0
2.903666026871401, 1667.2
2.903390908000480, 1667.4
2.903115855121132, 1667.6
2.902840868209617, 1667.8
2.902565947242206, 1668.0
2.902291092195180, 1668.2
2.902016303044833, 1668.4
2.901741579767470, 1668.6
2.901466922339405, 1668.8
2.901192330736968, 1669.0
2.900917804936496, 1669.2
2.900643344914340, 1669.4
2.900368950646862, 1669.6
2.900094622110432, 1669.8
2.899820359281437, 1670.0
2.899546162136271, 1670.2
2.899272030651341, 1670.4
2.898997964803065, 1670.6
2.898723964567872, 1670.8
2.898450029922202, 1671.0
2.898176160842508, 1671.2
2.897902357305253, 1671.4
2.897628619286911, 1671.6
2.897354946763967, 1671.8
2.897081339712919, 1672.0
2.896807798110274, 1672.2
2.896534321932552, 1672.4
2.896260911156284, 1672.6
2.895987565758011, 1672.8
2.895714285714285, 1673.0
2.895441071001673, 1673.2
2.895167921596749, 1673.4
2.894894837476099, 1673.6
2.894621818616322, 1673.8
2.894348864994026, 1674.0
2.894075976585832, 1674.2
2.893803153368371, 1674.4
2.893530395318285, 1674.6
2.893257702412228, 1674.8
2.892985074626865, 1675.0
2.892712511938873, 1675.2
2.892440014324937, 1675.4
2.892167581761757, 1675.6
2.891895214226041, 1675.8
2.891622911694510, 1676.0
2.891350674143897, 1676.2
2.891078501550942, 1676.4
2.890806393892401, 1676.6
2.890534351145038, 1676.8
2.890262373285629, 1677.0
2.889990460290961, 1677.2
2.889718612137832, 1677.4
2.889446828803052, 1677.6
2.889175110263440, 1677.8
2.888903456495828, 1678.0
2.888631867477058, 1678.2
2.888360343183984, 1678.4
2.888088883593471, 1678.6
2.887817488682392, 1678.8
2.887546158427635, 1679.0
2.887274892806098, 1679.2
2.887003691794688, 1679.4
2.886732555370326, 1679.6
2.886461483509942, 1679.8
2.886190476190476, 1680.0
2.885919533388882, 1680.2
2.885648655082123, 1680.4
2.885377841247174, 1680.6
2.885107091861018, 1680.8
2.884836406900654, 1681.0
2.884565786343088, 1681.2
2.884295230165338, 1681.4
2.884024738344434, 1681.6
2.883754310857415, 1681.8
2.883483947681332, 1682.0
2.883213648793247, 1682.2
2.882943414170233, 1682.4
2.882673243789374, 1682.6
2.882403137627763, 1682.8
2.882133095662507, 1683.0
2.881863117870722, 1683.2
2.881593204229535, 1683.4
2.881323354716085, 1683.6
2.881053569307519, 1683.8
2.880783847980998, 1684.0
2.880514190713692, 1684.2
2.880244597482783, 1684.4
2.879975068265463, 1684.6
2.879705603038937, 1684.8
2.879436201780415, 1685.0
2.879166864467126, 1685.2
2.878897591076302, 1685.4
2.878628381585192, 1685.6
2.878359235971052, 1685.8
2.878090154211150, 1686.0
2.877821136282766, 1686.2
2.877552182163188, 1686.4
2.877283291829717, 1686.6
2.877014465259663, 1686.8
2.876745702430350, 1687.0
2.876477003319108, 1687.2
2.876208367903283, 1687.4
2.875939796160227, 1687.6
2.875671288067307, 1687.8
2.875402843601896, 1688.0
2.875134462741381, 1688.2
2.874866145463160, 1688.4
2.874597891744640, 1688.6
2.874329701563240, 1688.8
2.874061574896388, 1689.0
2.873793511721525, 1689.2
2.873525512016100, 1689.4
2.873257575757576, 1689.6
2.872989702923423, 1689.8
2.872721893491124, 1690.0
2.872454147438173, 1690.2
2.872186464742073, 1690.4
2.871918845380338, 1690.6
2.871651289330494, 1690.8
2.871383796570077, 1691.0
2.871116367076632, 1691.2
2.870849000827716, 1691.4
2.870581697800898, 1691.6
2.870314457973756, 1691.8
2.870047281323877, 1692.0
2.869780167828861, 1692.2
2.869513117466320, 1692.4
2.869246130213872, 1692.6
2.868979206049149, 1692.8
2.868712344949793, 1693.0
2.868445546893456, 1693.2
2.868178811857800, 1693.4
2.867912139820501, 1693.6
2.867645530759240, 1693.8
2.867378984651712, 1694.0
2.867112501475622, 1694.2
2.866846081208687, 1694.4
2.866579723828632, 1694.6
2.866313429313193, 1694.8
2.866047197640118, 1695.0
2.865781028787163, 1695.2
2.865514922732098, 1695.4
2.865248879452701, 1695.6
2.864982898926760, 1695.8
2.864716981132075, 1696.0
2.864451126046457, 1696.2
2.864185333647725, 1696.4
2.863919603913710, 1696.6
2.863653936822254, 1696.8
2.863388332351208, 1697.0
2.863122790478435, 1697.2
2.862857311181807, 1697.4
2.862591894439208, 1697.6
2.862326540228531, 1697.8
2.862061248527680, 1698.0
2.861796019314568, 1698.2
2.861530852567122, 1698.4
2.861265748263276, 1698.6
2.861000706380975, 1698.8
2.860735726898175, 1699.0
2.860470809792843, 1699.2
2.860205955042956, 1699.4
2.859941162626500, 1699.6
2.859676432521473, 1699.8
2.859411764705882, 1700.0
2.859147159157746, 1700.2
2.858882615855093, 1700.4
2.858618134775961, 1700.6
2.858353715898401, 1700.8
2.858089359200470, 1701.0
2.857825064660239, 1701.2
2.857560832255789, 1701.4
2.857296661965209, 1701.6
2.857032553766600, 1701.8
2.856768507638073, 1702.0
2.856504523557748, 1702.2
2.856240601503759, 1702.4
2.855976741454247, 1702.6
2.855712943387362, 1702.8
2.855449207281268, 1703.0
2.855185533114138, 1703.2
2.854921920864154, 1703.4
2.854658370509509, 1703.6
2.854394882028407, 1703.8
2.854131455399061, 1704.0
2.853868090599695, 1704.2
2.853604787608542, 1704.4
2.853341546403848, 1704.6
2.853078366963867, 1704.8
2.852815249266862, 1705.0
2.852552193291110, 1705.2
2.852289199014894, 1705.4
2.852026266416510, 1705.6
2.851763395474264, 1705.8
2.851500586166471, 1706.0
2.851237838471457, 1706.2
2.850975152367557, 1706.4
2.850712527833119, 1706.6
2.850449964846496, 1706.8
2.850187463386057, 1707.0
2.849925023430178, 1707.2
2.849662644957245, 1707.4
2.849400327945655, 1707.6
2.849138072373814, 1707.8
2.848875878220140, 1708.0
2.848613745463060, 1708.2
2.848351674081011, 1708.4
2.848089664052440, 1708.6
2.847827715355805, 1708.8
2.847565827969573, 1709.0
2.847304001872221, 1709.2
2.847042237042237, 1709.4
2.846780533458119, 1709.6
2.846518891098374, 1709.8
2.846257309941520, 1710.0
2.845995789966086, 1710.2
2.845734331150608, 1710.4
2.845472933473635, 1710.6
2.845211596913725, 1710.8
2.844950321449445, 1711.0
2.844689107059373, 1711.2
2.844427953722099, 1711.4
2.844166861416219, 1711.6
2.843905830120341, 1711.8
2.843644859813084, 1712.0
2.843383950473076, 1712.2
2.843123102078953, 1712.4
2.842862314609366, 1712.6
2.842601588042970, 1712.8
2.842340922358435, 1713.0
2.842080317534438, 1713.2
2.841819773549667, 1713.4
2.841559290382820, 1713.6
2.841298868012604, 1713.8
2.841038506417736, 1714.0
2.840778205576945, 1714.2
2.840517965468969, 1714.4
2.840257786072554, 1714.6
2.839997667366457, 1714.8
2.839737609329446, 1715.0
2.839477611940298, 1715.2
2.839217675177801, 1715.4
2.838957799020751, 1715.6
2.838697983447954, 1715.8
2.838438228438228, 1716.0
2.838178533970400, 1716.2
2.837918900023304, 1716.4
2.837659326575789, 1716.6
2.837399813606710, 1716.8
2.837140361094933, 1717.0
2.836880969019334, 1717.2
2.836621637358798, 1717.4
2.836362366092222, 1717.6
2.836103155198510, 1717.8
2.835844004656577, 1718.0
2.835584914445350, 1718.2
2.835325884543761, 1718.4
2.835066914930758, 1718.6
2.834808005585292, 1718.8
2.834549156486329, 1719.0
2.834290367612843, 1719.2
2.834031638943817, 1719.4
2.833772970458246, 1719.6
2.833514362135132, 1719.8
2.833255813953488, 1720.0
2.832997325892338, 1720.2
2.832738897930714, 1720.4
2.832480530047658, 1720.6
2.832222222222222, 1720.8
2.831963974433469, 1721.0
2.831705786660469, 1721.2
2.831447658882305, 1721.4
2.831189591078067, 1721.6
2.830931583226855, 1721.8
2.830673635307781, 1722.0
2.830415747299965, 1722.2
2.830157919182536, 1722.4
2.829900150934634, 1722.6
2.829642442535407, 1722.8
2.829384793964016, 1723.0
2.829127205199629, 1723.2
2.828869676221422, 1723.4
2.828612207008587, 1723.6
2.828354797540318, 1723.8
2.828097447795824, 1724.0
2.827840157754321, 1724.2
2.827582927395036, 1724.4
2.827325756697205, 1724.6
2.827068645640074, 1724.8
2.826811594202899, 1725.0
2.826554602364943, 1725.2
2.826297670105482, 1725.4
2.826040797403802, 1725.6
2.825783984239193, 1725.8
2.825527230590962, 1726.0
2.825270536438420, 1726.2
2.825013901760889, 1726.4
2.824757326537704, 1726.6
2.824500810748205, 1726.8
2.824244354371743, 1727.0
2.823987957387679, 1727.2
2.823731619775385, 1727.4
2.823475341514239, 1727.6
2.823219122583633, 1727.8
2.822962962962963, 1728.0
2.822706862631640, 1728.2
2.822450821569081, 1728.4
2.822194839754715, 1728.6
2.821938917167978, 1728.8
2.821683053788317, 1729.0
2.821427249595188, 1729.2
2.821171504568058, 1729.4
2.820915818686402, 1729.6
2.820660191929703, 1729.8
2.820404624277456, 1730.0
2.820149115709166, 1730.2
2.819893666204345, 1730.4
2.819638275742517, 1730.6
2.819382944303212, 1730.8
2.819127671865973, 1731.0
2.818872458410351, 1731.2
2.818617303915906, 1731.4
2.818362208362208, 1731.6
2.818107171728837, 1731.8
2.817852193995381, 1732.0
2.817597275141439, 1732.2
2.817342415146617, 1732.4
2.817087613990534, 1732.6
2.816832871652816, 1732.8
2.816578188113099, 1733.0
2.816323563351027, 1733.2
2.816068997346256, 1733.4
2.815814490078449, 1733.6
2.815560041527281, 1733.8
2.815305651672434, 1734.0
2.815051320493599, 1734.2
2.814797047970480, 1734.4
2.814542834082786, 1734.6
2.814288678810237, 1734.8
2.814034582132565, 1735.0
2.813780544029507, 1735.2
2.813526564480811, 1735.4
2.813272643466236, 1735.6
2.813018780965549, 1735.8
2.812764976958525, 1736.0
2.812511231424951, 1736.2
2.812257544344621, 1736.4
2.812003915697340, 1736.6
2.811750345462920, 1736.8
2.811496833621186, 1737.0
2.811243380151968, 1737.2
2.810989985035110, 1737.4
2.810736648250460, 1737.6
2.810483369777880, 1737.8
2.810230149597238, 1738.0
2.809976987688413, 1738.2
2.809723884031293, 1738.4
2.809470838605775, 1738.6
2.809217851391764, 1738.8
2.808964922369177, 1739.0
2.808712051517939, 1739.2
2.808459238817983, 1739.4
2.808206484249253, 1739.6
2.807953787791700, 1739.8
2.807701149425287, 1740.0
2.807448569129985, 1740.2
2.807196046885773, 1740.4
2.806943582672642, 1740.6
2.806691176470588, 1740.8
2.806438828259621, 1741.0
2.806186538019756, 1741.2
2.805934305731021, 1741.4
2.805682131373450, 1741.6
2.805430014927087, 1741.8
2.805177956371986, 1742.0
2.804925955688210, 1742.2
2.804674012855831, 1742.4
2.804422127854930, 1742.6
2.804170300665596, 1742.8
2.803918531267929, 1743.0
2.803666819642038, 1743.2
2.803415165768039, 1743.4
2.803163569626061, 1743.6
2.802912031196238, 1743.8
2.802660550458715, 1744.0
2.802409127393647, 1744.2
2.802157761981197, 1744.4
2.801906454201536, 1744.6
2.801655204034846, 1744.8
2.801404011461318, 1745.0
2.801152876461150, 1745.2
2.800901799014552, 1745.4
2.800650779101741, 1745.6
2.800399816702944, 1745.8
2.800148911798396, 1746.0
2.799898064368342, 1746.2
2.799647274393037, 1746.4
2.799396541852742, 1746.6
2.799145866727731, 1746.8
2.798895248998283, 1747.0
2.798644688644688, 1747.2
2.798394185647247, 1747.4
2.798143739986267, 1747.6
2.797893351642064, 1747.8
2.797643020594966, 1748.0
2.797392746825306, 1748.2
2.797142530313429, 1748.4
2.796892371039689, 1748.6
2.796642268984447, 1748.8
2.796392224128073, 1749.0
2.796142236450949, 1749.2
2.795892305933463, 1749.4
2.795642432556013, 1749.6
2.795392616299006, 1749.8
2.795142857142857, 1750.0
2.794893155067992, 1750.2
2.794643510054844, 1750.4
2.794393922083857, 1750.6
2.794144391135481, 1750.8
2.793894917190177, 1751.0
2.793645500228414, 1751.2
2.793396140230672, 1751.4
2.793146837177438, 1751.6
2.792897591049206, 1751.8
2.792648401826484, 1752.0
2.792399269489784, 1752.2
2.792150194019630, 1752.4
2.791901175396553, 1752.6
2.791652213601096, 1752.8
2.791403308613805, 1753.0
2.791154460415241, 1753.2
2.790905668985970, 1753.4
2.790656934306569, 1753.6
2.790408256357623, 1753.8
2.790159635119726, 1754.0
2.789911070573480, 1754.2
2.789662562699498, 1754.4
2.789414111478400, 1754.6
2.789165716890813, 1754.8
2.788917378917379, 1755.0
2.788669097538742, 1755.2
2.788420872735559, 1755.4
2.788172704488494, 1755.6
2.787924592778221, 1755.8
2.787676537585421, 1756.0
2.787428538890787, 1756.2
2.787180596675017, 1756.4
2.786932710918820, 1756.6
2.786684881602914, 1756.8
2.786437108708025, 1757.0
2.786189392214887, 1757.2
2.785941732104245, 1757.4
2.785694128356850, 1757.6
2.785446580953464, 1757.8
2.785199089874858, 1758.0
2.784951655101808, 1758.2
2.784704276615104, 1758.4
2.784456954395542, 1758.6
2.784209688423925, 1758.8
2.783962478681069, 1759.0
2.783715325147794, 1759.2
2.783468227804933, 1759.4
2.783221186633326, 1759.6
2.782974201613820, 1759.8
2.782727272727273, 1760.0
2.782480399954550, 1760.2
2.782233583276528, 1760.4
2.781986822674088, 1760.6
2.781740118128123, 1760.8
2.781493469619534, 1761.0
2.781246877129230, 1761.2
2.781000340638129, 1761.4
2.780753860127157, 1761.6
2.780507435577250, 1761.8
2.780261066969353, 1762.0
2.780014754284417, 1762.2
2.779768497503404, 1762.4
2.779522296607285, 1762.6
2.779276151577037, 1762.8
2.779030062393647, 1763.0
2.778784029038112, 1763.2
2.778538051491437, 1763.4
2.778292129734634, 1763.6
2.778046263748724, 1763.8
2.777800453514739, 1764.0
2.777554699013717, 1764.2
2.777309000226706, 1764.4
2.777063357134761, 1764.6
2.776817769718948, 1764.8
2.776572237960340, 1765.0
2.776326761840018, 1765.2
2.776081341339073, 1765.4
2.775835976438604, 1765.6
2.775590667119719, 1765.8
2.775345413363533, 1766.0
2.775100215151172, 1766.2
2.774855072463768, 1766.4
2.774609985282463, 1766.6
2.774364953588409, 1766.8
2.774119977362762, 1767.0
2.773875056586691, 1767.2
2.773630191241371, 1767.4
2.773385381307988, 1767.6
2.773140626767734, 1767.8
2.772895927601810, 1768.0
2.772651283791426, 1768.2
2.772406695317801, 1768.4
2.772162162162162, 1768.6
2.771917684305744, 1768.8
2.771673261729791, 1769.0
2.771428894415555, 1769.2
2.771184582344297, 1769.4
2.770940325497287, 1769.6
2.770696123855803, 1769.8
2.770451977401130, 1770.0
2.770207886114563, 1770.2
2.769963849977406, 1770.4
2.769719868970970, 1770.6
2.769475943076575, 1770.8
2.769232072275551, 1771.0
2.768988256549232, 1771.2
2.768744495878966, 1771.4
2.768500790246105, 1771.6
2.768257139632012, 1771.8
2.768013544018058, 1772.0
2.767770003385622, 1772.2
2.767526517716091, 1772.4
2.767283086990861, 1772.6
2.767039711191336, 1772.8
2.766796390298928, 1773.0
2.766553124295060, 1773.2
2.766309913161159, 1773.4
2.766066756878665, 1773.6
2.765823655429022, 1773.8
2.765580608793687, 1774.0
2.765337616954120, 1774.2
2.765094679891794, 1774.4
2.764851797588189, 1774.6
2.764608970024792, 1774.8
2.764366197183099, 1775.0
2.764123479044614, 1775.2
2.763880815590853, 1775.4
2.763638206803334, 1775.6
2.763395652663588, 1775.8
2.763153153153153, 1776.0
2.762910708253575, 1776.2
2.762668317946408, 1776.4
2.762425982213216, 1776.6
2.762183701035569, 1776.8
2.761941474395048, 1777.0
2.761699302273239, 1777.2
2.761457184651738, 1777.4
2.761215121512151, 1777.6
2.760973112836089, 1777.8
2.760731158605174, 1778.0
2.760489258801035, 1778.2
2.760247413405308, 1778.4
2.760005622399640, 1778.6
2.759763885765685, 1778.8
2.759522203485104, 1779.0
2.759280575539568, 1779.2
2.759039001910756, 1779.4
2.758797482580355, 1779.6
2.758556017530060, 1779.8
2.758314606741573, 1780.0
2.758073250196607, 1780.2
2.757831947876881, 1780.4
2.757590699764124, 1780.6
2.757349505840072, 1780.8
2.757108366086468, 1781.0
2.756867280485066, 1781.2
2.756626249017626, 1781.4
2.756385271665918, 1781.6
2.756144348411719, 1781.8
2.755903479236812, 1782.0
2.755662664122994, 1782.2
2.755421903052064, 1782.4
2.755181196005834, 1782.6
2.754940542966120, 1782.8
2.754699943914750, 1783.0
2.754459398833558, 1783.2
2.754218907704385, 1783.4
2.753978470509083, 1783.6
2.753738087229510, 1783.8
2.753497757847533, 1784.0
2.753257482345028, 1784.2
2.753017260703878, 1784.4
2.752777092905973, 1784.6
2.752536978933214, 1784.8
2.752296918767507, 1785.0
2.752056912390768, 1785.2
2.751816959784922, 1785.4
2.751577060931900, 1785.6
2.751337215813641, 1785.8
2.751097424412094, 1786.0
2.750857686709215, 1786.2
2.750618002686968, 1786.4
2.750378372327326, 1786.6
2.750138795612268, 1786.8
2.749899272523783, 1787.0
2.749659803043867, 1787.2
2.749420387154526, 1787.4
2.749181024837771, 1787.6
2.748941716075624, 1787.8
2.748702460850112, 1788.0
2.748463259143272, 1788.2
2.748224110937150, 1788.4
2.747985016213799, 1788.6
2.747745974955277, 1788.8
2.747506987143656, 1789.0
2.747268052761010, 1789.2
2.747029171789426, 1789.4
2.746790344210997, 1789.6
2.746551570007822, 1789.8
2.746312849162011, 1790.0
2.746074181655681, 1790.2
2.745835567470956, 1790.4
2.745597006589970, 1790.6
2.745358498994863, 1790.8
2.745120044667783, 1791.0
2.744881643590888, 1791.2
2.744643295746343, 1791.4
2.744405001116321, 1791.6
2.744166759683000, 1791.8
2.743928571428571, 1792.0
2.743690436335230, 1792.2
2.743452354385182, 1792.4
2.743214325560638, 1792.6
2.742976349843820, 1792.8
2.742738427216955, 1793.0
2.742500557662280, 1793.2
2.742262741162038, 1793.4
2.742024977698483, 1793.6
2.741787267253875, 1793.8
2.741549609810479, 1794.0
2.741312005350574, 1794.2
2.741074453856442, 1794.4
2.740836955310376, 1794.6
2.740599509694674, 1794.8
2.740362116991643, 1795.0
2.740124777183600, 1795.2
2.739887490252868, 1795.4
2.739650256181778, 1795.6
2.739413074952667, 1795.8
2.739175946547884, 1796.0
2.738938870949783, 1796.2
2.738701848140725, 1796.4
2.738464878103084, 1796.6
2.738227960819234, 1796.8
2.737991096271564, 1797.0
2.737754284442466, 1797.2
2.737517525314343, 1797.4
2.737280818869604, 1797.6
2.737044165090667, 1797.8
2.736807563959955, 1798.0
2.736571015459904, 1798.2
2.736334519572953, 1798.4
2.736098076281552, 1798.6
2.735861685568156, 1798.8
2.735625347415231, 1799.0
2.735389061805247, 1799.2
2.735152828720684, 1799.4
2.734916648144032, 1799.6
2.734680520057784, 1799.8
2.734444444444444, 1800.0
2.734208421286524, 1800.2
2.733972450566541, 1800.4
2.733736532267022, 1800.6
2.733500666370502, 1800.8
2.733264852859522, 1801.0
2.733029091716633, 1801.2
2.732793382924392, 1801.4
2.732557726465364, 1801.6
2.732322122322122, 1801.8
2.732086570477247, 1802.0
2.731851070913328, 1802.2
2.731615623612960, 1802.4
2.731380228558749, 1802.6
2.731144885733304, 1802.8
2.730909595119245, 1803.0
2.730674356699201, 1803.2
2.730439170455806, 1803.4
2.730204036371701, 1803.6
2.729968954429538, 1803.8
2.729733924611973, 1804.0
2.729498946901673, 1804.2
2.729264021281312, 1804.4
2.729029147733570, 1804.6
2.728794326241135, 1804.8
2.728559556786704, 1805.0
2.728324839352980, 1805.2
2.728090173922676, 1805.4
2.727855560478511, 1805.6
2.727620999003212, 1805.8
2.727386489479513, 1806.0
2.727152031890156, 1806.2
2.726917626217892, 1806.4
2.726683272445478, 1806.6
2.726448970555678, 1806.8
2.726214720531267, 1807.0
2.725980522355024, 1807.2
2.725746376009738, 1807.4
2.725512281478203, 1807.6
2.725278238743224, 1807.8
2.725044247787610, 1808.0
2.724810308594182, 1808.2
2.724576421145764, 1808.4
2.724342585425191, 1808.6
2.724108801415303, 1808.8
2.723875069098950, 1809.0
2.723641388458987, 1809.2
2.723407759478280, 1809.4
2.723174182139700, 1809.6
2.722940656426124, 1809.8
2.722707182320442, 1810.0
2.722473759805546, 1810.2
2.722240388864339, 1810.4
2.722007069479730, 1810.6
2.721773801634637, 1810.8
2.721540585311982, 1811.0
2.721307420494699, 1811.2
2.721074307165728, 1811.4
2.720841245308015, 1811.6
2.720608234904515, 1811.8
2.720375275938190, 1812.0
2.720142368392009, 1812.2
2.719909512248952, 1812.4
2.719676707492000, 1812.6
2.719443954104148, 1812.8
2.719211252068395, 1813.0
2.718978601367747, 1813.2
2.718746001985221, 1813.4
2.718513453903838, 1813.6
2.718280957106627, 1813.8
2.718048511576626, 1814.0
2.717816117296880, 1814.2
2.717583774250441, 1814.4
2.717351482420368, 1814.6
2.717119241789729, 1814.8
2.716887052341598, 1815.0
2.716654914059057, 1815.2
2.716422826925195, 1815.4
2.716190790923111, 1815.6
2.715958806035907, 1815.8
2.715726872246696, 1816.0
2.715494989538597, 1816.2
2.715263157894737, 1816.4
2.715031377298249, 1816.6
2.714799647732276, 1816.8
2.714567969179967, 1817.0
2.714336341624477, 1817.2
2.714104765048971, 1817.4
2.713873239436620, 1817.6
2.713641764770602, 1817.8
2.713410341034103, 1818.0
2.713178968210318, 1818.2
2.712947646282446, 1818.4
2.712716375233696, 1818.6
2.712485155047284, 1818.8
2.712253985706432, 1819.0
2.712022867194371, 1819.2
2.711791799494339, 1819.4
2.711560782589580, 1819.6
2.711329816463348, 1819.8
2.711098901098901, 1820.0
2.710868036479507, 1820.2
2.710637222588442, 1820.4
2.710406459408986, 1820.6
2.710175746924429, 1820.8
2.709945085118067, 1821.0
2.709714473973204, 1821.2
2.709483913473152, 1821.4
2.709253403601230, 1821.6
2.709022944340762, 1821.8
2.708792535675082, 1822.0
2.708562177587531, 1822.2
2.708331870061457, 1822.4
2.708101613080215, 1822.6
2.707871406627167, 1822.8
2.707641250685683, 1823.0
2.707411145239140, 1823.2
2.707181090270922, 1823.4
2.706951085764422, 1823.6
2.706721131703038, 1823.8
2.706491228070175, 1824.0
2.706261374849249, 1824.2
2.706031572023679, 1824.4
2.705801819576894, 1824.6
2.705572117492328, 1824.8
2.705342465753425, 1825.0
2.705112864343633, 1825.2
2.704883313246412, 1825.4
2.704653812445224, 1825.6
2.704424361923540, 1825.8
2.704194961664841, 1826.0
2.703965611652612, 1826.2
2.703736311870346, 1826.4
2.703507062301544, 1826.6
2.703277862929713, 1826.8
2.703048713738369, 1827.0
2.702819614711033, 1827.2
2.702590565831235, 1827.4
2.702361567082513, 1827.6
2.702132618448408, 1827.8
2.701903719912472, 1828.0
2.701674871458265, 1828.2
2.701446073069350, 1828.4
2.701217324729301, 1828.6
2.700988626421697, 1828.8
2.700759978130125, 1829.0
2.700531379838180, 1829.2
2.700302831529463, 1829.4
2.700074333187582, 1829.6
2.699845884796153, 1829.8
2.699617486338798, 1830.0
2.699389137799147, 1830.2
2.699160839160839, 1830.4
2.698932590407517, 1830.6
2.698704391522831, 1830.8
2.698476242490442, 1831.0
2.698248143294015, 1831.2
2.698020093917222, 1831.4
2.697792094343743, 1831.6
2.697564144557266, 1831.8
2.697336244541485, 1832.0
2.697108394280100, 1832.2
2.696880593756821, 1832.4
2.696652842955364, 1832.6
2.696425141859450, 1832.8
2.696197490452810, 1833.0
2.695969888719179, 1833.2
2.695742336642304, 1833.4
2.695514834205934, 1833.6
2.695287381393827, 1833.8
2.695059978189749, 1834.0
2.694832624577472, 1834.2
2.694605320540776, 1834.4
2.694378066063447, 1834.6
2.694150861129278, 1834.8
2.693923705722071, 1835.0
2.693696599825632, 1835.2
2.693469543423777, 1835.4
2.693242536500327, 1835.6
2.693015579039111, 1835.8
2.692788671023965, 1836.0
2.692561812438732, 1836.2
2.692335003267262, 1836.4
2.692108243493412, 1836.6
2.691881533101045, 1836.8
2.691654872074034, 1837.0
2.691428260396255, 1837.2
2.691201698051594, 1837.4
2.690975185023944, 1837.6
2.690748721297203, 1837.8
2.690522306855277, 1838.0
2.690295941682080, 1838.2
2.690069625761532, 1838.4
2.689843359077559, 1838.6
2.689617141614096, 1838.8
2.689390973355084, 1839.0
2.689164854284471, 1839.2
2.688938784386213, 1839.4
2.688712763644270, 1839.6
2.688486792042613, 1839.8
2.688260869565217, 1840.0
2.688034996196066, 1840.2
2.687809171919148, 1840.4
2.687583396718461, 1840.6
2.687357670578010, 1840.8
2.687131993481803, 1841.0
2.686906365413861, 1841.2
2.686680786358206, 1841.4
2.686455256298871, 1841.6
2.686229775219894, 1841.8
2.686004343105320, 1842.0
2.685778959939203, 1842.2
2.685553625705601, 1842.4
2.685328340388581, 1842.6
2.685103103972216, 1842.8
2.684877916440586, 1843.0
2.684652777777778, 1843.2
2.684427687967885, 1843.4
2.684202646995010, 1843.6
2.683977654843258, 1843.8
2.683752711496746, 1844.0
2.683527816939594, 1844.2
2.683302971155931, 1844.4
2.683078174129893, 1844.6
2.682853425845620, 1844.8
2.682628726287263, 1845.0
2.682404075438976, 1845.2
2.682179473284924, 1845.4
2.681954919809276, 1845.6
2.681730414996208, 1845.8
2.681505958829902, 1846.0
2.681281551294551, 1846.2
2.681057192374350, 1846.4
2.680832882053504, 1846.6
2.680608620316223, 1846.8
2.680384407146724, 1847.0
2.680160242529233, 1847.2
2.679936126447981, 1847.4
2.679712058887205, 1847.6
2.679488039831150, 1847.8
2.679264069264069, 1848.0
2.679040147170220, 1848.2
2.678816273533867, 1848.4
2.678592448339284, 1848.6
2.678368671570749, 1848.8
2.678144943212547, 1849.0
2.677921263248972, 1849.2
2.677697631664323, 1849.4
2.677474048442907, 1849.6
2.677250513569034, 1849.8
2.677027027027027, 1850.0
2.676803588801210, 1850.2
2.676580198875918, 1850.4
2.676356857235491, 1850.6
2.676133563864275, 1850.8
2.675910318746623, 1851.0
2.675687121866897, 1851.2
2.675463973209463, 1851.4
2.675240872758695, 1851.6
2.675017820498974, 1851.8
2.674794816414687, 1852.0
2.674571860490228, 1852.2
2.674348952709998, 1852.4
2.674126093058404, 1852.6
2.673903281519862, 1852.8
2.673680518078791, 1853.0
2.673457802719620, 1853.2
2.673235135426783, 1853.4
2.673012516184722, 1853.6
2.672789944977883, 1853.8
2.672567421790723, 1854.0
2.672344946607701, 1854.2
2.672122519413287, 1854.4
2.671900140191955, 1854.6
2.671677808928186, 1854.8
2.671455525606469, 1855.0
2.671233290211298, 1855.2
2.671011102727174, 1855.4
2.670788963138607, 1855.6
2.670566871430111, 1855.8
2.670344827586207, 1856.0
2.670122831591423, 1856.2
2.669900883430295, 1856.4
2.669678983087364, 1856.6
2.669457130547178, 1856.8
2.669235325794292, 1857.0
2.669013568813267, 1857.2
2.668791859588672, 1857.4
2.668570198105082, 1857.6
2.668348584347077, 1857.8
2.668127018299246, 1858.0
2.667905499946184, 1858.2
2.667684029272492, 1858.4
2.667462606262778, 1858.6
2.667241230901657, 1858.8
2.667019903173749, 1859.0
2.666798623063683, 1859.2
2.666577390556093, 1859.4
2.666356205635620, 1859.6
2.666135068286913, 1859.8
2.665913978494624, 1860.0
2.665692936243414, 1860.2
2.665471941517953, 1860.4
2.665250994302913, 1860.6
2.665030094582975, 1860.8
2.664809242342826, 1861.0
2.664588437567161, 1861.2
2.664367680240679, 1861.4
2.664146970348088, 1861.6
2.663926307874100, 1861.8
2.663705692803437, 1862.0
2.663485125120824, 1862.2
2.663264604810996, 1862.4
2.663044131858692, 1862.6
2.662823706248658, 1862.8
2.662603327965646, 1863.0
2.662382996994418, 1863.2
2.662162713319738, 1863.4
2.661942476926379, 1863.6
2.661722287799120, 1863.8
2.661502145922747, 1864.0
2.661282051282051, 1864.2
2.661062003861832, 1864.4
2.660842003646895, 1864.6
2.660622050622051, 1864.8
2.660402144772118, 1865.0
2.660182286081922, 1865.2
2.659962474536292, 1865.4
2.659742710120069, 1865.6
2.659522992818094, 1865.8
2.659303322615219, 1866.0
2.659083699496303, 1866.2
2.658864123446206, 1866.4
2.658644594449802, 1866.6
2.658425112491965, 1866.8
2.658205677557579, 1867.0
2.657986289631534, 1867.2
2.657766948698725, 1867.4
2.657547654744056, 1867.6
2.657328407752436, 1867.8
2.657109207708779, 1868.0
2.656890054598009, 1868.2
2.656670948405052, 1868.4
2.656451889114845, 1868.6
2.656232876712329, 1868.8
2.656013911182451, 1869.0
2.655794992510164, 1869.2
2.655576120680432, 1869.4
2.655357295678220, 1869.6
2.655138517488501, 1869.8
2.654919786096257, 1870.0
2.654701101486472, 1870.2
2.654482463644140, 1870.4
2.654263872554261, 1870.6
2.654045328201839, 1870.8
2.653826830571886, 1871.0
2.653608379649423, 1871.2
2.653389975419472, 1871.4
2.653171617867065, 1871.6
2.652953306977241, 1871.8
2.652735042735042, 1872.0
2.652516825125521, 1872.2
2.652298654133732, 1872.4
2.652080529744740, 1872.6
2.651862451943614, 1872.8
2.651644420715430, 1873.0
2.651426436045270, 1873.2
2.651208497918223, 1873.4
2.650990606319385, 1873.6
2.650772761233856, 1873.8
2.650554962646745, 1874.0
2.650337210543165, 1874.2
2.650119504908237, 1874.4
2.649901845727088, 1874.6
2.649684232984852, 1874.8
2.649466666666667, 1875.0
2.649249146757679, 1875.2
2.649031673243041, 1875.4
2.648814246107912, 1875.6
2.648596865337456, 1875.8
2.648379530916844, 1876.0
2.648162242831254, 1876.2
2.647945001065870, 1876.4
2.647727805605883, 1876.6
2.647510656436487, 1876.8
2.647293553542887, 1877.0
2.647076496910292, 1877.2
2.646859486523916, 1877.4
2.646642522368982, 1877.6
2.646425604430717, 1877.8
2.646208732694356, 1878.0
2.645991907145139, 1878.2
2.645775127768313, 1878.4
2.645558394549132, 1878.6
2.645341707472855, 1878.8
2.645125066524747, 1879.0
2.644908471690081, 1879.2
2.644691922954134, 1879.4
2.644475420302192, 1879.6
2.644258963719544, 1879.8
2.644042553191489, 1880.0
2.643826188703329, 1880.2
2.643609870240374, 1880.4
2.643393597787940, 1880.6
2.643177371331348, 1880.8
2.642961190855928, 1881.0
2.642745056347013, 1881.2
2.642528967789943, 1881.4
2.642312925170068, 1881.6
2.642096928472739, 1881.8
2.641880977683316, 1882.0
2.641665072787164, 1882.2
2.641449213769655, 1882.4
2.641233400616169, 1882.6
2.641017633312088, 1882.8
2.640801911842804, 1883.0
2.640586236193712, 1883.2
2.640370606350217, 1883.4
2.640155022297728, 1883.6
2.639939484021658, 1883.8
2.639723991507431, 1884.0
2.639508544740473, 1884.2
2.639293143706219, 1884.4
2.639077788390109, 1884.6
2.638862478777589, 1884.8
2.638647214854111, 1885.0
2.638431996605135, 1885.2
2.638216824016124, 1885.4
2.638001697072550, 1885.6
2.637786615759889, 1885.8
2.637571580063627, 1886.0
2.637356589969250, 1886.2
2.637141645462256, 1886.4
2.636926746528146, 1886.6
2.636711893152427, 1886.8
2.636497085320614, 1887.0
2.636282323018228, 1887.2
2.636067606230793, 1887.4
2.635852934943844, 1887.6
2.635638309142918, 1887.8
2.635423728813559, 1888.0
2.635209193941320, 1888.2
2.634994704511756, 1888.4
2.634780260510431, 1888.6
2.634565861922914, 1888.8
2.634351508734780, 1889.0
2.634137200931611, 1889.2
2.633922938498994, 1889.4
2.633708721422523, 1889.6
2.633494549687798, 1889.8
2.633280423280423, 1890.0
2.633066342186012, 1890.2
2.632852306390182, 1890.4
2.632638315878557, 1890.6
2.632424370636767, 1890.8
2.632210470650449, 1891.0
2.631996615905245, 1891.2
2.631782806386803, 1891.4
2.631569042080778, 1891.6
2.631355322972830, 1891.8
2.631141649048625, 1892.0
2.630928020293838, 1892.2
2.630714436694145, 1892.4
2.630500898235232, 1892.6
2.630287404902790, 1892.8
2.630073956682514, 1893.0
2.629860553560110, 1893.2
2.629647195521284, 1893.4
2.629433882551753, 1893.6
2.629220614637237, 1893.8
2.629007391763464, 1894.0
2.628794213916165, 1894.2
2.628581081081081, 1894.4
2.628367993243956, 1894.6
2.628154950390543, 1894.8
2.627941952506596, 1895.0
2.627728999577881, 1895.2
2.627516091590166, 1895.4
2.627303228529226, 1895.6
2.627090410380842, 1895.8
2.626877637130801, 1896.0
2.626664908764898, 1896.2
2.626452225268930, 1896.4
2.626239586628704, 1896.6
2.626026992830029, 1896.8
2.625814443858724, 1897.0
2.625601939700611, 1897.2
2.625389480341520, 1897.4
2.625177065767285, 1897.6
2.624964695963747, 1897.8
2.624752370916754, 1898.0
2.624540090612159, 1898.2
2.624327855035820, 1898.4
2.624115664173602, 1898.6
2.623903518011375, 1898.8
2.623691416535018, 1899.0
2.623479359730413, 1899.2
2.623267347583447, 1899.4
2.623055380080017, 1899.6
2.622843457206022, 1899.8
2.622631578947368, 1900.0
2.622419745289969, 1900.2
2.622207956219743, 1900.4
2.621996211722614, 1900.6
2.621784511784512, 1900.8
2.621572856391373, 1901.0
2.621361245529140, 1901.2
2.621149679183759, 1901.4
2.620938157341187, 1901.6
2.620726679987381, 1901.8
2.620515247108307, 1902.0
2.620303858689938, 1902.2
2.620092514718250, 1902.4
2.619881215179229, 1902.6
2.619669960058860, 1902.8
2.619458749343142, 1903.0
2.619247583018075, 1903.2
2.619036461069665, 1903.4
2.618825383483925, 1903.6
2.618614350246875, 1903.8
2.618403361344538, 1904.0
2.618192416762945, 1904.2
2.617981516488133, 1904.4
2.617770660506143, 1904.6
2.617559848803024, 1904.8
2.617349081364829, 1905.0
2.617138358177619, 1905.2
2.616927679227459, 1905.4
2.616717044500420, 1905.6
2.616506453982579, 1905.8
2.616295907660021, 1906.0
2.616085405518833, 1906.2
2.615874947545111, 1906.4
2.615664533724956, 1906.6
2.615454164044472, 1906.8
2.615243838489774, 1907.0
2.615033557046980, 1907.2
2.614823319702212, 1907.4
2.614613126441602, 1907.6
2.614402977251284, 1907.8
2.614192872117400, 1908.0
2.613982811026098, 1908.2
2.613772793963530, 1908.4
2.613562820915854, 1908.6
2.613352891869237, 1908.8
2.613143006809848, 1909.0
2.612933165723863, 1909.2
2.612723368597465, 1909.4
2.612513615416841, 1909.6
2.612303906168185, 1909.8
2.612094240837696, 1910.0
2.611884619411580, 1910.2
2.611675041876047, 1910.4
2.611465508217314, 1910.6
2.611256018421603, 1910.8
2.611046572475144, 1911.0
2.610837170364169, 1911.2
2.610627812074919, 1911.4
2.610418497593639, 1911.6
2.610209226906580, 1911.8
2.610000000000000, 1912.0
2.609790816860161, 1912.2
2.609581677473332, 1912.4
2.609372581825787, 1912.6
2.609163529903806, 1912.8
2.608954521693675, 1913.0
2.608745557181685, 1913.2
2.608536636354134, 1913.4
2.608327759197325, 1913.6
2.608118925697565, 1913.8
2.607910135841170, 1914.0
2.607701389614460, 1914.2
2.607492687003761, 1914.4
2.607284027995404, 1914.6
2.607075412575726, 1914.8
2.606866840731071, 1915.0
2.606658312447786, 1915.2
2.606449827712227, 1915.4
2.606241386510754, 1915.6
2.606032988829732, 1915.8
2.605824634655532, 1916.0
2.605616323974533, 1916.2
2.605408056773116, 1916.4
2.605199833037671, 1916.6
2.604991652754591, 1916.8
2.604783515910277, 1917.0
2.604575422491133, 1917.2
2.604367372483571, 1917.4
2.604159365874009, 1917.6
2.603951402648868, 1917.8
2.603743482794578, 1918.0
2.603535606297571, 1918.2
2.603327773144287, 1918.4
2.603119983321172, 1918.6
2.602912236814676, 1918.8
2.602704533611256, 1919.0
2.602496873697374, 1919.2
2.602289257059498, 1919.4
2.602081683684101, 1919.6
2.601874153557662, 1919.8
2.601666666666667, 1920.0
2.601459222997605, 1920.2
2.601251822536971, 1920.4
2.601044465271269, 1920.6
2.600837151187005, 1920.8
2.600629880270692, 1921.0
2.600422652508849, 1921.2
2.600215467887998, 1921.4
2.600008326394671, 1921.6
2.599801228015402, 1921.8
2.599594172736733, 1922.0
2.599387160545208, 1922.2
2.599180191427382, 1922.4
2.598973265369812, 1922.6
2.598766382359060, 1922.8
2.598559542381695, 1923.0
2.598352745424293, 1923.2
2.598145991473432, 1923.4
2.597939280515700, 1923.6
2.597732612537686, 1923.8
2.597525987525988, 1924.0
2.597319405467207, 1924.2
2.597112866347953, 1924.4
2.596906370154838, 1924.6
2.596699916874480, 1924.8
2.596493506493506, 1925.0
2.596287138998545, 1925.2
2.596080814376233, 1925.4
2.595874532613212, 1925.6
2.595668293696126, 1925.8
2.595462097611630, 1926.0
2.595255944346381, 1926.2
2.595049833887043, 1926.4
2.594843766220285, 1926.6
2.594637741332780, 1926.8
2.594431759211209, 1927.0
2.594225819842258, 1927.2
2.594019923212618, 1927.4
2.593814069308985, 1927.6
2.593608258118062, 1927.8
2.593402489626556, 1928.0
2.593196763821180, 1928.2
2.592991080688654, 1928.4
2.592785440215700, 1928.6
2.592579842389050, 1928.8
2.592374287195438, 1929.0
2.592168774621605, 1929.2
2.591963304654297, 1929.4
2.591757877280266, 1929.6
2.591552492486268, 1929.8
2.591347150259067, 1930.0
2.591141850585431, 1930.2
2.590936593452134, 1930.4
2.590731378845955, 1930.6
2.590526206753677, 1930.8
2.590321077162092, 1931.0
2.590115990057995, 1931.2
2.589910945428187, 1931.4
2.589705943259474, 1931.6
2.589500983538668, 1931.8
2.589296066252588, 1932.0
2.589091191388055, 1932.2
2.588886358931898, 1932.4
2.588681568870951, 1932.6
2.588476821192053, 1932.8
2.588272115882049, 1933.0
2.588067452927788, 1933.2
2.587862832316127, 1933.4
2.587658254033927, 1933.6
2.587453718068053, 1933.8
2.587249224405377, 1934.0
2.587044773032778, 1934.2
2.586840363937138, 1934.4
2.586635997105345, 1934.6
2.586431672524292, 1934.8
2.586227390180878, 1935.0
2.586023150062009, 1935.2
2.585818952154593, 1935.4
2.585614796445546, 1935.6
2.585410682921789, 1935.8
2.585206611570248, 1936.0
2.585002582377853, 1936.2
2.584798595331543, 1936.4
2.584594650418259, 1936.6
2.584390747624949, 1936.8
2.584186886938565, 1937.0
2.583983068346067, 1937.2
2.583779291834417, 1937.4
2.583575557390586, 1937.6
2.583371865001548, 1937.8
2.583168214654283, 1938.0
2.582964606335775, 1938.2
2.582761040033017, 1938.4
2.582557515733003, 1938.6
2.582354033422736, 1938.8
2.582150593089221, 1939.0
2.581947194719472, 1939.2
2.581743838300505, 1939.4
2.581540523819344, 1939.6
2.581337251263017, 1939.8
2.581134020618557, 1940.0
2.580930831873003, 1940.2
2.580727685013399, 1940.4
2.580524580026796, 1940.6
2.580321516900247, 1940.8
2.580118495620814, 1941.0
2.579915516175562, 1941.2
2.579712578551561, 1941.4
2.579509682735888, 1941.6
2.579306828715625, 1941.8
2.579104016477858, 1942.0
2.578901246009680, 1942.2
2.578698517298188, 1942.4
2.578495830330485, 1942.6
2.578293185093679, 1942.8
2.578090581574884, 1943.0
2.577888019761219, 1943.2
2.577685499639806, 1943.4
2.577483021197777, 1943.6
2.577280584422266, 1943.8
2.577078189300412, 1944.0
2.576875835819360, 1944.2
2.576673523966262, 1944.4
2.576471253728273, 1944.6
2.576269025092555, 1944.8
2.576066838046272, 1945.0
2.575864692576599, 1945.2
2.575662588670710, 1945.4
2.575460526315790, 1945.6
2.575258505499023, 1945.8
2.575056526207606, 1946.0
2.574854588428733, 1946.2
2.574652692149610, 1946.4
2.574450837357444, 1946.6
2.574249024039450, 1946.8
2.574047252182845, 1947.0
2.573845521774856, 1947.2
2.573643832802711, 1947.4
2.573442185253646, 1947.6
2.573240579114899, 1947.8
2.573039014373717, 1948.0
2.572837491017349, 1948.2
2.572636009033053, 1948.4
2.572434568408088, 1948.6
2.572233169129721, 1948.8
2.572031811185223, 1949.0
2.571830494561871, 1949.2
2.571629219246948, 1949.4
2.571427985227739, 1949.6
2.571226792491538, 1949.8
2.571025641025641, 1950.0
2.570824530817352, 1950.2
2.570623461853978, 1950.4
2.570422434122834, 1950.6
2.570221447611237, 1950.8
2.570020502306510, 1951.0
2.569819598195982, 1951.2
2.569618735266988, 1951.4
2.569417913506866, 1951.6
2.569217132902962, 1951.8
2.569016393442623, 1952.0
2.568815695113206, 1952.2
2.568615037902069, 1952.4
2.568414421796579, 1952.6
2.568213846784105, 1952.8
2.568013312852023, 1953.0
2.567812819987712, 1953.2
2.567612368178561, 1953.4
2.567411957411958, 1953.6
2.567211587675299, 1953.8
2.567011258955988, 1954.0
2.566810971241429, 1954.2
2.566610724519034, 1954.4
2.566410518776220, 1954.6
2.566210354000409, 1954.8
2.566010230179028, 1955.0
2.565810147299509, 1955.2
2.565610105349289, 1955.4
2.565410104315811, 1955.6
2.565210144186522, 1955.8
2.565010224948875, 1956.0
2.564810346590328, 1956.2
2.564610509098344, 1956.4
2.564410712460391, 1956.6
2.564210956663941, 1956.8
2.564011241696474, 1957.0
2.563811567545473, 1957.2
2.563611934198426, 1957.4
2.563412341642828, 1957.6
2.563212789866177, 1957.8
2.563013278855975, 1958.0
2.562813808599735, 1958.2
2.562614379084967, 1958.4
2.562414990299193, 1958.6
2.562215642229937, 1958.8
2.562016334864727, 1959.0
2.561817068191099, 1959.2
2.561617842196591, 1959.4
2.561418656868749, 1959.6
2.561219512195122, 1959.8
2.561020408163265, 1960.0
2.560821344760739, 1960.2
2.560622321975107, 1960.4
2.560423339793941, 1960.6
2.560224398204814, 1960.8
2.560025497195308, 1961.0
2.559826636753008, 1961.2
2.559627816865504, 1961.4
2.559429037520391, 1961.6
2.559230298705271, 1961.8
2.559031600407747, 1962.0
2.558832942615432, 1962.2
2.558634325315940, 1962.4
2.558435748496892, 1962.6
2.558237212145914, 1962.8
2.558038716250637, 1963.0
2.557840260798696, 1963.2
2.557641845777733, 1963.4
2.557443471175392, 1963.6
2.557245136979326, 1963.8
2.557046843177190, 1964.0
2.556848589756644, 1964.2
2.556650376705355, 1964.4
2.556452204010994, 1964.6
2.556254071661238, 1964.8
2.556055979643766, 1965.0
2.555857927946265, 1965.2
2.555659916556426, 1965.4
2.555461945461945, 1965.6
2.555264014650524, 1965.8
2.555066124109868, 1966.0
2.554868273827688, 1966.2
2.554670463791700, 1966.4
2.554472693989627, 1966.6
2.554274964409192, 1966.8
2.554077275038129, 1967.0
2.553879625864172, 1967.2
2.553682016875063, 1967.4
2.553484448058549, 1967.6
2.553286919402378, 1967.8
2.553089430894309, 1968.0
2.552891982522101, 1968.2
2.552694574273521, 1968.4
2.552497206136341, 1968.6
2.552299878098334, 1968.8
2.552102590147283, 1969.0
2.551905342270973, 1969.2
2.551708134457195, 1969.4
2.551510966693745, 1969.6
2.551313838968423, 1969.8
2.551116751269035, 1970.0
2.550919703583392, 1970.2
2.550722695899310, 1970.4
2.550525728204608, 1970.6
2.550328800487112, 1970.8
2.550131912734652, 1971.0
2.549935064935065, 1971.2
2.549738257076189, 1971.4
2.549541489145871, 1971.6
2.549344761131961, 1971.8
2.549148073022312, 1972.0
2.548951424804787, 1972.2
2.548754816467248, 1972.4
2.548558247997567, 1972.6
2.548361719383617, 1972.8
2.548165230613279, 1973.0
2.547968781674437, 1973.2
2.547772372554981, 1973.4
2.547576003242805, 1973.6
2.547379673725808, 1973.8
2.547183383991895, 1974.0
2.546987134028974, 1974.2
2.546790923824959, 1974.4
2.546594753367771, 1974.6
2.546398622645331, 1974.8
2.546202531645569, 1975.0
2.546006480356420, 1975.2
2.545810468765819, 1975.4
2.545614496861713, 1975.6
2.545418564632048, 1975.8
2.545222672064777, 1976.0
2.545026819147859, 1976.2
2.544831005869257, 1976.4
2.544635232216938, 1976.6
2.544439498178875, 1976.8
2.544243803743045, 1977.0
2.544048148897430, 1977.2
2.543852533630019, 1977.4
2.543656957928803, 1977.6
2.543461421781778, 1977.8
2.543265925176946, 1978.0
2.543070468102315, 1978.2
2.542875050545895, 1978.4
2.542679672495704, 1978.6
2.542484333939762, 1978.8
2.542289034866094, 1979.0
2.542093775262732, 1979.2
2.541898555117712, 1979.4
2.541703374419074, 1979.6
2.541508233154864, 1979.8
2.541313131313131, 1980.0
2.541118068881931, 1980.2
2.540923045849323, 1980.4
2.540728062203373, 1980.6
2.540533117932149, 1980.8
2.540338213023726, 1981.0
2.540143347466182, 1981.2
2.539948521247603, 1981.4
2.539753734356076, 1981.6
2.539558986779695, 1981.8
2.539364278506559, 1982.0
2.539169609524770, 1982.2
2.538974979822437, 1982.4
2.538780389387673, 1982.6
2.538585838208594, 1982.8
2.538391326273323, 1983.0
2.538196853569988, 1983.2
2.538002420086720, 1983.4
2.537808025811656, 1983.6
2.537613670732937, 1983.8
2.537419354838710, 1984.0
2.537225078117125, 1984.2
2.537030840556339, 1984.4
2.536836642144513, 1984.6
2.536642482869810, 1984.8
2.536448362720403, 1985.0
2.536254281684465, 1985.2
2.536060239750176, 1985.4
2.535866236905721, 1985.6
2.535672273139289, 1985.8
2.535478348439073, 1986.0
2.535284462793273, 1986.2
2.535090616190093, 1986.4
2.534896808617739, 1986.6
2.534703040064425, 1986.8
2.534509310518370, 1987.0
2.534315619967794, 1987.2
2.534121968400926, 1987.4
2.533928355805997, 1987.6
2.533734782171245, 1987.8
2.533541247484909, 1988.0
2.533347751735238, 1988.2
2.533154294910481, 1988.4
2.532960876998894, 1988.6
2.532767497988737, 1988.8
2.532574157868276, 1989.0
2.532380856625779, 1989.2
2.532187594249522, 1989.4
2.531994370727785, 1989.6
2.531801186048849, 1989.8
2.531608040201005, 1990.0
2.531414933172545, 1990.2
2.531221864951768, 1990.4
2.531028835526977, 1990.6
2.530835844886478, 1990.8
2.530642893018584, 1991.0
2.530449979911611, 1991.2
2.530257105553881, 1991.4
2.530064269933722, 1991.6
2.529871473039462, 1991.8
2.529678714859438, 1992.0
2.529485995381989, 1992.2
2.529293314595463, 1992.4
2.529100672488207, 1992.6
2.528908069048575, 1992.8
2.528715504264927, 1993.0
2.528522978125627, 1993.2
2.528330490619043, 1993.4
2.528138041733548, 1993.6
2.527945631457518, 1993.8
2.527753259779338, 1994.0
2.527560926687393, 1994.2
2.527368632170076, 1994.4
2.527176376215783, 1994.6
2.526984158812914, 1994.8
2.526791979949875, 1995.0
2.526599839615076, 1995.2
2.526407737796933, 1995.4
2.526215674483864, 1995.6
2.526023649664295, 1995.8
2.525831663326653, 1996.0
2.525639715459373, 1996.2
2.525447806050892, 1996.4
2.525255935089652, 1996.6
2.525064102564103, 1996.8
2.524872308462694, 1997.0
2.524680552773884, 1997.2
2.524488835486132, 1997.4
2.524297156587906, 1997.6
2.524105516067674, 1997.8
2.523913913913914, 1998.0
2.523722350115103, 1998.2
2.523530824659728, 1998.4
2.523339337536275, 1998.6
2.523147888733240, 1998.8
2.522956478239120, 1999.0
2.522765106042417, 1999.2
2.522573772131639, 1999.4
2.522382476495299, 1999.6
2.522191219121912, 1999.8
2.522000000000000, 2000.0
2.521808819118088, 2000.2
2.521617676464707, 2000.4
2.521426572028392, 2000.6
2.521235505797681, 2000.8
2.521044477761119, 2001.0
2.520853487907256, 2001.2
2.520662536224643, 2001.4
2.520471622701839, 2001.6
2.520280747327405, 2001.8
2.520089910089910, 2002.0
2.519899110977924, 2002.2
2.519708349980024, 2002.4
2.519517627084790, 2002.6
2.519326942280807, 2002.8
2.519136295556665, 2003.0
2.518945686900958, 2003.2
2.518755116302286, 2003.4
2.518564583749252, 2003.6
2.518374089230462, 2003.8
2.518183632734531, 2004.0
2.517993214250075, 2004.2
2.517802833765715, 2004.4
2.517612491270079, 2004.6
2.517422186751796, 2004.8
2.517231920199501, 2005.0
2.517041691601835, 2005.2
2.516851500947442, 2005.4
2.516661348224970, 2005.6
2.516471233423073, 2005.8
2.516281156530409, 2006.0
2.516091117535639, 2006.2
2.515901116427432, 2006.4
2.515711153194458, 2006.6
2.515521227825394, 2006.8
2.515331340308919, 2007.0
2.515141490633718, 2007.2
2.514951678788483, 2007.4
2.514761904761905, 2007.6
2.514572168542684, 2007.8
2.514382470119522, 2008.0
2.514192809481127, 2008.2
2.514003186616212, 2008.4
2.513813601513492, 2008.6
2.513624054161689, 2008.8
2.513434544549527, 2009.0
2.513245072665737, 2009.2
2.513055638499055, 2009.4
2.512866242038217, 2009.6
2.512676883271967, 2009.8
2.512487562189055, 2010.0
2.512298278778231, 2010.2
2.512109033028253, 2010.4
2.511919824927882, 2010.6
2.511730654465884, 2010.8
2.511541521631029, 2011.0
2.511352426412092, 2011.2
2.511163368797852, 2011.4
2.510974348777093, 2011.6
2.510785366338602, 2011.8
2.510596421471173, 2012.0
2.510407514163602, 2012.2
2.510218644404691, 2012.4
2.510029812183246, 2012.6
2.509841017488077, 2012.8
2.509652260307998, 2013.0
2.509463540631830, 2013.2
2.509274858448395, 2013.4
2.509086213746524, 2013.6
2.508897606515046, 2013.8
2.508709036742800, 2014.0
2.508520504418628, 2014.2
2.508332009531374, 2014.4
2.508143552069890, 2014.6
2.507955132023030, 2014.8
2.507766749379653, 2015.0
2.507578404128622, 2015.2
2.507390096258807, 2015.4
2.507201825759079, 2015.6
2.507013592618315, 2015.8
2.506825396825397, 2016.0
2.506637238369209, 2016.2
2.506449117238643, 2016.4
2.506261033422593, 2016.6
2.506072986909957, 2016.8
2.505884977689638, 2017.0
2.505697005750545, 2017.2
2.505509071081590, 2017.4
2.505321173671689, 2017.6
2.505133313509763, 2017.8
2.504945490584737, 2018.0
2.504757704885542, 2018.2
2.504569956401110, 2018.4
2.504382245120381, 2018.6
2.504194571032297, 2018.8
2.504006934125805, 2019.0
2.503819334389857, 2019.2
2.503631771813410, 2019.4
2.503444246385423, 2019.6
2.503256758094861, 2019.8
2.503069306930693, 2020.0
2.502881892881893, 2020.2
2.502694515937438, 2020.4
2.502507176086311, 2020.6
2.502319873317498, 2020.8
2.502132607619990, 2021.0
2.501945378982783, 2021.2
2.501758187394875, 2021.4
2.501571032845271, 2021.6
2.501383915322980, 2021.8
2.501196834817013, 2022.0
2.501009791316388, 2022.2
2.500822784810127, 2022.4
2.500635815287254, 2022.6
2.500448882736801, 2022.8
2.500261987147800, 2023.0
2.500075128509292, 2023.2
2.499888306810319, 2023.4
2.499701522039929, 2023.6
2.499514774187173, 2023.8
2.499328063241107, 2024.0
2.499141389190791, 2024.2
2.498954752025291, 2024.4
2.498768151733676, 2024.6
2.498581588305018, 2024.8
2.498395061728395, 2025.0
2.498208571992889, 2025.2
2.498022119087588, 2025.4
2.497835703001580, 2025.6
2.497649323723961, 2025.8
2.497462981243830, 2026.0
2.497276675550291, 2026.2
2.497090406632452, 2026.4
2.496904174479424, 2026.6
2.496717979080324, 2026.8
2.496531820424272, 2027.0
2.496345698500395, 2027.2
2.496159613297820, 2027.4
2.495973564805682, 2027.6
2.495787553013117, 2027.8
2.495601577909270, 2028.0
2.495415639483286, 2028.2
2.495229737724315, 2028.4
2.495043872621512, 2028.6
2.494858044164038, 2028.8
2.494672252341055, 2029.0
2.494486497141731, 2029.2
2.494300778555238, 2029.4
2.494115096570753, 2029.6
2.493929451177456, 2029.8
2.493743842364532, 2030.0
2.493558270121170, 2030.2
2.493372734436564, 2030.4
2.493187235299911, 2030.6
2.493001772700413, 2030.8
2.492816346627277, 2031.0
2.492630957069712, 2031.2
2.492445604016934, 2031.4
2.492260287458161, 2031.6
2.492075007382617, 2031.8
2.491889763779528, 2032.0
2.491704556638126, 2032.2
2.491519385947648, 2032.4
2.491334251697333, 2032.6
2.491149153876427, 2032.8
2.490964092474176, 2033.0
2.490779067479835, 2033.2
2.490594078882659, 2033.4
2.490409126671912, 2033.6
2.490224210836857, 2033.8
2.490039331366765, 2034.0
2.489854488250909, 2034.2
2.489669681478568, 2034.4
2.489484911039025, 2034.6
2.489300176921565, 2034.8
2.489115479115479, 2035.0
2.488930817610063, 2035.2
2.488746192394615, 2035.4
2.488561603458440, 2035.6
2.488377050790844, 2035.8
2.488192534381140, 2036.0
2.488008054218643, 2036.2
2.487823610292673, 2036.4
2.487639202592556, 2036.6
2.487454831107620, 2036.8
2.487270495827197, 2037.0
2.487086196740624, 2037.2
2.486901933837244, 2037.4
2.486717707106400, 2037.6
2.486533516537442, 2037.8
2.486349362119725, 2038.0
2.486165243842606, 2038.2
2.485981161695447, 2038.4
2.485797115667615, 2038.6
2.485613105748480, 2038.8
2.485429131927416, 2039.0
2.485245194193801, 2039.2
2.485061292537021, 2039.4
2.484877426946460, 2039.6
2.484693597411511, 2039.8
2.484509803921569, 2040.0
2.484326046466033, 2040.2
2.484142325034307, 2040.4
2.483958639615799, 2040.6
2.483774990199922, 2040.8
2.483591376776090, 2041.0
2.483407799333725, 2041.2
2.483224257862251, 2041.4
2.483040752351097, 2041.6
2.482857282789695, 2041.8
2.482673849167483, 2042.0
2.482490451473901, 2042.2
2.482307089698394, 2042.4
2.482123763830412, 2042.6
2.481940473859409, 2042.8
2.481757219774841, 2043.0
2.481574001566170, 2043.2
2.481390819222864, 2043.4
2.481207672734390, 2043.6
2.481024562090224, 2043.8
2.480841487279843, 2044.0
2.480658448292731, 2044.2
2.480475445118372, 2044.4
2.480292477746258, 2044.6
2.480109546165884, 2044.8
2.479926650366748, 2045.0
2.479743790338353, 2045.2
2.479560966070206, 2045.4
2.479378177551819, 2045.6
2.479195424772705, 2045.8
2.479012707722385, 2046.0
2.478830026390382, 2046.2
2.478647380766223, 2046.4
2.478464770839441, 2046.6
2.478282196599570, 2046.8
2.478099658036150, 2047.0
2.477917155138726, 2047.2
2.477734687896845, 2047.4
2.477552256300059, 2047.6
2.477369860337924, 2047.8
2.477187500000000, 2048.0
2.477005175275852, 2048.2
2.476822886155048, 2048.4
2.476640632627160, 2048.6
2.476458414681765, 2048.8
2.476276232308443, 2049.0
2.476094085496779, 2049.2
2.475911974236362, 2049.4
2.475729898516784, 2049.6
2.475547858327642, 2049.8
2.475365853658537, 2050.0
2.475183884499073, 2050.2
2.475001950838861, 2050.4
2.474820052667512, 2050.6
2.474638189974644, 2050.8
2.474456362749878, 2051.0
2.474274570982840, 2051.2
2.474092814663157, 2051.4
2.473911093780464, 2051.6
2.473729408324398, 2051.8
2.473547758284600, 2052.0
2.473366143650717, 2052.2
2.473184564412395, 2052.4
2.473003020559291, 2052.6
2.472821512081060, 2052.8
2.472640038967365, 2053.0
2.472458601207871, 2053.2
2.472277198792247, 2053.4
2.472095831710168, 2053.6
2.471914499951310, 2053.8
2.471733203505355, 2054.0
2.471551942361990, 2054.2
2.471370716510903, 2054.4
2.471189525941789, 2054.6
2.471008370644345, 2054.8
2.470827250608273, 2055.0
2.470646165823278, 2055.2
2.470465116279070, 2055.4
2.470284101965363, 2055.6
2.470103122871874, 2055.8
2.469922178988327, 2056.0
2.469741270304445, 2056.2
2.469560396809959, 2056.4
2.469379558494603, 2056.6
2.469198755348113, 2056.8
2.469017987360233, 2057.0
2.468837254520708, 2057.2
2.468656556819286, 2057.4
2.468475894245723, 2057.6
2.468295266789776, 2057.8
2.468114674441205, 2058.0
2.467934117189778, 2058.2
2.467753595025262, 2058.4
2.467573107937433, 2058.6
2.467392655916067, 2058.8
2.467212238950947, 2059.0
2.467031857031857, 2059.2
2.466851510148587, 2059.4
2.466671198290930, 2059.6
2.466490921448684, 2059.8
2.466310679611651, 2060.0
2.466130472769634, 2060.2
2.465950300912444, 2060.4
2.465770164029894, 2060.6
2.465590062111801, 2060.8
2.465409995147986, 2061.0
2.465229963128275, 2061.2
2.465049966042495, 2061.4
2.464870003880481, 2061.6
2.464690076632069, 2061.8
2.464510184287100, 2062.0
2.464330326835419, 2062.2
2.464150504266874, 2062.4
2.463970716571318, 2062.6
2.463790963738608, 2062.8
2.463611245758604, 2063.0
2.463431562621171, 2063.2
2.463251914316177, 2063.4
2.463072300833495, 2063.6
2.462892722163000, 2063.8
2.462713178294574, 2064.0
2.462533669218099, 2064.2
2.462354194923464, 2064.4
2.462174755400562, 2064.6
2.461995350639287, 2064.8
2.461815980629540, 2065.0
2.461636645361224, 2065.2
2.461457344824247, 2065.4
2.461278079008521, 2065.6
2.461098847903960, 2065.8
2.460919651500484, 2066.0
2.460740489788017, 2066.2
2.460561362756485, 2066.4
2.460382270395819, 2066.6
2.460203212695955, 2066.8
2.460024189646831, 2067.0
2.459845201238390, 2067.2
2.459666247460579, 2067.4
2.459487328303347, 2067.6
2.459308443756649, 2067.8
2.459129593810445, 2068.0
2.458950778454695, 2068.2
2.458771997679365, 2068.4
2.458593251474427, 2068.6
2.458414539829853, 2068.8
2.458235862735621, 2069.0
2.458057220181713, 2069.2
2.457878612158114, 2069.4
2.457700038654813, 2069.6
2.457521499661803, 2069.8
2.457342995169082, 2070.0
2.457164525166651, 2070.2
2.456986089644513, 2070.4
2.456807688592678, 2070.6
2.456629322001159, 2070.8
2.456450989859971, 2071.0
2.456272692159135, 2071.2
2.456094428888674, 2071.4
2.455916200038617, 2071.6
2.455738005598996, 2071.8
2.455559845559846, 2072.0
2.455381719911206, 2072.2
2.455203628643119, 2072.4
2.455025571745634, 2072.6
2.454847549208799, 2072.8
2.454669561022672, 2073.0
2.454491607177311, 2073.2
2.454313687662776, 2073.4
2.454135802469136, 2073.6
2.453957951586459, 2073.8
2.453780135004822, 2074.0
2.453602352714300, 2074.2
2.453424604704975, 2074.4
2.453246890966934, 2074.6
2.453069211490264, 2074.8
2.452891566265060, 2075.0
2.452713955281419, 2075.2
2.452536378529440, 2075.4
2.452358835999229, 2075.6
2.452181327680894, 2075.8
2.452003853564547, 2076.0
2.451826413640305, 2076.2
2.451649007898285, 2076.4
2.451471636328614, 2076.6
2.451294298921417, 2076.8
2.451116995666827, 2077.0
2.450939726554978, 2077.2
2.450762491576008, 2077.4
2.450585290720062, 2077.6
2.450408123977283, 2077.8
2.450230991337825, 2078.0
2.450053892791839, 2078.2
2.449876828329484, 2078.4
2.449699797940922, 2078.6
2.449522801616317, 2078.8
2.449345839345839, 2079.0
2.449168911119662, 2079.2
2.448992016927960, 2079.4
2.448815156760916, 2079.6
2.448638330608712, 2079.8
2.448461538461538, 2080.0
2.448284780309586, 2080.2
2.448108056143049, 2080.4
2.447931365952129, 2080.6
2.447754709727028, 2080.8
2.447578087457953, 2081.0
2.447401499135114, 2081.2
2.447224944748727, 2081.4
2.447048424289008, 2081.6
2.446871937746181, 2081.8
2.446695485110471, 2082.0
2.446519066372106, 2082.2
2.446342681521322, 2082.4
2.446166330548353, 2082.6
2.445990013443441, 2082.8
2.445813730196832, 2083.0
2.445637480798771, 2083.2
2.445461265239512, 2083.4
2.445285083509311, 2083.6
2.445108935598426, 2083.8
2.444932821497121, 2084.0
2.444756741195663, 2084.2
2.444580694684321, 2084.4
2.444404681953372, 2084.6
2.444228702993092, 2084.8
2.444052757793765, 2085.0
2.443876846345674, 2085.2
2.443700968639110, 2085.4
2.443525124664365, 2085.6
2.443349314411736, 2085.8
2.443173537871524, 2086.0
2.442997795034033, 2086.2
2.442822085889571, 2086.4
2.442646410428448, 2086.6
2.442470768640981, 2086.8
2.442295160517489, 2087.0
2.442119586048295, 2087.2
2.441944045223723, 2087.4
2.441768538034106, 2087.6
2.441593064469777, 2087.8
2.441417624521073, 2088.0
2.441242218178336, 2088.2
2.441066845431910, 2088.4
2.440891506272144, 2088.6
2.440716200689391, 2088.8
2.440540928674007, 2089.0
2.440365690216351, 2089.2
2.440190485306787, 2089.4
2.440015313935682, 2089.6
2.439840176093406, 2089.8
2.439665071770335, 2090.0
2.439490000956846, 2090.2
2.439314963643322, 2090.4
2.439139959820147, 2090.6
2.438964989477712, 2090.8
2.438790052606409, 2091.0
2.438615149196634, 2091.2
2.438440279238787, 2091.4
2.438265442723274, 2091.6
2.438090639640501, 2091.8
2.437915869980880, 2092.0
2.437741133734825, 2092.2
2.437566430892755, 2092.4
2.437391761445092, 2092.6
2.437217125382263, 2092.8
2.437042522694697, 2093.0
2.436867953372826, 2093.2
2.436693417407089, 2093.4
2.436518914787925, 2093.6
2.436344445505779, 2093.8
2.436170009551098, 2094.0
2.435995606914335, 2094.2
2.435821237585943, 2094.4
2.435646901556383, 2094.6
2.435472598816116, 2094.8
2.435298329355609, 2095.0
2.435124093165331, 2095.2
2.434949890235754, 2095.4
2.434775720557358, 2095.6
2.434601584120622, 2095.8
2.434427480916030, 2096.0
2.434253410934071, 2096.2
2.434079374165235, 2096.4
2.433905370600019, 2096.6
2.433731400228920, 2096.8
2.433557463042442, 2097.0
2.433383559031089, 2097.2
2.433209688185372, 2097.4
2.433035850495805, 2097.6
2.432862045952903, 2097.8
2.432688274547188, 2098.0
2.432514536269183, 2098.2
2.432340831109417, 2098.4
2.432167159058420, 2098.6
2.431993520106727, 2098.8
2.431819914244878, 2099.0
2.431646341463415, 2099.2
2.431472801752882, 2099.4
2.431299295103829, 2099.6
2.431125821506810, 2099.8
2.430952380952381, 2100.0
2.430778973431102, 2100.2
2.430605598933536, 2100.4
2.430432257450252, 2100.6
2.430258948971820, 2100.8
2.430085673488815, 2101.0
2.429912430991815, 2101.2
2.429739221471400, 2101.4
2.429566044918158, 2101.6
2.429392901322676, 2101.8
2.429219790675547, 2102.0
2.429046712967368, 2102.2
2.428873668188737, 2102.4
2.428700656330258, 2102.6
2.428527677382537, 2102.8
2.428354731336186, 2103.0
2.428181818181818, 2103.2
2.428008937910050, 2103.4
2.427836090511504, 2103.6
2.427663275976804, 2103.8
2.427490494296578, 2104.0
2.427317745461458, 2104.2
2.427145029462079, 2104.4
2.426972346289081, 2104.6
2.426799695933105, 2104.8
2.426627078384798, 2105.0
2.426454493634809, 2105.2
2.426281941673791, 2105.4
2.426109422492401, 2105.6
2.425936936081299, 2105.8
2.425764482431149, 2106.0
2.425592061532618, 2106.2
2.425419673376377, 2106.4
2.425247317953100, 2106.6
2.425074995253465, 2106.8
2.424902705268154, 2107.0
2.424730447987852, 2107.2
2.424558223403245, 2107.4
2.424386031505029, 2107.6
2.424213872283898, 2107.8
2.424041745730550, 2108.0
2.423869651835689, 2108.2
2.423697590590021, 2108.4
2.423525561984255, 2108.6
2.423353566009105, 2108.8
2.423181602655287, 2109.0
2.423009671913522, 2109.2
2.422837773774533, 2109.4
2.422665908229048, 2109.6
2.422494075267798, 2109.8
2.422322274881517, 2110.0
2.422150507060942, 2110.2
2.421978771796816, 2110.4
2.421807069079883, 2110.6
2.421635398900890, 2110.8
2.421463761250592, 2111.0
2.421292156119743, 2111.2
2.421120583499100, 2111.4
2.420949043379428, 2111.6
2.420777535751491, 2111.8
2.420606060606060, 2112.0
2.420434617933908, 2112.2
2.420263207725809, 2112.4
2.420091829972546, 2112.6
2.419920484664900, 2112.8
2.419749171793658, 2113.0
2.419577891349612, 2113.2
2.419406643323554, 2113.4
2.419235427706283, 2113.6
2.419064244488598, 2113.8
2.418893093661306, 2114.0
2.418721975215211, 2114.2
2.418550889141128, 2114.4
2.418379835429869, 2114.6
2.418208814072253, 2114.8
2.418037825059101, 2115.0
2.417866868381241, 2115.2
2.417695944029498, 2115.4
2.417525051994706, 2115.6
2.417354192267700, 2115.8
2.417183364839319, 2116.0
2.417012569700407, 2116.2
2.416841806841807, 2116.4
2.416671076254370, 2116.6
2.416500377928949, 2116.8
2.416329711856401, 2117.0
2.416159078027584, 2117.2
2.415988476433362, 2117.4
2.415817907064601, 2117.6
2.415647369912173, 2117.8
2.415476864966950, 2118.0
2.415306392219809, 2118.2
2.415135951661632, 2118.4
2.414965543283300, 2118.6
2.414795167075703, 2118.8
2.414624823029731, 2119.0
2.414454511136278, 2119.2
2.414284231386241, 2119.4
2.414113983770523, 2119.6
2.413943768280026, 2119.8
2.413773584905660, 2120.0
2.413603433638336, 2120.2
2.413433314468968, 2120.4
2.413263227388475, 2120.6
2.413093172387778, 2120.8
2.412923149457803, 2121.0
2.412753158589478, 2121.2
2.412583199773734, 2121.4
2.412413273001508, 2121.6
2.412243378263738, 2121.8
2.412073515551367, 2122.0
2.411903684855339, 2122.2
2.411733886166604, 2122.4
2.411564119476114, 2122.6
2.411394384774825, 2122.8
2.411224682053698, 2123.0
2.411055011303693, 2123.2
2.410885372515776, 2123.4
2.410715765680919, 2123.6
2.410546190790093, 2123.8
2.410376647834275, 2124.0
2.410207136804444, 2124.2
2.410037657691583, 2124.4
2.409868210486680, 2124.6
2.409698795180723, 2124.8
2.409529411764706, 2125.0
2.409360060229626, 2125.2
2.409190740566482, 2125.4
2.409021452766278, 2125.6
2.408852196820021, 2125.8
2.408682972718720, 2126.0
2.408513780453391, 2126.2
2.408344620015049, 2126.4
2.408175491394715, 2126.6
2.408006394583412, 2126.8
2.407837329572168, 2127.0
2.407668296352012, 2127.2
2.407499294913980, 2127.4
2.407330325249107, 2127.6
2.407161387348435, 2127.8
2.406992481203007, 2128.0
2.406823606803872, 2128.2
2.406654764142079, 2128.4
2.406485953208682, 2128.6
2.406317173994739, 2128.8
2.406148426491311, 2129.0
2.405979710689461, 2129.2
2.405811026580257, 2129.4
2.405642374154771, 2129.6
2.405473753404075, 2129.8
2.405305164319249, 2130.0
2.405136606891372, 2130.2
2.404968081111528, 2130.4
2.404799586970806, 2130.6
2.404631124460296, 2130.8
2.404462693571094, 2131.0
2.404294294294294, 2131.2
2.404125926621000, 2131.4
2.403957590542316, 2131.6
2.403789286049348, 2131.8
2.403621013133208, 2132.0
2.403452771785011, 2132.2
2.403284561995873, 2132.4
2.403116383756917, 2132.6
2.402948237059265, 2132.8
2.402780121894046, 2133.0
2.402612038252391, 2133.2
2.402443986125434, 2133.4
2.402275965504312, 2133.6
2.402107976380166, 2133.8
2.401940018744142, 2134.0
2.401772092587386, 2134.2
2.401604197901049, 2134.4
2.401436334676286, 2134.6
2.401268502904253, 2134.8
2.401100702576112, 2135.0
2.400932933683027, 2135.2
2.400765196216165, 2135.4
2.400597490166698, 2135.6
2.400429815525798, 2135.8
2.400262172284644, 2136.0
2.400094560434416, 2136.2
2.399926979966299, 2136.4
2.399759430871478, 2136.6
2.399591913141145, 2136.8
2.399424426766495, 2137.0
2.399256971738724, 2137.2
2.399089548049032, 2137.4
2.398922155688623, 2137.6
2.398754794648704, 2137.8
2.398587464920487, 2138.0
2.398420166495183, 2138.2
2.398252899364010, 2138.4
2.398085663518190, 2138.6
2.397918458948943, 2138.8
2.397751285647499, 2139.0
2.397584143605086, 2139.2
2.397417032812938, 2139.4
2.397249953262292, 2139.6
2.397082904944387, 2139.8
2.396915887850467, 2140.0
2.396748901971778, 2140.2
2.396581947299570, 2140.4
2.396415023825096, 2140.6
2.396248131539611, 2140.8
2.396081270434376, 2141.0
2.395914440500654, 2141.2
2.395747641729709, 2141.4
2.395580874112813, 2141.6
2.395414137641236, 2141.8
2.395247432306256, 2142.0
2.395080758099151, 2142.2
2.394914115011202, 2142.4
2.394747503033698, 2142.6
2.394580922157924, 2142.8
2.394414372375175, 2143.0
2.394247853676745, 2143.2
2.394081366053933, 2143.4
2.393914909498041, 2143.6
2.393748484000373, 2143.8
2.393582089552239, 2144.0
2.393415726144949, 2144.2
2.393249393769819, 2144.4
2.393083092418167, 2144.6
2.392916822081313, 2144.8
2.392750582750583, 2145.0
2.392584374417304, 2145.2
2.392418197072807, 2145.4
2.392252050708426, 2145.6
2.392085935315500, 2145.8
2.391919850885368, 2146.0
2.391753797409375, 2146.2
2.391587774878867, 2146.4
2.391421783285195, 2146.6
2.391255822619713, 2146.8
2.391089892873777, 2147.0
2.390923994038748, 2147.2
2.390758126105989, 2147.4
2.390592289066865, 2147.6
2.390426482912748, 2147.8
2.390260707635009, 2148.0
2.390094963225026, 2148.2
2.389929249674176, 2148.4
2.389763566973843, 2148.6
2.389597915115413, 2148.8
2.389432294090275, 2149.0
2.389266703889819, 2149.2
2.389101144505443, 2149.4
2.388935615928545, 2149.6
2.388770118150525, 2149.8
2.388604651162791, 2150.0
2.388439214956748, 2150.2
2.388273809523810, 2150.4
2.388108434855389, 2150.6
2.387943090942905, 2150.8
2.387777777777778, 2151.0
2.387612495351432, 2151.2
2.387447243655294, 2151.4
2.387282022680796, 2151.6
2.387116832419370, 2151.8
2.386951672862454, 2152.0
2.386786544001487, 2152.2
2.386621445827913, 2152.4
2.386456378333178, 2152.6
2.386291341508733, 2152.8
2.386126335346029, 2153.0
2.385961359836522, 2153.2
2.385796414971673, 2153.4
2.385631500742942, 2153.6
2.385466617141796, 2153.8
2.385301764159703, 2154.0
2.385136941788135, 2154.2
2.384972150018567, 2154.4
2.384807388842477, 2154.6
2.384642658251346, 2154.8
2.384477958236659, 2155.0
2.384313288789904, 2155.2
2.384148649902570, 2155.4
2.383984041566154, 2155.6
2.383819463772149, 2155.8
2.383654916512060, 2156.0
2.383490399777386, 2156.2
2.383325913559637, 2156.4
2.383161457850320, 2156.6
2.382997032640950, 2156.8
2.382832637923041, 2157.0
2.382668273688114, 2157.2
2.382503939927691, 2157.4
2.382339636633296, 2157.6
2.382175363796459, 2157.8
2.382011121408712, 2158.0
2.381846909461589, 2158.2
2.381682727946627, 2158.4
2.381518576855369, 2158.6
2.381354456179359, 2158.8
2.381190365910144, 2159.0
2.381026306039274, 2159.2
2.380862276558303, 2159.4
2.380698277458789, 2159.6
2.380534308732290, 2159.8
2.380370370370370, 2160.0
2.380206462364596, 2160.2
2.380042584706536, 2160.4
2.379878737387763, 2160.6
2.379714920399852, 2160.8
2.379551133734382, 2161.0
2.379387377382935, 2161.2
2.379223651337096, 2161.4
2.379059955588453, 2161.6
2.378896290128596, 2161.8
2.378732654949121, 2162.0
2.378569050041624, 2162.2
2.378405475397706, 2162.4
2.378241931008971, 2162.6
2.378078416867024, 2162.8
2.377914932963477, 2163.0
2.377751479289941, 2163.2
2.377588055838033, 2163.4
2.377424662599371, 2163.6
2.377261299565579, 2163.8
2.377097966728281, 2164.0
2.376934664079105, 2164.2
2.376771391609684, 2164.4
2.376608149311651, 2164.6
2.376444937176645, 2164.8
2.376281755196305, 2165.0
2.376118603362276, 2165.2
2.375955481666205, 2165.4
2.375792390099742, 2165.6
2.375629328654539, 2165.8
2.375466297322253, 2166.0
2.375303296094544, 2166.2
2.375140324963072, 2166.4
2.374977383919505, 2166.6
2.374814472955510, 2166.8
2.374651592062760, 2167.0
2.374488741232927, 2167.2
2.374325920457691, 2167.4
2.374163129728732, 2167.6
2.374000369037734, 2167.8
2.373837638376384, 2168.0
2.373674937736372, 2168.2
2.373512267109389, 2168.4
2.373349626487135, 2168.6
2.373187015861306, 2168.8
2.373024435223605, 2169.0
2.372861884565739, 2169.2
2.372699363879414, 2169.4
2.372536873156342, 2169.6
2.372374412388238, 2169.8
2.372211981566820, 2170.0
2.372049580683808, 2170.2
2.371887209730925, 2170.4
2.371724868699899, 2170.6
2.371562557582458, 2170.8
2.371400276370336, 2171.0
2.371238025055269, 2171.2
2.371075803628995, 2171.4
2.370913612083257, 2171.6
2.370751450409798, 2171.8
2.370589318600368, 2172.0
2.370427216646718, 2172.2
2.370265144540600, 2172.4
2.370103102273773, 2172.6
2.369941089837997, 2172.8
2.369779107225034, 2173.0
2.369617154426652, 2173.2
2.369455231434618, 2173.4
2.369293338240707, 2173.6
2.369131474836691, 2173.8
2.368969641214351, 2174.0
2.368807837365468, 2174.2
2.368646063281825, 2174.4
2.368484318955210, 2174.6
2.368322604377414, 2174.8
2.368160919540230, 2175.0
2.367999264435454, 2175.2
2.367837639054887, 2175.4
2.367676043390329, 2175.6
2.367514477433588, 2175.8
2.367352941176470, 2176.0
2.367191434610790, 2176.2
2.367029957728359, 2176.4
2.366868510520996, 2176.6
2.366707092980522, 2176.8
2.366545705098760, 2177.0
2.366384346867537, 2177.2
2.366223018278681, 2177.4
2.366061719324026, 2177.6
2.365900449995408, 2177.8
2.365739210284665, 2178.0
2.365578000183638, 2178.2
2.365416819684172, 2178.4
2.365255668778115, 2178.6
2.365094547457316, 2178.8
2.364933455713630, 2179.0
2.364772393538913, 2179.2
2.364611360925025, 2179.4
2.364450357863828, 2179.6
2.364289384347188, 2179.8
2.364128440366973, 2180.0
2.363967525915054, 2180.2
2.363806640983306, 2180.4
2.363645785563607, 2180.6
2.363484959647836, 2180.8
2.363324163227877, 2181.0
2.363163396295617, 2181.2
2.363002658842945, 2181.4
2.362841950861753, 2181.6
2.362681272343936, 2181.8
2.362520623281393, 2182.0
2.362360003666025, 2182.2
2.362199413489736, 2182.4
2.362038852744433, 2182.6
2.361878321422027, 2182.8
2.361717819514430, 2183.0
2.361557347013558, 2183.2
2.361396903911331, 2183.4
2.361236490199671, 2183.6
2.361076105870501, 2183.8
2.360915750915751, 2184.0
2.360755425327351, 2184.2
2.360595129097235, 2184.4
2.360434862217339, 2184.6
2.360274624679604, 2184.8
2.360114416475973, 2185.0
2.359954237598390, 2185.2
2.359794088038803, 2185.4
2.359633967789165, 2185.6
2.359473876841431, 2185.8
2.359313815187557, 2186.0
2.359153782819504, 2186.2
2.358993779729235, 2186.4
2.358833805908717, 2186.6
2.358673861349918, 2186.8
2.358513946044810, 2187.0
2.358354059985369, 2187.2
2.358194203163573, 2187.4
2.358034375571402, 2187.6
2.357874577200841, 2187.8
2.357714808043875, 2188.0
2.357555068092496, 2188.2
2.357395357338695, 2188.4
2.357235675774468, 2188.6
2.357076023391813, 2188.8
2.356916400182732, 2189.0
2.356756806139229, 2189.2
2.356597241253311, 2189.4
2.356437705516989, 2189.6
2.356278198922276, 2189.8
2.356118721461187, 2190.0
2.355959273125742, 2190.2
2.355799853907962, 2190.4
2.355640463799872, 2190.6
2.355481102793500, 2190.8
2.355321770880876, 2191.0
2.355162468054035, 2191.2
2.355003194305010, 2191.4
2.354843949625844, 2191.6
2.354684734008577, 2191.8
2.354525547445256, 2192.0
2.354366389927927, 2192.2
2.354207261448641, 2192.4
2.354048161999453, 2192.6
2.353889091572419, 2192.8
2.353730050159599, 2193.0
2.353571037753055, 2193.2
2.353412054344853, 2193.4
2.353253099927060, 2193.6
2.353094174491750, 2193.8
2.352935278030994, 2194.0
2.352776410536870, 2194.2
2.352617572001458, 2194.4
2.352458762416842, 2194.6
2.352299981775105, 2194.8
2.352141230068337, 2195.0
2.351982507288630, 2195.2
2.351823813428077, 2195.4
2.351665148478776, 2195.6
2.351506512432826, 2195.8
2.351347905282331, 2196.0
2.351189327019397, 2196.2
2.351030777636132, 2196.4
2.350872257124647, 2196.6
2.350713765477058, 2196.8
2.350555302685480, 2197.0
2.350396868742036, 2197.2
2.350238463638846, 2197.4
2.350080087368038, 2197.6
2.349921739921740, 2197.8
2.349763421292084, 2198.0
2.349605131471204, 2198.2
2.349446870451237, 2198.4
2.349288638224325, 2198.6
2.349130434782609, 2198.8
2.348972260118236, 2199.0
2.348814114223354, 2199.2
2.348655997090115, 2199.4
2.348497908710675, 2199.6
2.348339849077189, 2199.8
2.348181818181818, 2200.0
2.348023816016726, 2200.2
2.347865842574077, 2200.4
2.347707897846042, 2200.6
2.347549981824791, 2200.8
2.347392094502499, 2201.0
2.347234235871343, 2201.2
2.347076405923503, 2201.4
2.346918604651163, 2201.6
2.346760832046507, 2201.8
2.346603088101726, 2202.0
2.346445372809009, 2202.2
2.346287686160552, 2202.4
2.346130028148552, 2202.6
2.345972398765208, 2202.8
2.345814798002724, 2203.0
2.345657225853305, 2203.2
2.345499682309158, 2203.4
2.345342167362498, 2203.6
2.345184681005536, 2203.8
2.345027223230490, 2204.0
2.344869794029580, 2204.2
2.344712393395028, 2204.4
2.344555021319060, 2204.6
2.344397677793904, 2204.8
2.344240362811791, 2205.0
2.344083076364956, 2205.2
2.343925818445634, 2205.4
2.343768589046065, 2205.6
2.343611388158491, 2205.8
2.343454215775159, 2206.0
2.343297071888315, 2206.2
2.343139956490210, 2206.4
2.342982869573099, 2206.6
2.342825811129237, 2206.8
2.342668781150884, 2207.0
2.342511779630301, 2207.2
2.342354806559753, 2207.4
2.342197861931509, 2207.6
2.342040945737839, 2207.8
2.341884057971015, 2208.0
2.341727198623313, 2208.2
2.341570367687013, 2208.4
2.341413565154396, 2208.6
2.341256791017747, 2208.8
2.341100045269353, 2209.0
2.340943327901503, 2209.2
2.340786638906490, 2209.4
2.340629978276611, 2209.6
2.340473346004163, 2209.8
2.340316742081448, 2210.0
2.340160166500769, 2210.2
2.340003619254433, 2210.4
2.339847100334751, 2210.6
2.339690609734033, 2210.8
2.339534147444595, 2211.0
2.339377713458755, 2211.2
2.339221307768834, 2211.4
2.339064930367155, 2211.6
2.338908581246044, 2211.8
2.338752260397830, 2212.0
2.338595967814845, 2212.2
2.338439703489423, 2212.4
2.338283467413902, 2212.6
2.338127259580622, 2212.8
2.337971079981925, 2213.0
2.337814928610157, 2213.2
2.337658805457667, 2213.4
2.337502710516805, 2213.6
2.337346643779926, 2213.8
2.337190605239386, 2214.0
2.337034594887544, 2214.2
2.336878612716763, 2214.4
2.336722658719407, 2214.6
2.336566732887845, 2214.8
2.336410835214447, 2215.0
2.336254965691586, 2215.2
2.336099124311636, 2215.4
2.335943311066980, 2215.6
2.335787525949995, 2215.8
2.335631768953069, 2216.0
2.335476040068586, 2216.2
2.335320339288937, 2216.4
2.335164666606515, 2216.6
2.335009022013713, 2216.8
2.334853405502932, 2217.0
2.334697817066571, 2217.2
2.334542256697032, 2217.4
2.334386724386724, 2217.6
2.334231220128055, 2217.8
2.334075743913436, 2218.0
2.333920295735281, 2218.2
2.333764875586008, 2218.4
2.333609483458037, 2218.6
2.333454119343789, 2218.8
2.333298783235692, 2219.0
2.333143475126172, 2219.2
2.332988195007660, 2219.4
2.332832942872590, 2219.6
2.332677718713398, 2219.8
2.332522522522523, 2220.0
2.332367354292406, 2220.2
2.332212214015493, 2220.4
2.332057101684230, 2220.6
2.331902017291066, 2220.8
2.331746960828456, 2221.0
2.331591932288853, 2221.2
2.331436931664716, 2221.4
2.331281958948506, 2221.6
2.331127014132685, 2221.8
2.330972097209721, 2222.0
2.330817208172082, 2222.2
2.330662347012239, 2222.4
2.330507513722667, 2222.6
2.330352708295843, 2222.8
2.330197930724247, 2223.0
2.330043181000360, 2223.2
2.329888459116668, 2223.4
2.329733765065659, 2223.6
2.329579098839824, 2223.8
2.329424460431655, 2224.0
2.329269849833648, 2224.2
2.329115267038302, 2224.4
2.328960712038119, 2224.6
2.328806184825602, 2224.8
2.328651685393258, 2225.0
2.328497213733597, 2225.2
2.328342769839130, 2225.4
2.328188353702373, 2225.6
2.328033965315842, 2225.8
2.327879604672058, 2226.0
2.327725271763543, 2226.2
2.327570966582824, 2226.4
2.327416689122429, 2226.6
2.327262439374888, 2226.8
2.327108217332734, 2227.0
2.326954022988506, 2227.2
2.326799856334740, 2227.4
2.326645717363979, 2227.6
2.326491606068767, 2227.8
2.326337522441652, 2228.0
2.326183466475182, 2228.2
2.326029438161910, 2228.4
2.325875437494391, 2228.6
2.325721464465183, 2228.8
2.325567519066846, 2229.0
2.325413601291944, 2229.2
2.325259711133040, 2229.4
2.325105848582706, 2229.6
2.324952013633510, 2229.8
2.324798206278027, 2230.0
2.324644426508833, 2230.2
2.324490674318508, 2230.4
2.324336949699632, 2230.6
2.324183252644791, 2230.8
2.324029583146571, 2231.0
2.323875941197562, 2231.2
2.323722326790356, 2231.4
2.323568739917548, 2231.6
2.323415180571736, 2231.8
2.323261648745520, 2232.0
2.323108144431503, 2232.2
2.322954667622290, 2232.4
2.322801218310490, 2232.6
2.322647796488714, 2232.8
2.322494402149574, 2233.0
2.322341035285689, 2233.2
2.322187695889675, 2233.4
2.322034383954155, 2233.6
2.321881099471752, 2233.8
2.321727842435094, 2234.0
2.321574612836810, 2234.2
2.321421410669531, 2234.4
2.321268235925893, 2234.6
2.321115088598532, 2234.8
2.320961968680090, 2235.0
2.320808876163207, 2235.2
2.320655811040530, 2235.4
2.320502773304706, 2235.6
2.320349762948385, 2235.8
2.320196779964222, 2236.0
2.320043824344871, 2236.2
2.319890896082990, 2236.4
2.319737995171242, 2236.6
2.319585121602289, 2236.8
2.319432275368797, 2237.0
2.319279456463437, 2237.2
2.319126664878877, 2237.4
2.318973900607794, 2237.6
2.318821163642864, 2237.8
2.318668453976765, 2238.0
2.318515771602180, 2238.2
2.318363116511794, 2238.4
2.318210488698293, 2238.6
2.318057888154368, 2238.8
2.317905314872711, 2239.0
2.317752768846017, 2239.2
2.317600250066982, 2239.4
2.317447758528309, 2239.6
2.317295294222698, 2239.8
2.317142857142857, 2240.0
2.316990447281493, 2240.2
2.316838064631316, 2240.4
2.316685709185040, 2240.6
2.316533380935380, 2240.8
2.316381079875056, 2241.0
2.316228805996788, 2241.2
2.316076559293299, 2241.4
2.315924339757316, 2241.6
2.315772147381568, 2241.8
2.315619982158787, 2242.0
2.315467844081706, 2242.2
2.315315733143061, 2242.4
2.315163649335592, 2242.6
2.315011592652042, 2242.8
2.314859563085154, 2243.0
2.314707560627675, 2243.2
2.314555585272354, 2243.4
2.314403637011945, 2243.6
2.314251715839201, 2243.8
2.314099821746880, 2244.0
2.313947954727743, 2244.2
2.313796114774550, 2244.4
2.313644301880068, 2244.6
2.313492516037063, 2244.8
2.313340757238307, 2245.0
2.313189025476572, 2245.2
2.313037320744634, 2245.4
2.312885643035269, 2245.6
2.312733992341259, 2245.8
2.312582368655387, 2246.0
2.312430771970439, 2246.2
2.312279202279202, 2246.4
2.312127659574468, 2246.6
2.311976143849030, 2246.8
2.311824655095683, 2247.0
2.311673193307227, 2247.2
2.311521758476462, 2247.4
2.311370350596191, 2247.6
2.311218969659222, 2247.8
2.311067615658363, 2248.0
2.310916288586425, 2248.2
2.310764988436221, 2248.4
2.310613715200569, 2248.6
2.310462468872287, 2248.8
2.310311249444197, 2249.0
2.310160056909123, 2249.2
2.310008891259892, 2249.4
2.309857752489331, 2249.6
2.309706640590274, 2249.8
2.309555555555555, 2250.0
2.309404497378011, 2250.2
2.309253466050480, 2250.4
2.309102461565805, 2250.6
2.308951483916829, 2250.8
2.308800533096401, 2251.0
2.308649609097370, 2251.2
2.308498711912588, 2251.4
2.308347841534908, 2251.6
2.308196997957189, 2251.8
2.308046181172291, 2252.0
2.307895391173076, 2252.2
2.307744627952406, 2252.4
2.307593891503152, 2252.6
2.307443181818182, 2252.8
2.307292498890368, 2253.0
2.307141842712586, 2253.2
2.306991213277714, 2253.4
2.306840610578630, 2253.6
2.306690034608217, 2253.8
2.306539485359361, 2254.0
2.306388962824949, 2254.2
2.306238466997871, 2254.4
2.306087997871019, 2254.6
2.305937555437289, 2254.8
2.305787139689579, 2255.0
2.305636750620788, 2255.2
2.305486388223818, 2255.4
2.305336052491576, 2255.6
2.305185743416970, 2255.8
2.305035460992908, 2256.0
2.304885205212304, 2256.2
2.304734976068073, 2256.4
2.304584773553133, 2256.6
2.304434597660404, 2256.8
2.304284448382809, 2257.0
2.304134325713273, 2257.2
2.303984229644724, 2257.4
2.303834160170092, 2257.6
2.303684117282310, 2257.8
2.303534100974313, 2258.0
2.303384111239040, 2258.2
2.303234148069429, 2258.4
2.303084211458426, 2258.6
2.302934301398973, 2258.8
2.302784417884019, 2259.0
2.302634560906516, 2259.2
2.302484730459414, 2259.4
2.302334926535670, 2259.6
2.302185149128241, 2259.8
2.302035398230089, 2260.0
2.301885673834174, 2260.2
2.301735975933463, 2260.4
2.301586304520923, 2260.6
2.301436659589525, 2260.8
2.301287041132242, 2261.0
2.301137449142049, 2261.2
2.300987883611922, 2261.4
2.300838344534843, 2261.6
2.300688831903793, 2261.8
2.300539345711759, 2262.0
2.300389885951728, 2262.2
2.300240452616690, 2262.4
2.300091045699638, 2262.6
2.299941665193565, 2262.8
2.299792311091471, 2263.0
2.299642983386356, 2263.2
2.299493682071220, 2263.4
2.299344407139071, 2263.6
2.299195158582914, 2263.8
2.299045936395760, 2264.0
2.298896740570621, 2264.2
2.298747571100512, 2264.4
2.298598427978451, 2264.6
2.298449311197456, 2264.8
2.298300220750552, 2265.0
2.298151156630761, 2265.2
2.298002118831111, 2265.4
2.297853107344633, 2265.6
2.297704122164357, 2265.8
2.297555163283318, 2266.0
2.297406230694555, 2266.2
2.297257324391105, 2266.4
2.297108444366011, 2266.6
2.296959590612317, 2266.8
2.296810763123070, 2267.0
2.296661961891320, 2267.2
2.296513186910117, 2267.4
2.296364438172517, 2267.6
2.296215715671576, 2267.8
2.296067019400353, 2268.0
2.295918349351909, 2268.2
2.295769705519309, 2268.4
2.295621087895618, 2268.6
2.295472496473907, 2268.8
2.295323931247245, 2269.0
2.295175392208708, 2269.2
2.295026879351370, 2269.4
2.294878392668312, 2269.6
2.294729932152612, 2269.8
2.294581497797357, 2270.0
2.294433089595631, 2270.2
2.294284707540521, 2270.4
2.294136351625121, 2270.6
2.293988021842522, 2270.8
2.293839718185821, 2271.0
2.293691440648116, 2271.2
2.293543189222506, 2271.4
2.293394963902096, 2271.6
2.293246764679989, 2271.8
2.293098591549296, 2272.0
2.292950444503125, 2272.2
2.292802323534589, 2272.4
2.292654228636804, 2272.6
2.292506159802886, 2272.8
2.292358117025957, 2273.0
2.292210100299138, 2273.2
2.292062109615554, 2273.4
2.291914144968332, 2273.6
2.291766206350602, 2273.8
2.291618293755497, 2274.0
2.291470407176150, 2274.2
2.291322546605698, 2274.4
2.291174712037281, 2274.6
2.291026903464040, 2274.8
2.290879120879121, 2275.0
2.290731364275668, 2275.2
2.290583633646831, 2275.4
2.290435928985762, 2275.6
2.290288250285614, 2275.8
2.290140597539543, 2276.0
2.289992970740709, 2276.2
2.289845369882270, 2276.4
2.289697794957393, 2276.6
2.289550245959241, 2276.8
2.289402722880984, 2277.0
2.289255225715792, 2277.2
2.289107754456837, 2277.4
2.288960309097296, 2277.6
2.288812889630345, 2277.8
2.288665496049166, 2278.0
2.288518128346941, 2278.2
2.288370786516854, 2278.4
2.288223470552094, 2278.6
2.288076180445849, 2278.8
2.287928916191312, 2279.0
2.287781677781678, 2279.2
2.287634465210143, 2279.4
2.287487278469907, 2279.6
2.287340117554171, 2279.8
2.287192982456141, 2280.0
2.287045873169020, 2280.2
2.286898789686020, 2280.4
2.286751732000351, 2280.6
2.286604700105226, 2280.8
2.286457693993862, 2281.0
2.286310713659478, 2281.2
2.286163759095292, 2281.4
2.286016830294530, 2281.6
2.285869927250416, 2281.8
2.285723049956179, 2282.0
2.285576198405048, 2282.2
2.285429372590256, 2282.4
2.285282572505038, 2282.6
2.285135798142632, 2282.8
2.284989049496277, 2283.0
2.284842326559215, 2283.2
2.284695629324691, 2283.4
2.284548957785952, 2283.6
2.284402311936247, 2283.8
2.284255691768827, 2284.0
2.284109097276946, 2284.2
2.283962528453861, 2284.4
2.283815985292830, 2284.6
2.283669467787115, 2284.8
2.283522975929978, 2285.0
2.283376509714686, 2285.2
2.283230069134506, 2285.4
2.283083654182709, 2285.6
2.282937264852568, 2285.8
2.282790901137358, 2286.0
2.282644563030356, 2286.2
2.282498250524843, 2286.4
2.282351963614099, 2286.6
2.282205702291412, 2286.8
2.282059466550066, 2287.0
2.281913256383351, 2287.2
2.281767071784559, 2287.4
2.281620912746984, 2287.6
2.281474779263922, 2287.8
2.281328671328671, 2288.0
2.281182588934534, 2288.2
2.281036532074812, 2288.4
2.280890500742812, 2288.6
2.280744494931842, 2288.8
2.280598514635212, 2289.0
2.280452559846235, 2289.2
2.280306630558225, 2289.4
2.280160726764501, 2289.6
2.280014848458380, 2289.8
2.279868995633188, 2290.0
2.279723168282246, 2290.2
2.279577366398882, 2290.4
2.279431589976425, 2290.6
2.279285839008207, 2290.8
2.279140113487560, 2291.0
2.278994413407821, 2291.2
2.278848738762329, 2291.4
2.278703089544423, 2291.6
2.278557465747447, 2291.8
2.278411867364747, 2292.0
2.278266294389669, 2292.2
2.278120746815564, 2292.4
2.277975224635785, 2292.6
2.277829727843685, 2292.8
2.277684256432621, 2293.0
2.277538810395953, 2293.2
2.277393389727043, 2293.4
2.277247994419254, 2293.6
2.277102624465952, 2293.8
2.276957279860506, 2294.0
2.276811960596286, 2294.2
2.276666666666666, 2294.4
2.276521398065022, 2294.6
2.276376154784731, 2294.8
2.276230936819172, 2295.0
2.276085744161729, 2295.2
2.275940576805785, 2295.4
2.275795434744729, 2295.6
2.275650317971948, 2295.8
2.275505226480836, 2296.0
2.275360160264785, 2296.2
2.275215119317192, 2296.4
2.275070103631455, 2296.6
2.274925113200975, 2296.8
2.274780148019155, 2297.0
2.274635208079401, 2297.2
2.274490293375119, 2297.4
2.274345403899722, 2297.6
2.274200539646619, 2297.8
2.274055700609225, 2298.0
2.273910886780959, 2298.2
2.273766098155238, 2298.4
2.273621334725485, 2298.6
2.273476596485123, 2298.8
2.273331883427577, 2299.0
2.273187195546277, 2299.2
2.273042532834653, 2299.4
2.272897895286137, 2299.6
2.272753282894165, 2299.8
2.272608695652174, 2300.0
2.272464133553604, 2300.2
2.272319596591897, 2300.4
2.272175084760497, 2300.6
2.272030598052851, 2300.8
2.271886136462407, 2301.0
2.271741699982618, 2301.2
2.271597288606935, 2301.4
2.271452902328815, 2301.6
2.271308541141715, 2301.8
2.271164205039097, 2302.0
2.271019894014421, 2302.2
2.270875608061154, 2302.4
2.270731347172761, 2302.6
2.270587111342713, 2302.8
2.270442900564481, 2303.0
2.270298714831539, 2303.2
2.270154554137362, 2303.4
2.270010418475430, 2303.6
2.269866307839222, 2303.8
2.269722222222222, 2304.0
2.269578161617915, 2304.2
2.269434126019788, 2304.4
2.269290115421331, 2304.6
2.269146129816036, 2304.8
2.269002169197397, 2305.0
2.268858233558910, 2305.2
2.268714322894075, 2305.4
2.268570437196392, 2305.6
2.268426576459363, 2305.8
2.268282740676496, 2306.0
2.268138929841297, 2306.2
2.267995143947277, 2306.4
2.267851382987948, 2306.6
2.267707646956823, 2306.8
2.267563935847421, 2307.0
2.267420249653259, 2307.2
2.267276588367860, 2307.4
2.267132951984746, 2307.6
2.266989340497443, 2307.8
2.266845753899480, 2308.0
2.266702192184386, 2308.2
2.266558655345694, 2308.4
2.266415143376939, 2308.6
2.266271656271656, 2308.8
2.266128194023387, 2309.0
2.265984756625671, 2309.2
2.265841344072053, 2309.4
2.265697956356079, 2309.6
2.265554593471296, 2309.8
2.265411255411256, 2310.0
2.265267942169509, 2310.2
2.265124653739612, 2310.4
2.264981390115122, 2310.6
2.264838151289597, 2310.8
2.264694937256599, 2311.0
2.264551748009692, 2311.2
2.264408583542442, 2311.4
2.264265443848417, 2311.6
2.264122328921187, 2311.8
2.263979238754325, 2312.0
2.263836173341407, 2312.2
2.263693132676007, 2312.4
2.263550116751708, 2312.6
2.263407125562089, 2312.8
2.263264159100735, 2313.0
2.263121217361231, 2313.2
2.262978300337166, 2313.4
2.262835408022130, 2313.6
2.262692540409716, 2313.8
2.262549697493518, 2314.0
2.262406879267134, 2314.2
2.262264085724162, 2314.4
2.262121316858205, 2314.6
2.261978572662865, 2314.8
2.261835853131749, 2315.0
2.261693158258466, 2315.2
2.261550488036624, 2315.4
2.261407842459838, 2315.6
2.261265221521720, 2315.8
2.261122625215890, 2316.0
2.260980053535964, 2316.2
2.260837506475565, 2316.4
2.260694984028317, 2316.6
2.260552486187845, 2316.8
2.260410012947777, 2317.0
2.260267564301744, 2317.2
2.260125140243376, 2317.4
2.259982740766310, 2317.6
2.259840365864181, 2317.8
2.259698015530630, 2318.0
2.259555689759296, 2318.2
2.259413388543823, 2318.4
2.259271111877857, 2318.6
2.259128859755045, 2318.8
2.258986632169038, 2319.0
2.258844429113488, 2319.2
2.258702250582047, 2319.4
2.258560096568374, 2319.6
2.258417967066126, 2319.8
2.258275862068965, 2320.0
2.258133781570554, 2320.2
2.257991725564558, 2320.4
2.257849694044644, 2320.6
2.257707687004481, 2320.8
2.257565704437742, 2321.0
2.257423746338101, 2321.2
2.257281812699233, 2321.4
2.257139903514818, 2321.6
2.256998018778534, 2321.8
2.256856158484065, 2322.0
2.256714322625097, 2322.2
2.256572511195315, 2322.4
2.256430724188410, 2322.6
2.256288961598071, 2322.8
2.256147223417994, 2323.0
2.256005509641873, 2323.2
2.255863820263407, 2323.4
2.255722155276295, 2323.6
2.255580514674240, 2323.8
2.255438898450947, 2324.0
2.255297306600121, 2324.2
2.255155739115470, 2324.4
2.255014195990708, 2324.6
2.254872677219546, 2324.8
2.254731182795699, 2325.0
2.254589712712885, 2325.2
2.254448266964823, 2325.4
2.254306845545236, 2325.6
2.254165448447846, 2325.8
2.254024075666380, 2326.0
2.253882727194566, 2326.2
2.253741403026135, 2326.4
2.253600103154818, 2326.6
2.253458827574351, 2326.8
2.253317576278470, 2327.0
2.253176349260915, 2327.2
2.253035146515425, 2327.4
2.252893968035745, 2327.6
2.252752813815620, 2327.8
2.252611683848797, 2328.0
2.252470578129027, 2328.2
2.252329496650060, 2328.4
2.252188439405652, 2328.6
2.252047406389557, 2328.8
2.251906397595535, 2329.0
2.251765413017345, 2329.2
2.251624452648751, 2329.4
2.251483516483517, 2329.6
2.251342604515409, 2329.8
2.251201716738197, 2330.0
2.251060853145653, 2330.2
2.250920013731548, 2330.4
2.250779198489659, 2330.6
2.250638407413764, 2330.8
2.250497640497640, 2331.0
2.250356897735072, 2331.2
2.250216179119842, 2331.4
2.250075484645737, 2331.6
2.249934814306544, 2331.8
2.249794168096055, 2332.0
2.249653546008061, 2332.2
2.249512948036357, 2332.4
2.249372374174741, 2332.6
2.249231824417009, 2332.8
2.249091298756965, 2333.0
2.248950797188411, 2333.2
2.248810319705151, 2333.4
2.248669866300994, 2333.6
2.248529436969749, 2333.8
2.248389031705227, 2334.0
2.248248650501242, 2334.2
2.248108293351611, 2334.4
2.247967960250150, 2334.6
2.247827651190680, 2334.8
2.247687366167023, 2335.0
2.247547105173004, 2335.2
2.247406868202449, 2335.4
2.247266655249187, 2335.6
2.247126466307046, 2335.8
2.246986301369863, 2336.0
2.246846160431470, 2336.2
2.246706043485704, 2336.4
2.246565950526406, 2336.6
2.246425881547415, 2336.8
2.246285836542576, 2337.0
2.246145815505733, 2337.2
2.246005818430735, 2337.4
2.245865845311430, 2337.6
2.245725896141672, 2337.8
2.245585970915312, 2338.0
2.245446069626208, 2338.2
2.245306192268218, 2338.4
2.245166338835201, 2338.6
2.245026509321019, 2338.8
2.244886703719538, 2339.0
2.244746922024624, 2339.2
2.244607164230144, 2339.4
2.244467430329971, 2339.6
2.244327720317976, 2339.8
2.244188034188034, 2340.0
2.244048371934023, 2340.2
2.243908733549821, 2340.4
2.243769119029309, 2340.6
2.243629528366371, 2340.8
2.243489961554891, 2341.0
2.243350418588758, 2341.2
2.243210899461860, 2341.4
2.243071404168090, 2341.6
2.242931932701341, 2341.8
2.242792485055508, 2342.0
2.242653061224490, 2342.2
2.242513661202186, 2342.4
2.242374284982498, 2342.6
2.242234932559330, 2342.8
2.242095603926590, 2343.0
2.241956299078184, 2343.2
2.241817018008022, 2343.4
2.241677760710019, 2343.6
2.241538527178087, 2343.8
2.241399317406144, 2344.0
2.241260131388107, 2344.2
2.241120969117898, 2344.4
2.240981830589440, 2344.6
2.240842715796656, 2344.8
2.240703624733476, 2345.0
2.240564557393826, 2345.2
2.240425513771638, 2345.4
2.240286493860846, 2345.6
2.240147497655384, 2345.8
2.240008525149190, 2346.0
2.239869576336203, 2346.2
2.239730651210365, 2346.4
2.239591749765618, 2346.6
2.239452871995909, 2346.8
2.239314017895185, 2347.0
2.239175187457396, 2347.2
2.239036380676493, 2347.4
2.238897597546430, 2347.6
2.238758838061163, 2347.8
2.238620102214651, 2348.0
2.238481390000852, 2348.2
2.238342701413728, 2348.4
2.238204036447245, 2348.6
2.238065395095368, 2348.8
2.237926777352065, 2349.0
2.237788183211306, 2349.2
2.237649612667064, 2349.4
2.237511065713313, 2349.6
2.237372542344029, 2349.8
2.237234042553192, 2350.0
2.237095566334780, 2350.2
2.236957113682777, 2350.4
2.236818684591168, 2350.6
2.236680279053939, 2350.8
2.236541897065079, 2351.0
2.236403538618578, 2351.2
2.236265203708429, 2351.4
2.236126892328627, 2351.6
2.235988604473169, 2351.8
2.235850340136055, 2352.0
2.235712099311283, 2352.2
2.235573881992858, 2352.4
2.235435688174785, 2352.6
2.235297517851071, 2352.8
2.235159371015725, 2353.0
2.235021247662757, 2353.2
2.234883147786181, 2353.4
2.234745071380014, 2353.6
2.234607018438270, 2353.8
2.234468988954970, 2354.0
2.234330982924136, 2354.2
2.234193000339789, 2354.4
2.234055041195957, 2354.6
2.233917105486666, 2354.8
2.233779193205945, 2355.0
2.233641304347826, 2355.2
2.233503438906343, 2355.4
2.233365596875531, 2355.6
2.233227778249427, 2355.8
2.233089983022071, 2356.0
2.232952211187505, 2356.2
2.232814462739773, 2356.4
2.232676737672919, 2356.6
2.232539035980991, 2356.8
2.232401357658040, 2357.0
2.232263702698117, 2357.2
2.232126071095274, 2357.4
2.231988462843570, 2357.6
2.231850877937060, 2357.8
2.231713316369805, 2358.0
2.231575778135866, 2358.2
2.231438263229308, 2358.4
2.231300771644196, 2358.6
2.231163303374597, 2358.8
2.231025858414582, 2359.0
2.230888436758223, 2359.2
2.230751038399593, 2359.4
2.230613663332768, 2359.6
2.230476311551826, 2359.8
2.230338983050848, 2360.0
2.230201677823914, 2360.2
2.230064395865107, 2360.4
2.229927137168517, 2360.6
2.229789901728227, 2360.8
2.229652689538331, 2361.0
2.229515500592919, 2361.2
2.229378334886084, 2361.4
2.229241192411924, 2361.6
2.229104073164535, 2361.8
2.228966977138019, 2362.0
2.228829904326476, 2362.2
2.228692854724009, 2362.4
2.228555828324727, 2362.6
2.228418825122735, 2362.8
2.228281845112146, 2363.0
2.228144888287069, 2363.2
2.228007954641618, 2363.4
2.227871044169910, 2363.6
2.227734156866063, 2363.8
2.227597292724196, 2364.0
2.227460451738432, 2364.2
2.227323633902893, 2364.4
2.227186839211706, 2364.6
2.227050067658999, 2364.8
2.226913319238901, 2365.0
2.226776593945544, 2365.2
2.226639891773062, 2365.4
2.226503212715590, 2365.6
2.226366556767267, 2365.8
2.226229923922232, 2366.0
2.226093314174626, 2366.2
2.225956727518593, 2366.4
2.225820163948280, 2366.6
2.225683623457833, 2366.8
2.225547106041402, 2367.0
2.225410611693140, 2367.2
2.225274140407198, 2367.4
2.225137692177733, 2367.6
2.225001266998902, 2367.8
2.224864864864865, 2368.0
2.224728485769783, 2368.2
2.224592129707819, 2368.4
2.224455796673140, 2368.6
2.224319486659912, 2368.8
2.224183199662305, 2369.0
2.224046935674489, 2369.2
2.223910694690639, 2369.4
2.223774476704929, 2369.6
2.223638281711537, 2369.8
2.223502109704641, 2370.0
2.223365960678424, 2370.2
2.223229834627067, 2370.4
2.223093731544757, 2370.6
2.222957651425679, 2370.8
2.222821594264023, 2371.0
2.222685560053981, 2371.2
2.222549548789744, 2371.4
2.222413560465509, 2371.6
2.222277595075470, 2371.8
2.222141652613828, 2372.0
2.222005733074783, 2372.2
2.221869836452537, 2372.4
2.221733962741296, 2372.6
2.221598111935266, 2372.8
2.221462284028656, 2373.0
2.221326479015675, 2373.2
2.221190696890537, 2373.4
2.221054937647455, 2373.6
2.220919201280647, 2373.8
2.220783487784330, 2374.0
2.220647797152725, 2374.2
2.220512129380054, 2374.4
2.220376484460541, 2374.6
2.220240862388411, 2374.8
2.220105263157895, 2375.0
2.219969686763220, 2375.2
2.219834133198619, 2375.4
2.219698602458327, 2375.6
2.219563094536577, 2375.8
2.219427609427609, 2376.0
2.219292147125663, 2376.2
2.219156707624979, 2376.4
2.219021290919801, 2376.6
2.218885897004375, 2376.8
2.218750525872949, 2377.0
2.218615177519771, 2377.2
2.218479851939093, 2377.4
2.218344549125168, 2377.6
2.218209269072251, 2377.8
2.218074011774601, 2378.0
2.217938777226474, 2378.2
2.217803565422133, 2378.4
2.217668376355840, 2378.6
2.217533210021859, 2378.8
2.217398066414460, 2379.0
2.217262945527909, 2379.2
2.217127847356476, 2379.4
2.216992771894436, 2379.6
2.216857719136062, 2379.8
2.216722689075630, 2380.0
2.216587681707419, 2380.2
2.216452697025710, 2380.4
2.216317735024784, 2380.6
2.216182795698924, 2380.8
2.216047879042419, 2381.0
2.215912985049555, 2381.2
2.215778113714622, 2381.4
2.215643265031912, 2381.6
2.215508438995717, 2381.8
2.215373635600336, 2382.0
2.215238854840064, 2382.2
2.215104096709201, 2382.4
2.214969361202048, 2382.6
2.214834648312909, 2382.8
2.214699958036089, 2383.0
2.214565290365895, 2383.2
2.214430645296635, 2383.4
2.214296022822621, 2383.6
2.214161422938166, 2383.8
2.214026845637584, 2384.0
2.213892290915192, 2384.2
2.213757758765308, 2384.4
2.213623249182253, 2384.6
2.213488762160349, 2384.8
2.213354297693920, 2385.0
2.213219855777294, 2385.2
2.213085436404796, 2385.4
2.212951039570758, 2385.6
2.212816665269511, 2385.8
2.212682313495390, 2386.0
2.212547984242729, 2386.2
2.212413677505867, 2386.4
2.212279393279142, 2386.6
2.212145131556896, 2386.8
2.212010892333473, 2387.0
2.211876675603217, 2387.2
2.211742481360476, 2387.4
2.211608309599598, 2387.6
2.211474160314934, 2387.8
2.211340033500838, 2388.0
2.211205929151662, 2388.2
2.211071847261765, 2388.4
2.210937787825504, 2388.6
2.210803750837240, 2388.8
2.210669736291335, 2389.0
2.210535744182153, 2389.2
2.210401774504060, 2389.4
2.210267827251423, 2389.6
2.210133902418612, 2389.8
2.210000000000000, 2390.0
2.209866119989959, 2390.2
2.209732262382865, 2390.4
2.209598427173095, 2390.6
2.209464614355027, 2390.8
2.209330823923045, 2391.0
2.209197055871529, 2391.2
2.209063310194865, 2391.4
2.208929586887439, 2391.6
2.208795885943641, 2391.8
2.208662207357860, 2392.0
2.208528551124488, 2392.2
2.208394917237920, 2392.4
2.208261305692552, 2392.6
2.208127716482782, 2392.8
2.207994149603009, 2393.0
2.207860605047635, 2393.2
2.207727082811064, 2393.4
2.207593582887700, 2393.6
2.207460105271952, 2393.8
2.207326649958229, 2394.0
2.207193216940941, 2394.2
2.207059806214501, 2394.4
2.206926417773323, 2394.6
2.206793051611826, 2394.8
2.206659707724426, 2395.0
2.206526386105545, 2395.2
2.206393086749603, 2395.4
2.206259809651027, 2395.6
2.206126554804241, 2395.8
2.205993322203673, 2396.0
2.205860111843753, 2396.2
2.205726923718911, 2396.4
2.205593757823583, 2396.6
2.205460614152203, 2396.8
2.205327492699207, 2397.0
2.205194393459036, 2397.2
2.205061316426128, 2397.4
2.204928261594928, 2397.6
2.204795228959880, 2397.8
2.204662218515430, 2398.0
2.204529230256025, 2398.2
2.204396264176117, 2398.4
2.204263320270158, 2398.6
2.204130398532600, 2398.8
2.203997498957899, 2399.0
2.203864621540514, 2399.2
2.203731766274902, 2399.4
2.203598933155526, 2399.6
2.203466122176848, 2399.8
2.203333333333333, 2400.0
2.203200566619449, 2400.2
2.203067822029662, 2400.4
2.202935099558444, 2400.6
2.202802399200266, 2400.8
2.202669720949604, 2401.0
2.202537064800933, 2401.2
2.202404430748730, 2401.4
2.202271818787475, 2401.6
2.202139228911649, 2401.8
2.202006661115737, 2402.0
2.201874115394222, 2402.2
2.201741591741591, 2402.4
2.201609090152335, 2402.6
2.201476610620942, 2402.8
2.201344153141906, 2403.0
2.201211717709720, 2403.2
2.201079304318882, 2403.4
2.200946912963888, 2403.6
2.200814543639238, 2403.8
2.200682196339434, 2404.0
2.200549871058980, 2404.2
2.200417567792381, 2404.4
2.200285286534143, 2404.6
2.200153027278775, 2404.8
2.200020790020790, 2405.0
2.199888574754698, 2405.2
2.199756381475015, 2405.4
2.199624210176256, 2405.6
2.199492060852938, 2405.8
2.199359933499584, 2406.0
2.199227828110714, 2406.2
2.199095744680851, 2406.4
2.198963683204521, 2406.6
2.198831643676250, 2406.8
2.198699626090569, 2407.0
2.198567630442007, 2407.2
2.198435656725097, 2407.4
2.198303704934375, 2407.6
2.198171775064374, 2407.8
2.198039867109634, 2408.0
2.197907981064696, 2408.2
2.197776116924099, 2408.4
2.197644274682388, 2408.6
2.197512454334108, 2408.8
2.197380655873807, 2409.0
2.197248879296032, 2409.2
2.197117124595335, 2409.4
2.196985391766269, 2409.6
2.196853680803386, 2409.8
2.196721991701245, 2410.0
2.196590324454402, 2410.2
2.196458679057418, 2410.4
2.196327055504854, 2410.6
2.196195453791272, 2410.8
2.196063873911240, 2411.0
2.195932315859323, 2411.2
2.195800779630090, 2411.4
2.195669265218112, 2411.6
2.195537772617961, 2411.8
2.195406301824212, 2412.0
2.195274852831440, 2412.2
2.195143425634223, 2412.4
2.195012020227141, 2412.6
2.194880636604775, 2412.8
2.194749274761707, 2413.0
2.194617934692525, 2413.2
2.194486616391812, 2413.4
2.194355319854160, 2413.6
2.194224045074157, 2413.8
2.194092792046396, 2414.0
2.193961560765471, 2414.2
2.193830351225977, 2414.4
2.193699163422513, 2414.6
2.193567997349677, 2414.8
2.193436853002070, 2415.0
2.193305730374296, 2415.2
2.193174629460959, 2415.4
2.193043550256665, 2415.6
2.192912492756023, 2415.8
2.192781456953643, 2416.0
2.192650442844136, 2416.2
2.192519450422115, 2416.4
2.192388479682198, 2416.6
2.192257530619000, 2416.8
2.192126603227141, 2417.0
2.191995697501241, 2417.2
2.191864813435923, 2417.4
2.191733951025811, 2417.6
2.191603110265531, 2417.8
2.191472291149711, 2418.0
2.191341493672980, 2418.2
2.191210717829970, 2418.4
2.191079963615315, 2418.6
2.190949231023648, 2418.8
2.190818520049607, 2419.0
2.190687830687831, 2419.2
2.190557162932958, 2419.4
2.190426516779633, 2419.6
2.190295892222498, 2419.8
2.190165289256198, 2420.0
2.190034707875382, 2420.2
2.189904148074698, 2420.4
2.189773609848798, 2420.6
2.189643093192333, 2420.8
2.189512598099959, 2421.0
2.189382124566331, 2421.2
2.189251672586107, 2421.4
2.189121242153948, 2421.6
2.188990833264514, 2421.8
2.188860445912469, 2422.0
2.188730080092478, 2422.2
2.188599735799207, 2422.4
2.188469413027326, 2422.6
2.188339111771504, 2422.8
2.188208832026413, 2423.0
2.188078573786728, 2423.2
2.187948337047124, 2423.4
2.187818121802278, 2423.6
2.187687928046869, 2423.8
2.187557755775578, 2424.0
2.187427604983087, 2424.2
2.187297475664082, 2424.4
2.187167367813247, 2424.6
2.187037281425272, 2424.8
2.186907216494845, 2425.0
2.186777173016659, 2425.2
2.186647150985404, 2425.4
2.186517150395778, 2425.6
2.186387171242477, 2425.8
2.186257213520198, 2426.0
2.186127277223642, 2426.2
2.185997362347511, 2426.4
2.185867468886508, 2426.6
2.185737596835339, 2426.8
2.185607746188710, 2427.0
2.185477916941332, 2427.2
2.185348109087913, 2427.4
2.185218322623167, 2427.6
2.185088557541807, 2427.8
2.184958813838550, 2428.0
2.184829091508113, 2428.2
2.184699390545215, 2428.4
2.184569710944577, 2428.6
2.184440052700922, 2428.8
2.184310415808975, 2429.0
2.184180800263461, 2429.2
2.184051206059109, 2429.4
2.183921633190649, 2429.6
2.183792081652811, 2429.8
2.183662551440329, 2430.0
2.183533042547939, 2430.2
2.183403554970375, 2430.4
2.183274088702378, 2430.6
2.183144643738687, 2430.8
2.183015220074044, 2431.0
2.182885817703192, 2431.2
2.182756436620877, 2431.4
2.182627076821846, 2431.6
2.182497738300847, 2431.8
2.182368421052632, 2432.0
2.182239125071952, 2432.2
2.182109850353560, 2432.4
2.181980596892214, 2432.6
2.181851364682670, 2432.8
2.181722153719688, 2433.0
2.181592963998027, 2433.2
2.181463795512452, 2433.4
2.181334648257725, 2433.6
2.181205522228614, 2433.8
2.181076417419885, 2434.0
2.180947333826309, 2434.2
2.180818271442655, 2434.4
2.180689230263698, 2434.6
2.180560210284212, 2434.8
2.180431211498973, 2435.0
2.180302233902760, 2435.2
2.180173277490351, 2435.4
2.180044342256528, 2435.6
2.179915428196075, 2435.8
2.179786535303777, 2436.0
2.179657663574419, 2436.2
2.179528813002791, 2436.4
2.179399983583682, 2436.6
2.179271175311885, 2436.8
2.179142388182191, 2437.0
2.179013622189398, 2437.2
2.178884877328301, 2437.4
2.178756153593699, 2437.6
2.178627450980392, 2437.8
2.178498769483183, 2438.0
2.178370109096875, 2438.2
2.178241469816273, 2438.4
2.178112851636185, 2438.6
2.177984254551419, 2438.8
2.177855678556786, 2439.0
2.177727123647097, 2439.2
2.177598589817168, 2439.4
2.177470077061813, 2439.6
2.177341585375850, 2439.8
2.177213114754098, 2440.0
2.177084665191378, 2440.2
2.176956236682511, 2440.4
2.176827829222322, 2440.6
2.176699442805637, 2440.8
2.176571077427284, 2441.0
2.176442733082091, 2441.2
2.176314409764889, 2441.4
2.176186107470511, 2441.6
2.176057826193791, 2441.8
2.175929565929566, 2442.0
2.175801326672672, 2442.2
2.175673108417949, 2442.4
2.175544911160239, 2442.6
2.175416734894383, 2442.8
2.175288579615227, 2443.0
2.175160445317617, 2443.2
2.175032331996398, 2443.4
2.174904239646423, 2443.6
2.174776168262542, 2443.8
2.174648117839607, 2444.0
2.174520088372474, 2444.2
2.174392079855997, 2444.4
2.174264092285036, 2444.6
2.174136125654450, 2444.8
2.174008179959100, 2445.0
2.173880255193849, 2445.2
2.173752351353562, 2445.4
2.173624468433105, 2445.6
2.173496606427345, 2445.8
2.173368765331153, 2446.0
2.173240945139400, 2446.2
2.173113145846959, 2446.4
2.172985367448705, 2446.6
2.172857609939513, 2446.8
2.172729873314262, 2447.0
2.172602157567833, 2447.2
2.172474462695105, 2447.4
2.172346788690962, 2447.6
2.172219135550290, 2447.8
2.172091503267974, 2448.0
2.171963891838902, 2448.2
2.171836301257964, 2448.4
2.171708731520052, 2448.6
2.171581182620059, 2448.8
2.171453654552879, 2449.0
2.171326147313409, 2449.2
2.171198660896546, 2449.4
2.171071195297191, 2449.6
2.170943750510246, 2449.8
2.170816326530612, 2450.0
2.170688923353196, 2450.2
2.170561540972902, 2450.4
2.170434179384641, 2450.6
2.170306838583320, 2450.8
2.170179518563851, 2451.0
2.170052219321149, 2451.2
2.169924940850126, 2451.4
2.169797683145701, 2451.6
2.169670446202790, 2451.8
2.169543230016313, 2452.0
2.169416034581193, 2452.2
2.169288859892350, 2452.4
2.169161705944712, 2452.6
2.169034572733203, 2452.8
2.168907460252752, 2453.0
2.168780368498288, 2453.2
2.168653297464743, 2453.4
2.168526247147049, 2453.6
2.168399217540142, 2453.8
2.168272208638957, 2454.0
2.168145220438432, 2454.2
2.168018252933507, 2454.4
2.167891306119123, 2454.6
2.167764379990223, 2454.8
2.167637474541752, 2455.0
2.167510589768654, 2455.2
2.167383725665879, 2455.4
2.167256882228376, 2455.6
2.167130059451095, 2455.8
2.167003257328990, 2456.0
2.166876475857015, 2456.2
2.166749715030125, 2456.4
2.166622974843279, 2456.6
2.166496255291436, 2456.8
2.166369556369556, 2457.0
2.166242878072603, 2457.2
2.166116220395540, 2457.4
2.165989583333333, 2457.6
2.165862966880950, 2457.8
2.165736371033360, 2458.0
2.165609795785534, 2458.2
2.165483241132444, 2458.4
2.165356707069064, 2458.6
2.165230193590369, 2458.8
2.165103700691338, 2459.0
2.164977228366949, 2459.2
2.164850776612182, 2459.4
2.164724345422020, 2459.6
2.164597934791446, 2459.8
2.164471544715447, 2460.0
2.164345175189009, 2460.2
2.164218826207121, 2460.4
2.164092497764773, 2460.6
2.163966189856957, 2460.8
2.163839902478667, 2461.0
2.163713635624898, 2461.2
2.163587389290647, 2461.4
2.163461163470913, 2461.6
2.163334958160695, 2461.8
2.163208773354996, 2462.0
2.163082609048818, 2462.2
2.162956465237167, 2462.4
2.162830341915049, 2462.6
2.162704239077473, 2462.8
2.162578156719448, 2463.0
2.162452094835986, 2463.2
2.162326053422099, 2463.4
2.162200032472804, 2463.6
2.162074031983115, 2463.8
2.161948051948052, 2464.0
2.161822092362633, 2464.2
2.161696153221880, 2464.4
2.161570234520815, 2464.6
2.161444336254463, 2464.8
2.161318458417850, 2465.0
2.161192601006004, 2465.2
2.161066764013953, 2465.4
2.160940947436730, 2465.6
2.160815151269365, 2465.8
2.160689375506894, 2466.0
2.160563620144352, 2466.2
2.160437885176776, 2466.4
2.160312170599205, 2466.6
2.160186476406681, 2466.8
2.160060802594244, 2467.0
2.159935149156939, 2467.2
2.159809516089811, 2467.4
2.159683903387907, 2467.6
2.159558311046276, 2467.8
2.159432739059968, 2468.0
2.159307187424034, 2468.2
2.159181656133528, 2468.4
2.159056145183505, 2468.6
2.158930654569021, 2468.8
2.158805184285136, 2469.0
2.158679734326908, 2469.2
2.158554304689398, 2469.4
2.158428895367671, 2469.6
2.158303506356790, 2469.8
2.158178137651822, 2470.0
2.158052789247834, 2470.2
2.157927461139896, 2470.4
2.157802153323079, 2470.6
2.157676865792456, 2470.8
2.157551598543100, 2471.0
2.157426351570087, 2471.2
2.157301124868495, 2471.4
2.157175918433404, 2471.6
2.157050732259891, 2471.8
2.156925566343042, 2472.0
2.156800420677939, 2472.2
2.156675295259667, 2472.4
2.156550190083313, 2472.6
2.156425105143966, 2472.8
2.156300040436717, 2473.0
2.156174995956655, 2473.2
2.156049971698876, 2473.4
2.155924967658474, 2473.6
2.155799983830544, 2473.8
2.155675020210186, 2474.0
2.155550076792499, 2474.2
2.155425153572583, 2474.4
2.155300250545543, 2474.6
2.155175367706481, 2474.8
2.155050505050505, 2475.0
2.154925662572722, 2475.2
2.154800840268239, 2475.4
2.154676038132170, 2475.6
2.154551256159625, 2475.8
2.154426494345719, 2476.0
2.154301752685567, 2476.2
2.154177031174285, 2476.4
2.154052329806993, 2476.6
2.153927648578811, 2476.8
2.153802987484861, 2477.0
2.153678346520265, 2477.2
2.153553725680148, 2477.4
2.153429124959638, 2477.6
2.153304544353862, 2477.8
2.153179983857950, 2478.0
2.153055443467033, 2478.2
2.152930923176243, 2478.4
2.152806422980715, 2478.6
2.152681942875585, 2478.8
2.152557482855990, 2479.0
2.152433042917070, 2479.2
2.152308623053965, 2479.4
2.152184223261817, 2479.6
2.152059843535769, 2479.8
2.151935483870968, 2480.0
2.151811144262560, 2480.2
2.151686824705692, 2480.4
2.151562525195517, 2480.6
2.151438245727185, 2480.8
2.151313986295849, 2481.0
2.151189746896663, 2481.2
2.151065527524784, 2481.4
2.150941328175371, 2481.6
2.150817148843581, 2481.8
2.150692989524577, 2482.0
2.150568850213520, 2482.2
2.150444730905575, 2482.4
2.150320631595907, 2482.6
2.150196552279684, 2482.8
2.150072492952074, 2483.0
2.149948453608248, 2483.2
2.149824434243376, 2483.4
2.149700434852633, 2483.6
2.149576455431194, 2483.8
2.149452495974235, 2484.0
2.149328556476934, 2484.2
2.149204636934471, 2484.4
2.149080737342027, 2484.6
2.148956857694784, 2484.8
2.148832997987927, 2485.0
2.148709158216643, 2485.2
2.148585338376117, 2485.4
2.148461538461539, 2485.6
2.148337758468099, 2485.8
2.148213998390990, 2486.0
2.148090258225404, 2486.2
2.147966537966538, 2486.4
2.147842837609587, 2486.6
2.147719157149750, 2486.8
2.147595496582228, 2487.0
2.147471855902220, 2487.2
2.147348235104929, 2487.4
2.147224634185561, 2487.6
2.147101053139320, 2487.8
2.146977491961415, 2488.0
2.146853950647054, 2488.2
2.146730429191448, 2488.4
2.146606927589810, 2488.6
2.146483445837351, 2488.8
2.146359983929289, 2489.0
2.146236541860839, 2489.2
2.146113119627219, 2489.4
2.145989717223650, 2489.6
2.145866334645353, 2489.8
2.145742971887550, 2490.0
2.145619628945466, 2490.2
2.145496305814327, 2490.4
2.145373002489360, 2490.6
2.145249718965794, 2490.8
2.145126455238860, 2491.0
2.145003211303790, 2491.2
2.144879987155816, 2491.4
2.144756782790175, 2491.6
2.144633598202103, 2491.8
2.144510433386838, 2492.0
2.144387288339620, 2492.2
2.144264163055689, 2492.4
2.144141057530290, 2492.6
2.144017971758665, 2492.8
2.143894905736061, 2493.0
2.143771859457725, 2493.2
2.143648832918906, 2493.4
2.143525826114854, 2493.6
2.143402839040821, 2493.8
2.143279871692061, 2494.0
2.143156924063828, 2494.2
2.143033996151379, 2494.4
2.142911087949972, 2494.6
2.142788199454866, 2494.8
2.142665330661323, 2495.0
2.142542481564604, 2495.2
2.142419652159974, 2495.4
2.142296842442699, 2495.6
2.142174052408045, 2495.8
2.142051282051282, 2496.0
2.141928531367679, 2496.2
2.141805800352508, 2496.4
2.141683089001042, 2496.6
2.141560397308555, 2496.8
2.141437725270324, 2497.0
2.141315072881627, 2497.2
2.141192440137743, 2497.4
2.141069827033953, 2497.6
2.140947233565538, 2497.8
2.140824659727782, 2498.0
2.140702105515972, 2498.2
2.140579570925392, 2498.4
2.140457055951333, 2498.6
2.140334560589082, 2498.8
2.140212084833934, 2499.0
2.140089628681178, 2499.2
2.139967192126110, 2499.4
2.139844775164026, 2499.6
2.139722377790223, 2499.8
2.139600000000000, 2500.0
*Material, name=CLADDING
*Elastic
7.5e10, 0.3
*Density
6500
*Specific Heat
330
*Conductivity
16
*Plastic
4000000, 0
2004000000, 1
*Creep, law=TIME
8e-26, 3, 0
*Solid Section, elset=FUEL, material=FUEL
,
*Solid Section, elset=CLAD, material=CLADDING
,
*Initial Conditions, type=TEMPERATURE
ALL, 600
*Surface Interaction, name=INTERFACE
*Surface Behavior, pressure-overclosure=LINEAR
1e14
*Gap Conductance
400000, 0
400000.00000000006, 0.000001
396039.60396039614, 0.0000010099999999999999
392118.4197627685, 0.0000010200999999999998
388236.0591710579, 0.0000010303009999999997
384392.13779312663, 0.0000010406040099999998
380586.2750426996, 0.0000010510100500999999
376818.0941016828, 0.000001061520150601
373087.2218828542, 0.00000107213535210701
369393.28899292496, 0.00000108285670562808
365735.9296959653, 0.0000010936852726843608
362114.7818771933, 0.0000011046221254112045
358529.48700712214, 0.0000011156683466653166
354979.69010606146, 0.0000011268250301319698
351465.03970897174, 0.0000011380932804332895
347985.18783066515, 0.0000011494742132376223
344539.7899313516, 0.0000011609689553699985
341128.50488252635, 0.0000011725786449236986
337750.99493319436, 0.0000011843044313729356
334406.9256764301, 0.0000011961474756866649
331095.9660162674, 0.0000012081089504435314
327817.78813491826, 0.0000012201900399479668
324572.06746031507, 0.0000012323919403474466
321358.4826339753, 0.0000012447158597509211
318176.7154791835, 0.0000012571630183484303
315026.4509694886, 0.0000012697346485319147
311907.3771975134, 0.0000012824319950172339
308819.1853440727, 0.0000012952563149674061
305761.56964759674, 0.0000013082088781170801
302734.22737385816, 0.000001321290966898251
299736.8587859982, 0.0000013345038765672334
296769.1671148497, 0.0000013478489153329057
293830.8585295542, 0.0000013613274044862347
290921.6421084695, 0.000001374940678531097
288041.2298103658, 0.000001388690085316408
285189.3364459068, 0.000001402576986169572
282365.67964941263, 0.0000014166027560312678
279569.9798509036, 0.0000014307687835915804
276801.96024841943, 0.0000014450764714274963
274061.3467806133, 0.0000014595272361417712
271347.86809961713, 0.000001474122508503189
268661.25554417534, 0.0000014888637335882209
266001.2431130449, 0.0000015037523709241031
263367.56743865827, 0.0000015187898946333443
260759.96776104782, 0.0000015339777935796777
258178.18590202756, 0.0000015493175715154744
255621.96623963123, 0.0000015648107472306292
253091.0556828032, 0.0000015804588547029355
250585.2036463398, 0.0000015962634432499648
248104.16202607902, 0.0000016122260776824644
245647.68517433567, 0.0000016283483384592892
243215.52987557987, 0.000001644631821843882
240807.45532235628, 0.0000016610781400623208
238423.22309144188, 0.0000016776889214629442
236062.5971202395, 0.0000016944658106775735
233725.34368340543, 0.0000017114104687843492
231411.23136970834, 0.0000017285245734721926
229120.0310591172, 0.0000017458098192069145
226851.515900116, 0.0000017632679173989838
224605.46128724358, 0.0000017809005965729735
222381.64483885502, 0.0000017987096025387033
220179.84637510398, 0.0000018166966985640905
217999.84789614254, 0.0000018348636655497314
215841.43356053717, 0.0000018532123022052287
213704.38966389818, 0.000001871744425227281
211588.504617721, 0.0000018904618694795538
209493.56892843664, 0.0000019093664881743493
207419.37517666994, 0.0000019284601530560927
205365.7179967029, 0.0000019477447545866537
203332.3940561415, 0.0000019672222021325203
201319.20203578364, 0.0000019868944241538454
199325.94260968675, 0.000002006763368395384
197352.41842543244, 0.000002026831002079338
195398.43408458657, 0.0000020470993121001315
193463.796123353, 0.000002067570305221133
191548.31299341883, 0.000002088246008273344
189651.79504298893, 0.0000021091284683560776
187774.05449800883, 0.0000021302197530396385
185914.9054435731, 0.000002151521950570035
184074.16380551795, 0.000002173037170075735
182251.64733219598, 0.0000021947675417764925
180447.17557643165, 0.0000022167152171942576
178660.5698776551, 0.0000022388823693662
176891.65334421297, 0.0000022612711930598622
175140.25083585441, 0.000002283883904990461
173406.1889463905, 0.0000023067227440403656
171689.29598652525, 0.0000023297899714807694
169989.40196685668, 0.000002353087871195577
168306.33858104624, 0.0000023766187499075327
166639.93918915468, 0.000002400384937406608
164990.03880114324, 0.000002424388786780674
163356.47406053788, 0.0000024486326746484807
161739.08322825533, 0.0000024731190013949654
160137.70616658943, 0.000002497850191408915
158552.18432335588, 0.000002522828693323004
156982.36071619394, 0.0000025480569802562343
155428.07991702372, 0.0000025735375500587964
153889.18803665714, 0.0000025992729255593846
152365.53270956152, 0.0000026252656548149785
150856.96307877378, 0.000002651518311363128
149363.32978096412, 0.0000026780334944767595
147884.48493164766, 0.0000027048138294215272
146420.2821105422, 0.0000027318619677157427
144970.5763470715, 0.0000027591805873929002
143535.2241060114, 0.000002786772393266829
142114.08327327858, 0.0000028146401171994977
140707.01314186, 0.0000028427865183714927
139313.87439788118, 0.0000028712143835552076
137934.52910681305, 0.0000028999265273907598
136568.8406998149, 0.000002928925792664667
135216.67396021276, 0.0000029582150505913138
133877.89501011165, 0.000002987797201097227
132552.37129714026, 0.000003017675173108199
131239.971581327, 0.000003047851924839281
129940.56592210593, 0.000003078330444087674
128654.02566545142, 0.0000031091137485285506
127380.22343114002, 0.000003140204886013836
126119.03310013864, 0.0000031716069348739743
124870.32980211747, 0.000003203323004222714
123633.9899030866, 0.000003235356234264941
122409.89099315504, 0.0000032677097966075907
121197.91187441094, 0.0000033003868945736665
119997.93254892172, 0.0000033333907635194033
118809.8342068532, 0.000003366724671154597
117633.49921470613, 0.000003400391917866143
116468.81110366943, 0.000003434395837044805
115315.65455808854, 0.000003468739795415253
114173.91540404806, 0.0000035034271933694055
113043.48059806738, 0.0000035384614653030997
111924.23821590829, 0.0000035738460799561307
110816.07744149335, 0.0000036095845407556923
109718.88855593401, 0.0000036456803861632494
108632.56292666733, 0.000003682137190024882
107556.99299670033, 0.000003718958561925131
106492.07227396072, 0.0000037561481475443823
105437.69532075318, 0.0000037937096290198264
104393.75774331998, 0.000003831646725310025
103360.15618150492, 0.000003869963192563125
102336.78829851974, 0.000003908662824488756
101323.55277081161, 0.000003947749452733644
100320.3492780313, 0.00000398722694726098
99327.07849310029, 0.00000402709921673359
98343.64207237653, 0.000004067370208900926
97369.94264591736, 0.000004108043910989936
96405.88380783895, 0.000004149124350099835
95451.37010677125, 0.000004190615593600833
94506.30703640718, 0.000004232521749536842
93570.60102614571, 0.00000427484696703221
92644.15943182744, 0.0000043175954367025324
91726.89052656182, 0.000004360771391069557
90818.70349164537, 0.000004404379104980253
89919.5084075697, 0.000004448422896030055
89029.2162451185, 0.000004492907124990356
88147.73885655295, 0.00000453783619624026
87274.98896688412, 0.000004583214558202662
86410.8801652318, 0.0000046290467037846885
85555.3268962691, 0.000004675337170822536
84708.2444517516, 0.000004722090542530761
83869.54896213028, 0.000004769311447956069
83039.15738824781, 0.00000481700456243563
82216.98751311663, 0.000004865174608059987
81402.95793377885, 0.000004913826354140586
80596.98805324637, 0.0000049629646176819924
79798.99807252116, 0.000005012594263858813
79008.9089826942, 0.000005062720206497401
78226.64255712298, 0.0000051133474085623755
77452.12134368611, 0.000005164480882647999
76685.26865711497, 0.000005216125691474479
75926.00857140096, 0.000005268286948389224
75174.26591227818, 0.000005320969817873116
74429.96624978037, 0.000005374179516051848
73693.03589087164, 0.0000054279213112123665
72963.40187215015, 0.00000548220052432449
72240.99195262391, 0.000005537022529567735
71525.73460655833, 0.000005592392754863413
70817.55901639439, 0.000005648316682412047
70116.39506573702, 0.000005704799849236167
69422.17333241287, 0.000005761847847728529
68734.82508159691, 0.0000058194663262058146
68054.28225900684, 0.0000058776609894678725
67380.47748416518, 0.0000059364375993625514
66713.3440437279, 0.000005995801975356177
66052.81588487912, 0.0000060557599951097386
65398.8276087912, 0.000006116317595060836
64751.314464149706, 0.000006177480771011445
64110.21234074228, 0.0000062392555787215596
63475.45776311117, 0.000006301648134508775
62846.98788426848, 0.000006364664615853863
62224.74047947374, 0.000006428311262012402
61608.65394007301, 0.000006492594374632526
60998.66726739902, 0.000006557520318378851
60394.7200667317, 0.0000066230955215626394
59796.752541318514, 0.000006689326476778266
59204.705486453975, 0.000006756219741546049
58618.5202836178, 0.0000068237819389615096
58038.13889467108, 0.000006892019758351125
57463.50385610998, 0.000006960939955934636
56894.55827337621, 0.000007030549355493983
56331.24581522398, 0.000007100854849048923
55773.510708142545, 0.000007171863397539413
55221.29773083421, 0.0000072435820315148064
54674.55220874674, 0.000007316017851829955
54133.220008660144, 0.000007389178030348254
53597.247533326874, 0.000007463069810651736
53066.58171616522, 0.000007537700508758253
52541.17001600517, 0.000007613077513845836
52020.9604118863, 0.000007689208288984295
51505.901397907226, 0.000007766100371874139
50995.941978125964, 0.00000784376137559288
50491.03166151086, 0.000007922198989348809
49991.12045694144, 0.000008001420979242297
49496.15886825885, 0.00000808143518903472
49006.0978893652, 0.000008162249540925068
48520.88899937149, 0.000008243872036334318
48040.48415779356, 0.00000832631075669766
47564.8357997956, 0.000008409573864264638
47093.896831480786, 0.000008493669602907284
46627.6206252285, 0.000008578606298936358
46165.96101507772, 0.00000866439236192572
45708.872292156164, 0.000008751036285544978
45256.30920015462, 0.000008838546648400427
44808.226930846155, 0.000008926932114884432
44364.58111964965, 0.000009016201436033277
43925.32784123728, 0.00000910636345039361
43490.423605185424, 0.000009197427084897546
43059.82535166874, 0.000009289401355746522
42633.49044719677, 0.000009382295369303988
42211.37668039284, 0.000009476118322997027
41793.44225781469, 0.000009570879506226997
41379.64579981653, 0.000009666588301289267
40969.94633645201, 0.00000976325418430216
40564.30330341783, 0.000009860886726145182
40162.676538037456, 0.000009959495593406634
39765.02627528461, 0.0000100590905493407
39371.31314384614, 0.000010159681454834107
38981.49816222391, 0.000010261278269382448
38595.542734875155, 0.000010363891052076273
38213.40864839124, 0.000010467529962597036
37835.0580677141, 0.000010572205262223007
37460.453532390195, 0.000010677927314845237
37089.557952861585, 0.000010784706587993689
36722.33460679364, 0.000010892553653873626
36358.747135439255, 0.000011001479190412362
35998.75954003887, 0.000011111493982316485
35642.3361782563, 0.00001122260892213965
35289.4417606498, 0.000011334835011361047
34940.04134717802, 0.000011448183361474658
34594.10034374062, 0.000011562665195089404
34251.58449875309, 0.000011678291847040298
33912.45989975553, 0.0000117950747655107
33576.69297005498, 0.000011913025513165808
33244.25046540097, 0.000012032155768297467
32915.09947069403, 0.000012152477325980441
32589.207396726764, 0.000012274002099240245
32266.54197695719, 0.000012396742120232648
31947.07126431405, 0.000012520709541434974
31630.763628033714, 0.000012645916636849323
31317.58775052843, 0.000012772375803217817
31007.512624285573, 0.000012900099561249995
30700.507548797596, 0.000013029100556862496
30396.542127522374, 0.00001315939156243112
30095.586264873637, 0.000013290985478055432
29797.610163241225, 0.000013423895332835986
29502.584320040816, 0.000013558134286164346
29210.47952479289, 0.00001369371562902599
28921.26685623058, 0.00001383065278531625
28634.917679436217, 0.000013968959313169413
28351.403643006157, 0.000014108648906301107
28070.69667624372, 0.000014249735395364118
27792.76898637992, 0.00001439223274931776
27517.593055821704, 0.000014536155076810937
27245.14163942743, 0.000014681516627579046
26975.387761809336, 0.000014828331793854836
26708.304714662707, 0.000014976615111793385
26443.866054121496, 0.000015126381262911318
26182.045598140092, 0.000015277645075540432
25922.817423901084, 0.000015430421526295836
25666.1558652486, 0.000015584725741558794
25412.035510147125, 0.00001574057299897438
25160.431198165472, 0.000015897978728964126
24911.318017985614, 0.000016056958516253768
24664.671304936248, 0.000016217528101416307
24420.46663855074, 0.00001637970338243047
24178.67984014925, 0.000016543500416254774
23939.2869704448, 0.000016708935420417323
23702.264327173067, 0.000016876024774621498
23467.58844274561, 0.000017044785022367713
23235.23608192635, 0.00001721523287259139
23005.184239531038, 0.000017387385201317303
22777.410138149542, 0.000017561259053330477
22551.891225890635, 0.00001773687164386378
22328.605174149143, 0.00001791424036030242
22107.52987539519, 0.000018093382763905445
21888.643440985335, 0.0000182743165915445
21671.92419899538, 0.000018457059757459946
21457.350692074637, 0.000018641630355034544
21244.90167532142, 0.00001882804665858489
21034.556114179628, 0.000019016327125170738
20826.293182356065, 0.000019206490396422447
20620.09225975848, 0.00001939855530038667
20415.93293045394, 0.000019592540853390538
20213.794980647464, 0.000019788466261924443
20013.658396680657, 0.000019986350924543688
19815.503363050157, 0.000020186214433789125
19619.310260445698, 0.000020388076578127017
19425.059663807624, 0.000020591957343908286
19232.73234040359, 0.00002079787691734737
19042.309247924346, 0.000021005855686520843
18853.771532598363, 0.00002121591424338605
18667.10052732511, 0.00002142807338581991
18482.27774982684, 0.00002164235411967811
18299.284900818657, 0.00002185877766087489
18118.103862196687, 0.00002207736543748364
17938.716695244246, 0.000022298139091858476
17761.10563885569, 0.000022521120482777062
17585.25310777791, 0.000022746331687604834
17411.141690869215, 0.000022973795004480882
17238.75414937546, 0.00002320353295452569
17068.07341522323, 0.000023435568284070946
16899.082589329933, 0.000023669923966911655
16731.764939930625, 0.00002390662320658077
16566.10390092141, 0.000024145689438646577
16402.083070219218, 0.000024387146333033045
16239.686208137842, 0.000024631017796363374
16078.897235780041, 0.000024877327974327007
15919.700233445586, 0.000025126101254070276
15762.079439055035, 0.00002537736226661098
15606.019246589143, 0.00002563113588927709
15451.504204543706, 0.000025887447248169863
15298.51901439971, 0.00002614632172065156
15147.048529108624, 0.000026407784937858075
14997.077751592697, 0.000026671862787236657
14848.591833260096, 0.000026938581415109022
14701.576072534748, 0.000027207967229260113
14556.01591340074, 0.000027480046901552715
14411.896943961128, 0.000027754847370568243
14269.204895011018, 0.000028032395844273926
14127.925638624769, 0.000028312719802716667
13988.045186757197, 0.000028595847000743834
13849.549689858612, 0.00002888180547075127
13712.425435503575, 0.000029170623525458784
13576.658847033244, 0.00002946232976071337
13442.236482211132, 0.000029756953058320507
13309.14503189221, 0.00003005452258890371
13177.371318705158, 0.00003035506781479275
13046.902295747681, 0.00003065861849294068
12917.725045294734, 0.000030965204677870084
12789.826777519538, 0.00003127485672464878
12663.194829227268, 0.00003158760529189527
12537.816662601253, 0.00003190348134481422
12413.679863961639, 0.00003222251615826236
12290.772142536276, 0.000032544741319844986
12169.081329243836, 0.00003287018873304344
12048.595375488947, 0.000033198890620373874
11929.302351969254, 0.00003353087952657761
11811.190447494311, 0.00003386618832184339
11694.247967816149, 0.00003420485020506182
11578.463334471435, 0.00003454689870711244
11463.825083635084, 0.00003489236769418357
11350.32186498523, 0.000035241291371125405
11237.942440579436, 0.00003559370428483666
11126.675683742016, 0.00003594964132768503
11016.510577962392, 0.00003630913774096188
10907.436215804348, 0.000036672229118371496
10799.441797826088, 0.00003703895140955521
10692.516631510978, 0.00003740934092365076
10586.65013020889, 0.00003778343433288727
10481.831812088009, 0.000038161268676216145
10378.051299097038, 0.000038542881362978305
10275.298315937662, 0.00003892831017660809
10173.562689047189, 0.00003931759327837417
10072.834345591276, 0.000039710769211157915
9973.10331246661, 0.000040107876903269494
9874.359715313474, 0.00004050895567230219
9776.593777538093, 0.00004091404522902521
9679.795819344648, 0.00004132318568131546
9583.95625677688, 0.00004173641753812861
9489.065600769189, 0.000042153781713509896
9395.114456207117, 0.000042575319530645
9302.093520997147, 0.000043001072725951445
9209.993585145688, 0.00004343108345321096
9118.805529847217, 0.00004386539428774307
9028.520326581403, 0.0000443040482306205
8939.12903621921, 0.000044747088712926704
8850.622808137832, 0.00004519455960005597
8762.992879344389, 0.000045646505196056534
8676.230573608305, 0.0000461029702480171
8590.327300602283, 0.00004656399995049727
8505.274555051765, 0.000047029639950002244
8421.063915892835, 0.00004749993634950227
8337.687045438452, 0.00004797493571299729
8255.135688552922, 0.00004845468507012726
8173.4016718345765, 0.00004893923192082854
8092.476902806511, 0.00004942862424003682
8012.353369115358, 0.00004992291048243719
7933.023137737978, 0.00005042213958726156
7854.478354196018, 0.00005092636098313418
7776.711241778235, 0.00005143562459296552
7699.7141007705295, 0.00005194998083889518
7623.479307693594, 0.00005246948064728413
7547.999314548112, 0.00005299417545375697
7473.266648067438, 0.00005352411720829454
7399.273908977661, 0.00005405935838037748
7326.013771265011, 0.00005459995196418126
7253.478981450507, 0.000055145951483823074
7181.662357871788, 0.000055697410998661305
7110.556789972067, 0.00005625438510864792
7040.155237596106, 0.0000568169289597344
6970.450730293174, 0.000057385098249331746
6901.4363666269055, 0.00005795894923182506
6833.105313491986, 0.00005853853872414331
6765.450805437609, 0.00005912392411138475
6698.466143997633, 0.000059715163352498595
6632.144697027359, 0.00006031231498602358
6566.47989804689, 0.00006091543813588382
6501.46524559098, 0.00006152459251724266
6437.094302565327, 0.00006213983844241509
6373.3606956092335, 0.00006276123682683924
6310.258114464588, 0.00006338884919510764
6247.780311351077, 0.00006402273768705871
6185.9211003476, 0.00006466296506392931
6124.674356779802, 0.0000653095947145686
6064.034016613665, 0.00006596269066171429
6003.994075855114, 0.00006662231756833144
5944.548589955557, 0.00006728854074401476
5885.691673223324, 0.00006796142615145491
5827.417498240915, 0.00006864104041296946
5769.720295288034, 0.00006932745081709916
5712.594351770331, 0.00007002072532527015
5656.034011653793, 0.00007072093257852286
5600.033674904746, 0.00007142814190430808
5544.587796935391, 0.00007214242332335116
5489.6908880548435, 0.00007286384755658467
5435.337512925587, 0.00007359248603215052
5381.522290025334, 0.00007432841089247202
5328.239891114193, 0.00007507169500139674
5275.485040707121, 0.00007582241195141071
5223.252515551605, 0.00007658063607092481
5171.5371441105, 0.00007734644243163407
5120.333806049999, 0.00007811990685595042
5069.637431732673, 0.00007890110592450992
5019.443001715517, 0.00007969011698375502
4969.745546252988, 0.00008048701815359257
4920.540144804938, 0.0000812918883351285
4871.821925549443, 0.00008210480721847979
4823.586064900439, 0.00008292585529066458
4775.827787030137, 0.00008375511384357123
4728.5423633961755, 0.00008459266498200695
4681.7251122734415, 0.00008543859163182702
4635.371398290536, 0.00008629297754814529
4589.476631970827, 0.00008715590732362674
4544.036269278046, 0.00008802746639686301
4499.045811166383, 0.00008890774106083164
4454.500803135033, 0.00008979681847143996
4410.396834787161, 0.00009069478665615436
4366.729539393228, 0.0000916017345227159
4323.494593458642, 0.00009251775186794306
4280.687716295685, 0.00009344292938662249
4238.304669599688, 0.00009437735868048872
4196.341257029394, 0.00009532113226729361
4154.793323791479, 0.00009627434358996654
4113.6567562291875, 0.00009723708702586621
4072.927481415037, 0.00009820945789612487
4032.6014667475615, 0.00009919155247508613
3992.674719552041, 0.00010018346799983699
3953.1432866851887, 0.00010118530267983537
3914.0032541437513, 0.00010219715570663371
3875.2507466769816, 0.00010321912726370006
3836.881927402952, 0.00010425131853633705
3798.8929974286657, 0.00010529383172170042
3761.280195473926, 0.00010634677003891742
3724.039797498937, 0.0001074102377393066
3687.168116335581, 0.00010848434011669967
3650.6615013223573, 0.00010956918351786667
3614.516337942928, 0.00011066487535304533
3578.7290474682454, 0.00011177152410657579
3543.296086602223, 0.00011288923934764156
3508.2139471309138, 0.00011401813174111798
3473.479155575162, 0.00011515831305852916
3439.088272846695, 0.00011630989618911446
3405.0378939076186, 0.0001174729951510056
3371.324647433286, 0.00011864772510251566
3337.945195478501, 0.00011983420235354082
3304.89623314703, 0.00012103254437707623
3272.1744882643866, 0.000122242869820847
3239.776721053848, 0.00012346529851905546
3207.6997238156914, 0.000124699951504246
3175.940320609596, 0.00012594695101928846
3144.495366940194, 0.00012720642052948134
3113.3617494457367, 0.00012847848473477615
3082.536385589838, 0.0001297632695821239
3052.016223356276, 0.00013106090227794513
3021.7982409468077, 0.00013237151130072458
2991.879446481988, 0.0001336952264137318
2962.256877704939, 0.00013503217867786912
2932.9276016880585, 0.0001363825004646478
2903.888714542632, 0.0001377463254692943
2875.1373411313193, 0.00013912378872398722
2846.6706347834843, 0.0001405150266112271
2818.4857770133503, 0.00014192017687733938
2790.5799772409414, 0.00014333937864611276
2762.9504725157835, 0.0001447727724325739
2735.5945272433496, 0.00014622050015689964
2708.5094329142075, 0.00014768270515846864
2681.692507835849, 0.00014915953221005334
2655.141096867177, 0.00015065112753215388
2628.852571155621, 0.0001521576388074754
2602.8243278768523, 0.00015367921519555017
2577.0537899770816, 0.00015521600734750567
2551.5384059179023, 0.00015676816742098073
2526.2756494236655, 0.00015833584909519054
2501.263019231352, 0.00015991920758614246
2476.4980388429226, 0.00016151839966200388
2451.9782562801215, 0.0001631335836586239
2427.701243841705, 0.00016476491949521014
2403.664597863074, 0.00016641256869016224
2379.865938478291, 0.00016807669437706387
2356.3029093844466, 0.00016975746132083451
2332.9731776083627, 0.00017145503593404287
2309.874433275607, 0.0001731695862933833
2287.0043893817888, 0.00017490128215631712
2264.3607815661276, 0.0001766502949778803
2241.941367887255, 0.0001784167979276591
2219.7439286012427, 0.0001802009659069357
2197.7662659418243, 0.00018200297556600505
2176.0062039027966, 0.0001838230053216651
2154.4615880225706, 0.00018566123537488175
2133.130285170862, 0.00018751784772863057
2112.010183337487, 0.00018939302620591688
2091.0991914232545, 0.00019128695646797604
2070.3952390329255, 0.00019319982603265581
2049.896276270223, 0.00019513182429298237
2029.6002735348745, 0.0001970831425359122
2009.505221321658, 0.0001990539739612713
1989.6091300214434, 0.00020104451370088402
1969.9100297242014, 0.00020305495883789286
1950.4059700239618, 0.0002050855084262718
1931.0950198257046, 0.00020713636351053452
1911.975267154163, 0.00020920772714563986
1893.0448189645178, 0.00021129980441709627
1874.301800954968, 0.00021341280246126723
1855.7443573811565, 0.00021554693048587991
1837.3706508724322, 0.00021770239979073872
1819.1788622499328, 0.0002198794237886461
1801.167190346468, 0.00022207821802653258
1783.3338518281862, 0.0002242990002067979
1765.677081018006, 0.00022654199020886588
1748.1951297207981, 0.00022880741011095453
1730.8862670502951, 0.0002310954842120641
1713.7487792577178, 0.00023340643905418474
1696.7809695620967, 0.0002357405034447266
1679.9811579822742, 0.00023809790847917385
1663.3476811705684, 0.0002404788875639656
1646.8788922480876, 0.00024288367643960526
1630.573160641671, 0.0002453125132040013
1614.4288719224464, 0.0002477656383360413
1598.4444276459867, 0.0002502432947194017
1582.6182451940463, 0.00025274572766659573
1566.9487576178674, 0.0002552731849432617
1551.434413483037, 0.0002578259167926943
1536.073676715878, 0.0002604041759606213
1520.8650264513644, 0.0002630082177202275
1505.8069568825392, 0.00026563829989742976
1490.897977111425, 0.00026829468289640406
1476.1366110014108, 0.0002709776297253681
1461.5213970311, 0.00027368740602262177
1447.050888149604, 0.00027642428008284797
1432.7236516332712, 0.00027918852288367645
1418.538268943833, 0.0002819804081125132
1404.4933355879534, 0.00028480021219363835
1390.5874609781717, 0.0002876482143155747
1376.8192682952194, 0.0002905246964587305
1363.1873943517023, 0.0002934299434233178
1349.690489457131, 0.000296364242857551
1336.327217284288, 0.0002993278852861265
1323.0962547369186, 0.0003023211641389878
1309.9962918187312, 0.0003053443757803777
1297.0260315036944, 0.0003083978195381815
1284.1841896076182, 0.0003114817977335633
1271.4694946610082, 0.0003145966157108989
1258.8806877831764, 0.0003177425818680079
1246.4165225576003, 0.000320920007686688
1234.075764908515, 0.0003241292077635549
1221.8571929787279, 0.0003273704998411904
1209.7595970086415, 0.0003306442048396023
1197.781779216477, 0.0003339506468879983
1185.92255367968, 0.0003372901533568783
1174.180746217505, 0.0003406630548904471
1162.5551942747572, 0.0003440696854393516
1151.0447468066902, 0.00034751038229374515
1139.6482641650398, 0.0003509854861166826
1128.364617985188, 0.00035449534097784944
1117.1926910744435, 0.00035804029438762794
1106.1313773014292, 0.0003616206973315042
1095.1795814865636, 0.00036523690430481924
1084.3362192936272, 0.00036888927334786746
1073.6002171224031, 0.00037257816608134614
1062.9705120023793, 0.00037630394774215963
1052.4460514875043, 0.00038006698721958123
1042.0257935519844, 0.00038386765709177707
1031.7087064871132, 0.00038770633366269484
1021.493768799122, 0.0003915833969993218
1011.3799691080416, 0.000395499230969315
1001.3663060475659, 0.00039945422327900817
991.4517881659068, 0.00040344876551179826
981.6354338276305, 0.00040748325316691624
971.9162711164659, 0.0004115580856985854
962.2933377390751, 0.00041567366655557124
952.7656809297774, 0.00041983040322112695
943.3323573562152, 0.0004240287072533382
933.9924330259557, 0.00042826899432587157
924.7449831940156, 0.0004325516842691303
915.5890922713025, 0.0004368772011118216
906.5238537339629, 0.0004412459731229398
897.5483700336266, 0.0004456584328541692
888.6617525085413, 0.0004501150171827109
879.8631212955854, 0.000454616167354538
871.1516052431538, 0.0004591623290280834
862.5263418249048, 0.00046375395231836427
853.9864770543611, 0.0004683914918415479
845.5311654003575, 0.00047307540675996343
837.1595697033242, 0.00047780616082756307
828.8708610924002, 0.0004825842224358387
820.6642189033665, 0.0004874100646601971
812.5388305973927, 0.000492284165306799
804.4938916805869, 0.000497207006959867
796.5286056243434, 0.0005021790770294657
788.6421837864787, 0.0005072008677997603
780.8338453331471, 0.0005122728764777579
773.1028171615319, 0.0005173956052425355
765.4483338232988, 0.0005225695612949609
757.8696374488107, 0.0005277952569079105
750.3659776720898, 0.0005330732094769896
742.9366115565246, 0.0005384039415717595
735.5808035213114, 0.0005437879809874771
728.2978252686252, 0.0005492258607973519
721.0869557115101, 0.0005547181194053254
713.9474809024852, 0.0005602653005993787
706.8786939628566, 0.0005658679536053725
699.8798950127293, 0.0005715266331414262
692.9503911017122, 0.0005772418994728404
686.0894961403092, 0.0005830143184675688
679.2965308319893, 0.0005888444616522445
672.5708226059301, 0.0005947329062687669
665.9117055504257, 0.0006006802353314545
659.3185203469562, 0.0006066870376847691
652.7906142049071, 0.0006127539080616168
646.3273407969377, 0.000618881447142233
639.9280601949878, 0.0006250702616136554
633.5921388069186, 0.0006313209642297919
627.3189493137808, 0.0006376341738720899
621.1078706077037, 0.0006440105156108108
614.9582877303998, 0.0006504506207669189
608.869591812277, 0.000656955126974588
602.8411800121554, 0.0006635246782443339
596.8724554575796, 0.0006701599250267773
590.9628271857223, 0.0006768615242770451
585.1117100848736, 0.0006836301395198156
579.3185248365085, 0.0006904664409150137
573.5826978579292, 0.0006973711053241639
567.9036612454745, 0.0007043448163774055
562.2808527182915, 0.0007113882645411796
556.7137155626648, 0.0007185021471865915
551.2016985768959, 0.0007256871686584574
545.7442560167286, 0.0007329440403450419
540.3408475413155, 0.0007402734807484923
534.9909381597183, 0.0007476762155559772
529.693998177939, 0.000755152977711537
524.4495031464742, 0.0007627045074886523
519.2569338083903, 0.0007703315525635388
514.1157760479111, 0.0007780348680891743
509.025520839516, 0.000785815216770066
503.9856641975406, 0.0007936733689377667
498.9957071262778, 0.0008016101026271443
494.0551555705721, 0.0008096262036534158
489.1635203669031, 0.0008177224656899499
484.32031719495353, 0.0008258996903468494
479.52506652965695, 0.000834158687250318
474.7772935937197, 0.0008425002741228212
470.0765283106136, 0.0008509252768640494
465.42230525803325, 0.0008594345296326899
460.8141636218151, 0.0008680288749290168
456.251647150312, 0.000876709163678307
451.7343041092198, 0.00088547625531509
447.2616872368513, 0.0008943310178682409
442.83335369985275, 0.0009032743280469233
438.44886504935914, 0.0009123070713273926
434.1077871775833, 0.0009214301420406665
429.80969027483496, 0.0009306444434610732
425.5541487869653, 0.0009399508878956839
421.34074137323296, 0.0009493503967746408
417.1690508645871, 0.0009588439007423872
413.0386642223635, 0.000968432339749811
408.94917249738955, 0.0009781166631473092
404.9001707894946, 0.0009878978297787823
400.8912582074204, 0.0009977768080765702
396.9220378291291, 0.0010077545761573358
392.9921166625041, 0.0010178321219189092
389.10110560643966, 0.0010280104431380983
385.24861941231654, 0.0010382905475694792
381.43427664585795, 0.001048673453045174
377.6576996493643, 0.0010591601875756258
373.9185145043211, 0.001069751789451382
370.21635099437736, 0.0010804493073458957
366.5508425686905, 0.0010912538004193546
362.9216263056341, 0.0011021663384235482
359.32834287686546, 0.0011131880018077837
355.77063651174797, 0.0011243198818258616
352.24815496212665, 0.0011355630806441203
348.76054946745217, 0.0011469187114505615
345.3074747202497, 0.001158387898565067
341.88858883193035, 0.0011699717775507177
338.5035532989409, 0.001181671495326225
335.15203296924847, 0.0011934882102794871
331.83369600915694, 0.001205423092382282
328.5482138704524, 0.0012174773233061048
325.2952612578736, 0.001229652096539166
322.0745160969046, 0.0012419486175045576
318.8856595018857, 0.0012543681036796032
315.72837574444134, 0.0012669117847163992
312.6023522222191, 0.0012795809025635632
309.5072794279397, 0.0012923767115891988
306.4428509187522, 0.0013053004787050909
303.40876328589326, 0.0013183534834921417
300.40471612464677, 0.0013315370183270632
297.4304120046008, 0.0013448523885103338
294.48555644019876, 0.0013583009123954372
291.56985786158293, 0.0013718839215193916
288.6830275857257, 0.0013856027607345855
285.8247797878472, 0.0013994587883419314
282.99483147311605, 0.0014134533762253506
280.1929024486298, 0.001427587909987604
277.41871529567305, 0.00144186378908748
274.6719953422505, 0.001456282426978355
271.95247063589164, 0.0014708452512481385
269.25987191672436, 0.00148555370376062
266.59393259081617, 0.0015004092407982263
263.9543887037784, 0.0015154133332062085
261.3409789146321, 0.0015305674665382705
258.75344446993273, 0.0015458731412036533
256.19152917815126, 0.0015613318726156898
253.65497938430818, 0.0015769451913418466
251.14354394485957, 0.001592714643255265
248.65697420283126, 0.0016086417896878178
246.19502396319928, 0.001624728207584696
243.75744946851415, 0.0016409754896605428
241.34400937476647, 0.0016573852445571483
238.95446472749154, 0.00167395909700272
236.58857893811043, 0.0016906986879727472
234.24611776050537, 0.0017076056748524747
231.9268492678271, 0.0017246817316009994
229.63054382953177, 0.0017419285489170095
227.3569740886453, 0.0017593478344061796
225.10591493925278, 0.0017769413127502415
222.87714350421066, 0.001794710725877744
220.67043911307985, 0.0018126578331365214
218.48558328027707, 0.0018307844114678867
216.32235968344264, 0.0018490922555825656
214.18055414202243, 0.0018675831781383913
212.0599545960618, 0.0018862590099197752
209.9603510852097, 0.001905121600018973
207.8815357279304, 0.0019241728160191627
205.8233027009212, 0.0019434145441793542
203.78544821873388, 0.0019628486896211476
201.7677705135979, 0.001982477176517359
199.77006981544343, 0.002002301948282533
197.79214833212222, 0.002022324967765358
195.83381022982397, 0.002042548217443012
193.89486161368708, 0.002062973699617442
191.97511050860106, 0.0020836034366136166
190.0743668401991, 0.0021044394709797526
188.19244241603872, 0.00212548386568955
186.329150906969, 0.0021467387043464458
184.4843078286822, 0.00216820609138991
182.6577305234477, 0.0021898881523038094
180.84923814202745, 0.0022117870338268474
179.05865162576976, 0.0022339049041651157
177.28579368888094, 0.0022562439532067668
175.53048880087223, 0.0022788063927388345
173.79256316918043, 0.0023015944566662228
172.07184472196082, 0.002324610401232885
170.36816309105032, 0.002347856505245214
168.6813495950993, 0.002371335070297666
167.01123722287062, 0.0023950484210006426
165.35766061670358, 0.002418998905210649
163.72045605614215, 0.0024431888942627556
162.0994614417249, 0.002467620783205383
160.49451627893555, 0.002492296991037437
158.9054616623124, 0.0025172199609478116
157.33214025971526, 0.0025423921605572898
155.7743962967478, 0.0025678160821628626
154.23207554133444, 0.002593494242984491
152.70502528844995, 0.002619429185414336
151.19309434499993, 0.0026456234772684797
149.6961330148514, 0.0026720797120411647
148.2139930840113, 0.0026988005091615765
146.74652780595176, 0.0027257885142531924
145.29359188708094, 0.0027530463993957243
143.85504147235736, 0.0027805768633896817
142.4307341310469, 0.0028083826320235783
141.0205288426207, 0.002836466458343814
139.62428598279277, 0.002864831122927252
138.24186730969583, 0.0028934794341565245
136.8731359501939, 0.0029224142284980897
135.51795638633058, 0.002951638370783071
134.17619444191146, 0.0029811547544909014
132.8477172692193, 0.0030109663020358103
131.53239333586066, 0.0030410759650561685
130.23009241174321, 0.0030714867247067304
128.94068555618142, 0.003102201591953798
127.6640451051301, 0.003133223607873336
126.40004465854466, 0.003164555843952069
125.148559067866, 0.0031962014023915897
123.9094644236297, 0.003228163416415506
122.68263804319771, 0.003260445050579661
121.4679584586116, 0.0032930495010854576
120.26530540456594, 0.0033259799960963124
119.07455980650091, 0.0033592397960572756
117.89560376881279, 0.0033928321940178484
116.72832056318099, 0.003426760515958027
115.57259461701088, 0.003461028121117607
114.42831150199098, 0.003495638402328783
113.29535792276333, 0.003530594786352071
112.17362170570628, 0.0035659007342155914
111.062991787828, 0.0036015597415577473
109.96335820577029, 0.0036375753389733248
108.87461208492108, 0.003673951092363058
107.79664562863474, 0.003710690603286689
106.72935210755914, 0.003747797509319556
105.67262584906845, 0.0037852754844127515
104.62636222680045, 0.003823128239256879
103.59045765029748, 0.0038613595216494476
102.56480955474998, 0.003899973116865942
101.54931639084155, 0.0039389728480346015
100.54387761469461, 0.003978362576514948
99.54839367791546, 0.004018146202280097
98.56276601773806, 0.004058327664302899
97.58689704726541, 0.004098910940945928
96.62069014580732, 0.004139900050355388
95.66404964931418, 0.0041812990508589415
94.71688084090512, 0.004223112041367531
93.77908994149021, 0.004265343161781207
92.85058410048536, 0.004307996593399019
91.93127138661916, 0.004351076559333009
91.02106077883084, 0.0043945873249263395
90.11986215725825, 0.004438533198175603
89.2275862943151, 0.00448291853015736
88.34414484585655, 0.004527747715458933
87.46945034243222, 0.004573025192613522
86.60341618062597, 0.004618755444539657
85.74595661448116, 0.004664942998985054
84.89698674701106, 0.004711592428974904
84.05642252179311, 0.004758708353264653
83.22418071464664, 0.0048062954367973
82.40017892539271, 0.004854358391165273
81.58433556969575, 0.004902901975076926
80.7765698709859, 0.004951930994827695
79.97680185246129, 0.005001450304775972
79.18495232916959, 0.005051464807823732
78.4009429001679, 0.005101979455901969
77.6246959407603, 0.005152999250460989
76.85613459481219, 0.0052045292429655984
76.09518276714078, 0.005256574535395254
75.34176511598098, 0.005309140280749206
74.59580704552572, 0.0053622316835566985
73.85723469854032, 0.0054158540003922655
73.12597494904982, 0.0054700125403961885
72.40195539509882, 0.0055247126658001505
71.68510435158299, 0.005579959792458152
70.97535084315147, 0.005635759390382734
70.27262459717969, 0.005692116984286561
69.57685603681156, 0.005749038154129427
68.88797627407085, 0.005806528535670721
68.20591710304045, 0.005864593821027429
67.53061099310935, 0.005923239759237703
66.8619910822865, 0.00598247215683008
66.19999117058067, 0.006042296878398381
65.54454571344623, 0.0061027198471823646
64.89558981529328, 0.0061637470456541886
64.25305922306266, 0.00622538451611073
63.61689031986401, 0.006287638361271838
62.987020118677236, 0.006350514744884557
62.36338625611607, 0.0064140198923334025
61.74592698625354, 0.006478160091256737
61.13458117450845, 0.0065429416921693045
60.52928829159252, 0.0066083711090909976
59.92998840751735, 0.0066744548201819074
59.33662218566074, 0.006741199368383727
58.74913087689182, 0.006808611362067564
58.16745631375428, 0.00687669747568824
57.59154090470721, 0.006945464450445122
57.02132762842297, 0.007014919094949574
56.45676002814156, 0.00708506828589907
55.89778220608075, 0.007155918968758061
55.344338817901736, 0.007227478158445641
54.796375067229434, 0.007299752940030098
54.25383670022716, 0.007372750469430399
53.716670000224916, 0.007446477974124703
53.1848217824009, 0.00752094275386595
52.658239388515746, 0.007596152181404609
52.13687068169876, 0.0076721137032186556
51.6206640412859, 0.0077488348402508424
51.10956835770881, 0.007826323188653351
50.603533027434466, 0.007904586420539884
50.10250794795491, 0.007983632284745284
49.606443512826644, 0.008063468607592737
49.11529060675905, 0.008144103293668666
48.62900060075153, 0.008225544326605352
48.147525347278744, 0.008307799769871406
47.67081717552351, 0.00839087776757012
47.19882888665694, 0.00847478654524582
46.731513749165295, 0.008559534410698278
46.26882549422306, 0.008645129754805261
45.810718311111934, 0.008731581052353315
45.35714684268508, 0.008818896862876848
44.90806618087632, 0.008907085831505616
44.463431862253785, 0.008996156689820673
44.023199863617606, 0.00908611825671888
43.5873265976412, 0.009176979439286068
43.15576890855564, 0.009268749233678928
42.72848406787688, 0.009361436726015717
42.305429770175124, 0.009455051093275874
41.88656412888626, 0.009549601604208632
41.47184567216462, 0.009645097620250719
41.061233338776844, 0.009741548596453226
40.65468647403648, 0.009838964082417759
40.25216482577869, 0.009937353723241936
39.85362854037494, 0.010036727260474356
39.459038158787074, 0.0101370945330791
39.06835461266047, 0.01023846547840989
38.68153922045591, 0.01034085013319399
38.29855368361971, 0.01044425863452593
37.9193600827918, 0.010548701220871188
37.54392087405128, 0.010654188233079901
37.172198885199286, 0.0107607301154107
36.8041573120785, 0.010868337416564807
36.43975971492921, 0.010977020790730456
36.0789700147814, 0.01108679099863776
35.72175248988257, 0.011197658908624139
35.36807177216096, 0.01130963549771038
35.01789284372372, 0.011422731852687483
34.67118103338982, 0.011536959171214358
34.32790201325725, 0.011652328762926501
33.98802179530421, 0.011768852050555766
33.65150672802397, 0.011886540571061324
33.31832349309304, 0.012005405976771938
32.98843910207231, 0.012125460036539658
32.6618208931409, 0.012246714636905055
32.33843652786228, 0.012369181783274105
32.018253987982455, 0.012492873601106846
31.701241572259857, 0.012617802337117914
31.38736789332659, 0.012743980360489094
31.076601874580785, 0.012871420164093985
30.768912747109685, 0.013000134365734925
30.46427004664325, 0.013130135709392275
30.162643610537874, 0.013261437066486198
29.864003574789976, 0.013394051437151059
29.56832037107918, 0.01352799195152257
29.275564723840773, 0.013663271871037797
28.9857076473671, 0.013799904589748176
28.69872044293772, 0.013937903635645657
28.414574695977944, 0.014077282672002114
28.133242273245486, 0.014218055498722135
27.854695320045035, 0.014360236053709357
27.578906257470337, 0.01450383841424645
27.3058477796736, 0.014648876798388914
27.03549285116198, 0.014795365566372802
26.767814704120774, 0.01494331922203653
26.502786835763143, 0.015092752414256895
26.240383005706082, 0.015243679938399464
25.980577233372358, 0.015396116737783459
25.723343795418174, 0.015550077905161294
25.468657223186312, 0.015705578684212906
25.216492300184466, 0.015862634471055036
24.966824059588582, 0.016021260815765586
24.71962778177087, 0.016181473423923242
24.47487899185235, 0.016343288158162474
24.232553457279554, 0.0165067210397441
23.992627185425302, 0.01667178825014154
23.755076421213168, 0.016838506132642955
23.519877644765515, 0.017006891193969385
23.287007569074767, 0.017176960105909078
23.05644313769779, 0.01734872970696817
22.82816152247306, 0.01752221700403785
22.602140121260454, 0.01769743917407823
22.37835655570342, 0.017874413565819012
22.156788669013284, 0.018053157701477203
21.937414523775526, 0.018233689278491977
21.72021239977775, 0.018416026171276897
21.505160791859158, 0.018600186432989666
21.292238407781344, 0.018786188297319564
21.081424166120144, 0.01897405018029276
20.87269719417836, 0.019163790682095685
20.666036825919168, 0.019355428588916642
20.46142259991997, 0.019548982874805807
20.258834257346503, 0.019744472703553867
20.058251739947035, 0.019941917430589404
19.85965518806637, 0.0201413366048953
19.663024938679573, 0.020342749970944252
19.468341523445122, 0.020546177470653695
19.27558566677735, 0.02075163924536023
19.08473828393797, 0.020959155637813833
18.895780479146506, 0.021168747194191973
18.70869354370941, 0.021380434666133895
18.52345895416773, 0.021594239012795235
18.3400583704631, 0.021810181402923186
18.158473634121883, 0.022028283216952417
17.97868676645731, 0.02224856604912194
17.800679966789417, 0.02247105170961316
17.62443561068259, 0.02269576222670929
17.449936248200583, 0.022922719848976383
17.277164602178797, 0.023151947047466148
17.10610356651366, 0.02338346651794081
16.93673620446897, 0.023617301183120217
16.76904574699898, 0.02385347419495142
16.6030155910881, 0.024092008936900933
16.438629298107028, 0.024332929026269944
16.275870592185175, 0.024576258316532644
16.114723358599186, 0.02482202089969797
15.955171642177412, 0.02507024110869495
15.797199645720207, 0.0253209435197819
15.640791728435849, 0.02557415295497972
15.48593240439193, 0.025829894484529516
15.332606340982109, 0.026088193429374813
15.180798357408028, 0.02634907536366856
15.030493423176265, 0.026612566117305246
14.881676656610164, 0.0268786917784783
14.7343333233764, 0.02714747869626308
14.588448835026139, 0.027418953483225712
14.444008747550633, 0.027693143018057968
14.30099875995112, 0.027970074448238548
14.159404712822893, 0.028249775192720934
14.019212586953358, 0.028532272944648145
13.880408501934017, 0.02881759567409463
13.742978714786156, 0.029105771630835574
13.606909618600154, 0.02939682934714393
13.47218774118827, 0.02969079764061537
13.338799743750762, 0.029987705617021524
13.20673241955521, 0.03028758267319174
13.075972692628921, 0.030590458499923655
12.94650761646428, 0.03089636308492289
12.81832437273691, 0.03120532671577212
12.691410270036545, 0.03151737998292984
12.56575274261044, 0.03183255378275914
12.441339349119248, 0.03215087932058673
12.318157771405197, 0.0324723881137926
12.196195813272471, 0.032797111994930524
12.075441399279676, 0.03312508311487983
11.955882573544233, 0.03345633394602863
11.837507498558645, 0.03379089728548892
11.720304454018459, 0.03412880625834381
11.60426183566184, 0.03447009432092725
11.489368154120635, 0.03481479526413652
11.375612033782804, 0.03516294321677789
11.262982211666143, 0.03551457264894567
11.15146753630311, 0.03586971837543513
11.041056966636745, 0.03622841555918948
10.93173957092747, 0.03659069971478138
10.82350452567076, 0.03695660671192919
10.716341114525505, 0.03732617277904848
10.610238727252975, 0.03769943450683897
10.505186858666313, 0.03807642885190736
10.401175107590408, 0.038457193140426435
10.298193175832086, 0.0388417650718307
10.196230867160482, 0.03923018272254901
10.095278086297506, 0.039622484549774496
9.995324837918323, 0.040018709395272245
9.896361225661705, 0.04041889648922497
9.798377451150204, 0.04082308545411722
9.701363813020004, 0.04123131630865839
9.6053107059604, 0.04164362947174497
9.510208619762773, 0.04206006576646242
9.416048138378983, 0.042480666424127046
9.322819938989092, 0.04290547308836832
9.230514791078308, 0.043334527819252004
9.139123555523078, 0.043767873097444523
9.048637183686216, 0.04420555182841897
8.959046716521005, 0.04464760734670316
8.870343283684162, 0.04509408342017019
8.782518102657587, 0.045545024254371895
8.695562477878799, 0.04600047449691561
8.609467799879999, 0.04646047924188477
8.524225544435643, 0.046925084034303614
8.439827271718459, 0.04739433487464665
8.35626462546382, 0.04786827822339312
8.273529332142395, 0.04834696100562705
8.191613200140987, 0.04883043061568332
8.110508118951472, 0.04931873492184015
8.030206058367794, 0.04981192227105855
7.950699067690885, 0.050310041493769136
7.87197927494147, 0.05081314190870683
7.7940388860806635, 0.0513212733277939
7.716870184238281, 0.051834486061071834
7.640465528948793, 0.05235283092168255
7.564817355394845, 0.05287635923089938
7.489918173658261, 0.053405122823208376
7.415760567978476, 0.05393917405144046
7.342337196018293, 0.05447856579195487
7.269640788136924, 0.05502335144987442
7.197664146670221, 0.05557358496437317
7.1264001452180405, 0.0561293208140169
7.055841727938654, 0.05669061402215707
6.985981908850153, 0.05725752016237864
6.916813771138765, 0.05783009536400242
6.8483304664740245, 0.05840839631764245
6.7805252143307175, 0.058992480280818875
6.713391301317542, 0.05958240508362706
6.646922080512418, 0.060178229134463336
6.5811109708043745, 0.06078001142580797
6.515951456241955, 0.06138781154006605
6.451437085388074, 0.06200168965546671
6.387561470681262, 0.06262170655202137
6.324318287803229, 0.06324792361754158
6.261701275052702, 0.063880402853717
6.199704232725448, 0.06451920688225417
6.138321022500443, 0.06516439895107672
6.077545566832121, 0.06581604294058749
6.017371848348635, 0.06647420336999336
5.9577939092560745, 0.06713894540369329
5.898805850748589, 0.06781033485773022
5.840401832424345, 0.06848843820630753
5.782576071707273, 0.0691733225883706
5.725322843274528, 0.0698650558142543
5.668636478489632, 0.07056370637239684
5.61251136484122, 0.0712693434361208
5.556941945387346, 0.07198203687048202
5.501922718205293, 0.07270185723918685
5.447448235846824, 0.07342887581157871
5.393513104798836, 0.0741631645696945
5.340111984949342, 0.07490479621539145
5.287239589058755, 0.07565384417754537
5.234890682236391, 0.07641038261932082
5.183060081422169, 0.07717448644551403
5.131742654873435, 0.07794623130996917
5.080933321656866, 0.07872569362306886
5.030627051145411, 0.07951295055929955
4.98081886252021, 0.08030808006489254
4.931503824277436, 0.08111116086554146
4.882677053740036, 0.08192227247419688
4.834333716574292, 0.08274149519893885
4.78646902631118, 0.08356891015092824
4.739078243872456, 0.08440459925243753
4.692156677101441, 0.0852486452449619
4.645699680298457, 0.08610113169741151
4.599702653760848, 0.08696214301438564
4.554161043327572, 0.08783176444452949
4.50907033992829, 0.08871008208897478
4.464426079136921, 0.08959718290986453
4.420223840729625, 0.09049315473896317
4.376459248247153, 0.0913980862863528
4.333127968561538, 0.09231206714921633
4.290225711447067, 0.0932351878207085
4.247748229155512, 0.09416753969891559
4.205691315995556, 0.09510921509590474
4.164050807916392, 0.09606030724686379
4.122822582095438, 0.09702091031933242
4.082002556530137, 0.09799111942252575
4.041586689633799, 0.09897103061675101
4.001570979835444, 0.09996074092291853
3.961951465183607, 0.10096034833214772
3.922724222954067, 0.1019699518154692
3.883885369261452, 0.1029896513336239
3.845431058674705, 0.10401954784696013
3.8073574838363413, 0.10505974332542974
3.7696608750854868, 0.10611034075868403
3.73233750008464, 0.10717144416627088
3.6953836634501385, 0.10824315860793358
3.658795706386276, 0.10932559019401292
3.6225700063230453, 0.11041884609595305
3.5867029765574707, 0.11152303455691258
3.551191065898486, 0.1126382649024817
3.5160307583153325, 0.11376464755150652
3.4812185725894382, 0.11490229402702158
3.446751061969741, 0.1160513169672918
3.4126248138314264, 0.11721183013696472
3.378836449338046, 0.11838394843833437
3.345382623106976, 0.11956778792271772
3.312260022878194, 0.1207634658019449
3.279465369186331, 0.12197110045996434
3.2469954150359714, 0.12319081146456398
3.2148469455801694, 0.12442271957920963
3.183016777802148, 0.12566694677500173
3.151501760200146, 0.12692361624275175
3.120298772475392, 0.12819285240517928
3.0894047252231607, 0.12947478092923106
3.0588165596268917, 0.13076952873852338
3.0285312471553385, 0.1320772240259086
2.998545789262711, 0.1333979962661677
2.9688572170917933, 0.13473197622882938
2.939462591179993, 0.13607929599111768
2.91035900116831, 0.13744008895102885
2.8815435655131783, 0.13881448984053915
2.8530134312011666, 0.14020263473894454
2.8247657734665013, 0.141604661086334
2.7967977955113876, 0.14302070769719732
2.7691067282290964, 0.1444509147741693
2.7416898299297987, 0.145895423921911
2.714544386069108, 0.1473543781611301
2.6876677089793146, 0.1488279219427414
2.661057137603282, 0.1503162011621688
2.6347100372309726, 0.15181936317379047
2.6086237992385866, 0.15333755680552838
2.582795840830284, 0.15487093237358365
2.5572236047824592, 0.15641964169731948
2.531904559190554, 0.15798383811429267
2.5068361972183704, 0.1595636764954356
2.4820160368498714, 0.16115931326038996
2.4574416206434373, 0.16277090639299385
2.4331105154885515, 0.1643986154569238
2.4090203123649028, 0.16604260161149303
2.385168626103864, 0.16770302762760797
2.3615530951523405, 0.16938005790388405
2.338171381338951, 0.1710738584829229
2.3150211696425256, 0.17278459706775212
2.292100167962897, 0.17451244303842964
2.2694061068939573, 0.17625756746881394
2.2469367394989677, 0.17802014314350206
2.2246898410880864, 0.1798003445749371
2.2026632089981053, 0.18159834802068647
2.1808546623743617, 0.18341433150089334
2.1592620419548134, 0.1852484748159023
2.137883209856251, 0.1871009595640613
2.1167160493626245, 0.18897196915970194
2.09575846471547, 0.19086168885129895
2.075008380906406, 0.19277030573981194
2.0544637434716893, 0.19469800879721005
2.034122518288801, 0.19664498888518214
2.0139826913750505, 0.19861143877403398
1.9940422686881687, 0.20059755316177433
1.97429927592888, 0.20260352869339207
1.9547517583454257, 0.204629563980326
1.9353977805400253, 0.20667585962012927
1.9162354262772527, 0.20874261821633056
1.8972627982943095, 0.21083004439849387
1.878478018113178, 0.2129383448424788
1.8598792258546315, 0.2150677282909036
1.8414645800540905, 0.21721840557381264
1.8232322574792976, 0.21939058962955077
1.8051804529497997, 0.22158449552584628
1.7873073791582172, 0.22380034048110475
1.7696112664932844, 0.22603834388591582
1.752090362864638, 0.22829872732477496
1.7347429335293447, 0.2305817145980227
1.7175672609201433, 0.23288753174400292
1.7005616444753895, 0.23521640706144295
1.6837244004706826, 0.23756857113205737
1.667053861852161, 0.23994425684337795
1.6505483780714465, 0.24234369941181172
1.6342063149222243, 0.24476713640592984
1.61802605437844, 0.24721480776998914
1.602005994434099, 0.24968695584768902
1.5861445489446524, 0.2521838254061659
1.570440147469953, 0.25470566366022757
1.5548912351187654, 0.25725272029682983
1.5394962723948171, 0.25982524749979813
1.5242537350443732, 0.26242349997479614
1.5091621139053202, 0.2650477349745441
1.4942199147577429, 0.26769821232428953
1.4794256581759828, 0.27037519444753244
1.4647778793821613, 0.27307894639200775
1.45027512810115, 0.27580973585592783
1.4359159684169798, 0.27856783321448714
1.421698978630673, 0.281353511546632
1.407622751119478, 0.28416704666209835
1.3936858921975033, 0.28700871712871934
1.379887021977726, 0.2898788043000065
1.3662247742353721, 0.2927775923430066
1.3526977962726456, 0.2957053682664367
1.3393047487847978, 0.29866242194910103
1.3260443057275224, 0.30164904616859206
1.3129151541856656, 0.304665536630278
1.2999159942432335, 0.3077121919965808
1.2870455388546866, 0.3107893139165466
1.2743025137175115, 0.31389720705571206
1.2616856571460509, 0.3170361791262692
1.249193719946585, 0.32020654091753187
1.2368254652936486, 0.3234086063267072
1.2245796686075727, 0.3266426923899743
1.2124551174332403, 0.329909119313874
1.20045061132004, 0.33320821050701277
1.1885649617030098, 0.3365402926120829
1.1767969917851582, 0.3399056955382037
1.1651455364209486, 0.3433047524935858
1.1536094420009393, 0.3467378000185216
1.1421875663375638, 0.3502051780187068
1.1308787785520433, 0.3537072297988939
1.1196819589624192, 0.35724430209688285
1.1085959989726921, 0.36081674511785167
1.0976198009630616, 0.3644249125690302
1.086752278181249, 0.3680691616947205
1.0759923546349, 0.3717498533116677
1.0653389649850495, 0.3754673518447844
1.0547910544406431, 0.37922202536323224
1.0443475786541019, 0.3830142456168646
1.0340075036179228, 0.38684438807303323
1.0237698055622997, 0.39071283195376355
1.0136334708537622, 0.3946199602733012
1.003597495894814, 0.3985661598760342
0.9936608870245682, 0.40255182147479457
0.9838226604203646, 0.4065773396895425
0.974081842000361, 0.41064311308643797
0.96443746732709, 0.41474954421730237
0.9548885815119703, 0.4188970396594754
0.9454342391207626, 0.42308601005607016
0.9360735040799629, 0.4273168701566309
0.9268054495841217, 0.4315900388581972
0.917629158004081, 0.4359059392467792
0.9085437207961198, 0.44026499863924695
0.8995482384119998, 0.4446676486256394
0.8906418202099008, 0.4491143251118958
0.8818235843662383, 0.4536054683630148
0.8730926577883548, 0.45814152304664496
0.864448176028074, 0.4627229382771114
0.8558892831961129, 0.4673501676598825
0.8474151318773394, 0.4720236693364814
0.8390248830468707, 0.4767439060298462
0.8307177059870007, 0.48151134509014465
0.8224927782049511, 0.4863264585410461
0.8143492853514368, 0.4911897231264566
0.8062864211400365, 0.49610162035772115
0.7983033872673628, 0.5010626365612983
0.7903993933340225, 0.5060732629269113
0.782573656766359, 0.5111339955561804
0.7748254027389694, 0.5162453355117422
0.7671538640979894, 0.5214077888668597
0.759558281285138, 0.5266218667555282
0.752037902262513, 0.5318880854230835
0.7445919824381316, 0.5372069662773143
0.7372197845922095, 0.5425790359400875
0.7299205788041679, 0.5480048262994883
0.7226936423803643, 0.5534848745624832
0.7155382597825389, 0.559019723308108
0.7084537225569693, 0.5646099205411891
0.701439329264326, 0.570256019746601
0.6944943854102237, 0.5759585799440671
0.6876182033764591, 0.5817181657435078
0.6808101023529297, 0.5875353474009428
0.6740694082702274, 0.5934107008749523
0.6673954537328984, 0.5993448078837018
0.6607875779533647, 0.6053382559625389
0.6542451266864997, 0.6113916385221643
0.6477674521648512, 0.6175055549073859
0.6413539130345062, 0.6236806104564597
0.6350038742915903, 0.6299174165610243
0.6287167072193964, 0.6362165907266345
0.622491789326135, 0.6425787566339008
0.616328504283302, 0.6490045442002399
0.6102262418646555, 0.6554945896422423
0.6041843978857975, 0.6620495355386647
0.5982023741443538, 0.6686700308940514
0.5922795783607465, 0.6753567312029919
0.5864154241195509, 0.6821102985150218
0.5806093308114365, 0.6889314015001721
0.5748607235756797, 0.6958207155151738
0.5691690332432473, 0.7027789226703255
0.5635336962804429, 0.7098067118970287
0.5579541547331117, 0.716904779015999
0.5524298561713977, 0.7240738268061591
0.5469602536350473, 0.7313145650742207
0.5415448055792547, 0.7386277107249629
0.5361829758210442, 0.7460139878322125
0.5308742334861825, 0.7534741277105347
0.5256180529566162, 0.7610088689876401
0.5204139138184318, 0.7686189576775165
0.5152613008103286, 0.7763051472542917
0.5101597037726026, 0.7840681987268346
0.5051086175966362, 0.791908880714103
0.5001075421748873, 0.799827969521244
0.49515598235137354, 0.8078262492164565
0.4902534478726471, 0.8159045117086211
0.4853994533392545, 0.8240635568257073
0.48059351815767776, 0.8323041923939644
0.47583516649275026, 0.840627234317904
0.4711239272205448, 0.849033506661083
0.46645933388172756, 0.8575238417276938
0.46184092463537385, 0.8660990801449707
0.4572682422132414, 0.8747600709464204
0.4527408338744965, 0.8835076716558846
0.4482582513608876, 0.8923427483724434
0.443820050852364, 0.9012661758561679
0.43942579292313266, 0.9102788376147295
0.43507504249815115, 0.9193816259908768
0.4307673688100506, 0.9285754422507856
0.42650234535648573, 0.9378611966732935
0.42227954985790667, 0.9472398086400264
0.41809856421574915, 0.9567122067264268
0.41395897447103874, 0.966279328793691
0.4098603707634047, 0.975942122081628
0.4058023472904997, 0.9857015433024443
0.4017845022678215, 0.9955585587354687
0.4, 1
*Contact Pair, interaction=INTERFACE, type=NODE TO SURFACE, adjust=0
S_FUEL_RIGHT, S_CLAD_LEFT
*Amplitude, name=POWER, time=TOTAL TIME
0, 0, 20, 1
*Step, name=PCMI, nlgeom=NO, inc=1280
*Coupled Temperature-Displacement
0.015625, 20, 0.015625, 0.015625
*Controls, parameters=FIELD, field=DISPLACEMENT
1e-10, 1e-10, , , , 1e-10
*Controls, parameters=FIELD, field=TEMPERATURE
1e-10, 1e-10, , , , 1e-10
*Boundary
FUEL_LEFT, 1, 1, 0
CLAD_BOTTOM, 2, 2, 0
CLAD_RIGHT, 11, 11, 600
FUEL_BOTTOM, 2, 2, 0
*Dflux, amplitude=POWER
FUEL, BF, 2e8
*Output, field, frequency=1
*Node Output
NT, U, RF, RFL
*Element Output, directions=YES
S, EE, PE, PEEQ, CE, CEEQ, COORD, IVOL, HFL
*Contact Output
CSTRESS, CDISP, CFORCE, HFL
*Output, history, frequency=0
*End Step
