*NODE, NSET=ALL
1, 0, 0, 0
2, 0.005, 0, 0
3, 0.005, 0.01, 0
4, 0, 0.01, 0
5, 0, 0, 0.01
6, 0.005, 0, 0.01
7, 0.005, 0.01, 0.01
8, 0, 0.01, 0.01
9, 0.0025, 0, 0
10, 0.005, 0.005, 0
11, 0.0025, 0.01, 0
12, 0, 0.005, 0
13, 0, 0, 0.005
14, 0.005, 0, 0.005
15, 0.005, 0.01, 0.005
16, 0, 0.01, 0.005
17, 0.0025, 0, 0.01
18, 0.005, 0.005, 0.01
19, 0.0025, 0.01, 0.01
20, 0, 0.005, 0.01
21, 0.01, 0, 0
22, 0.01, 0.01, 0
23, 0.01, 0, 0.01
24, 0.01, 0.01, 0.01
25, 0.0075, 0, 0
26, 0.01, 0.005, 0
27, 0.0075, 0.01, 0
28, 0.01, 0, 0.005
29, 0.01, 0.01, 0.005
30, 0.0075, 0, 0.01
31, 0.01, 0.005, 0.01
32, 0.0075, 0.01, 0.01
33, 0.015, 0, 0
34, 0.015, 0.01, 0
35, 0.015, 0, 0.01
36, 0.015, 0.01, 0.01
37, 0.0125, 0, 0
38, 0.015, 0.005, 0
39, 0.0125, 0.01, 0
40, 0.015, 0, 0.005
41, 0.015, 0.01, 0.005
42, 0.0125, 0, 0.01
43, 0.015, 0.005, 0.01
44, 0.0125, 0.01, 0.01
45, 0.02, 0, 0
46, 0.02, 0.01, 0
47, 0.02, 0, 0.01
48, 0.02, 0.01, 0.01
49, 0.0175, 0, 0
50, 0.02, 0.005, 0
51, 0.0175, 0.01, 0
52, 0.02, 0, 0.005
53, 0.02, 0.01, 0.005
54, 0.0175, 0, 0.01
55, 0.02, 0.005, 0.01
56, 0.0175, 0.01, 0.01
*ELEMENT, TYPE=DC3D20, ELSET=SOLID
1, 1, 2, 3, 4, 5, 6, 7, 8, 9, 10, 11, 12, 17, 18, 19,
20, 13, 14, 15, 16
2, 2, 21, 22, 3, 6, 23, 24, 7, 25, 26, 27, 10, 30, 31, 32,
18, 14, 28, 29, 15
3, 21, 33, 34, 22, 23, 35, 36, 24, 37, 38, 39, 26, 42, 43, 44,
31, 28, 40, 41, 29
4, 33, 45, 46, 34, 35, 47, 48, 36, 49, 50, 51, 38, 54, 55, 56,
43, 40, 52, 53, 41
*NSET, NSET=LEFT
1, 4, 5, 8, 12, 13, 16, 20
