*HEADING
DC3D8 temperature dependent conductivity and specific heat
*INCLUDE, INPUT=dc3d8_mesh.inp
*MATERIAL, NAME=SOLID
*CONDUCTIVITY
10.,300.
20.,500.
*DENSITY
1000.
*SPECIFIC HEAT
100.,300.
300.,500.
*SOLID SECTION, ELSET=SOLID, MATERIAL=SOLID
*INITIAL CONDITIONS, TYPE=TEMPERATURE
ALL,300.
LEFT,400.
*STEP, NAME=HEATING, INC=20, AMPLITUDE=STEP
*HEAT TRANSFER
2.,20.,2.,2.
*BOUNDARY
LEFT,11,11,400.
*FILM
4,F4,300.,100.
*OUTPUT, FIELD, FREQUENCY=1
*NODE OUTPUT
NT,RFL
*ELEMENT OUTPUT
HFL,COORD
*END STEP
