*NODE, NSET=ALL
1, 0, 0, 0
2, 0.004897469516727951, 4.4999999999999996e-05, 2.0000000000000002e-05
3, 0.0051449568901432421, 0.010195000000000001, 7.0000000000000007e-05
4, 0, 0.01, 0
5, 0, 0, 0.01
6, 0.0050388908729652607, 9.5000000000000005e-05, 0.010120000000000001
7, 0.0052863782463805518, 0.010245000000000001, 0.01017
8, 0, 0.01, 0.01
9, 0.002444510902307062, 2.2499999999999998e-05, 1.0000000000000001e-05
10, 0.0050212132034355966, 0.0051200000000000004, 4.5000000000000003e-05
11, 0.0025784501036348433, 0.010097500000000001, 3.5000000000000004e-05
12, 0, 0.0050000000000000001, 0
13, 0, 0, 0.0050000000000000001
14, 0.0049681801948466059, 6.9999999999999994e-05, 0.0050699999999999999
15, 0.005215667568261897, 0.010220000000000002, 0.0051200000000000004
16, 0, 0.01, 0.0050000000000000001
17, 0.00252104758878008, 4.7500000000000003e-05, 0.010059999999999999
18, 0.0051626345596729063, 0.0051700000000000001, 0.010145
19, 0.0026549867901078613, 0.010122500000000001, 0.010085
20, 0, 0.0050000000000000001, 0.01
21, 0.0098550000000000009, 8.9999999999999992e-05, 4.0000000000000003e-05
22, 0.010205000000000001, 0.01039, 0.00014000000000000001
23, 0.010055000000000001, 0.00019000000000000001, 0.010240000000000001
24, 0.010405000000000001, 0.010489999999999999, 0.01034
25, 0.0073660374677858636, 6.7500000000000001e-05, 3.0000000000000004e-05
26, 0.010030000000000001, 0.0052399999999999999, 9.0000000000000006e-05
27, 0.0076893953041648139, 0.0102925, 0.000105
28, 0.0099550000000000003, 0.00013999999999999999, 0.0051400000000000005
29, 0.010305, 0.01044, 0.0052399999999999999
30, 0.0075508133742881204, 0.00014249999999999999, 0.01018
31, 0.010230000000000001, 0.0053400000000000001, 0.010290000000000001
32, 0.0078741712106670716, 0.0103675, 0.010255
33, 0.01489746951672795, 0.000135, 6.0000000000000008e-05
34, 0.015144956890143241, 0.010585000000000001, 0.00021000000000000001
35, 0.01503889087296526, 0.00028499999999999999, 0.010359999999999999
36, 0.015286378246380551, 0.010735000000000001, 0.01051
37, 0.012366037467785864, 0.00011249999999999998, 5.0000000000000002e-05
38, 0.015021213203435595, 0.0053600000000000002, 0.00013500000000000003
39, 0.012689395304164814, 0.0104875, 0.000175
40, 0.014968180194846605, 0.00021000000000000001, 0.0052100000000000002
41, 0.015215667568261896, 0.010660000000000001, 0.0053600000000000002
42, 0.012550813374288122, 0.00023749999999999997, 0.0103
43, 0.015162634559672905, 0.0055100000000000001, 0.010435
44, 0.012874171210667073, 0.0106125, 0.010425
45, 0.02, 0.00017999999999999998, 8.0000000000000007e-05
46, 0.02, 0.01078, 0.00028000000000000003
47, 0.02, 0.00038000000000000002, 0.01048
48, 0.02, 0.01098, 0.01068
49, 0.017444510902307062, 0.00015749999999999998, 7.0000000000000007e-05
50, 0.02, 0.0054800000000000005, 0.00018000000000000001
51, 0.017578450103634843, 0.010682500000000001, 0.00024500000000000005
52, 0.02, 0.00027999999999999998, 0.00528
53, 0.02, 0.010879999999999999, 0.0054800000000000005
54, 0.017521047588780082, 0.0003325, 0.01042
55, 0.02, 0.0056800000000000002, 0.010580000000000001
56, 0.017654986790107862, 0.010857500000000001, 0.010595
*ELEMENT, TYPE=DC3D20, ELSET=SOLID
1, 1, 2, 3, 4, 5, 6, 7, 8, 9, 10, 11, 12, 17, 18, 19,
20, 13, 14, 15, 16
2, 2, 21, 22, 3, 6, 23, 24, 7, 25, 26, 27, 10, 30, 31, 32,
18, 14, 28, 29, 15
3, 21, 33, 34, 22, 23, 35, 36, 24, 37, 38, 39, 26, 42, 43, 44,
31, 28, 40, 41, 29
4, 33, 45, 46, 34, 35, 47, 48, 36, 49, 50, 51, 38, 54, 55, 56,
43, 40, 52, 53, 41
*NSET, NSET=LEFT
1, 4, 5, 8, 12, 13, 16, 20
