*NODE, NSET=ALL
1, 0, 0, 0
2, 0.0098550000000000009, 8.9999999999999992e-05, 4.0000000000000003e-05
3, 0.010205000000000001, 0.01039, 0.00014000000000000001
4, 0, 0.01, 0
5, 0, 0, 0.01
6, 0.010055000000000001, 0.00019000000000000001, 0.010240000000000001
7, 0.010405000000000001, 0.010489999999999999, 0.01034
8, 0, 0.01, 0.01
9, 0.004897469516727951, 4.4999999999999996e-05, 2.0000000000000002e-05
10, 0.010030000000000001, 0.0052399999999999999, 9.0000000000000006e-05
11, 0.0051449568901432421, 0.010195000000000001, 7.0000000000000007e-05
12, 0, 0.0050000000000000001, 0
13, 0, 0, 0.0050000000000000001
14, 0.0099550000000000003, 0.00013999999999999999, 0.0051400000000000005
15, 0.010305, 0.01044, 0.0052400000000000007
16, 0, 0.01, 0.0050000000000000001
17, 0.0050388908729652607, 9.5000000000000005e-05, 0.010120000000000001
18, 0.010230000000000001, 0.0053400000000000001, 0.010290000000000001
19, 0.0052863782463805518, 0.010245000000000001, 0.01017
20, 0, 0.0050000000000000001, 0.01
21, 0.0098550000000000009, 8.9999999999999992e-05, 4.0000000000000003e-05
22, 0.02, 0.00017999999999999998, 8.0000000000000007e-05
23, 0.02, 0.01078, 0.00028000000000000003
24, 0.010205000000000001, 0.01039, 0.00014000000000000001
25, 0.010055000000000001, 0.00019000000000000001, 0.010240000000000001
26, 0.02, 0.00038000000000000002, 0.01048
27, 0.02, 0.01098, 0.01068
28, 0.010405000000000001, 0.010489999999999999, 0.01034
29, 0.01489746951672795, 0.000135, 6.0000000000000008e-05
30, 0.02, 0.0054800000000000005, 0.00018000000000000001
31, 0.015144956890143241, 0.010585000000000001, 0.00021000000000000001
32, 0.010030000000000001, 0.0052399999999999999, 9.0000000000000006e-05
33, 0.0099550000000000003, 0.00013999999999999999, 0.0051400000000000005
34, 0.02, 0.00027999999999999998, 0.00528
35, 0.02, 0.010879999999999999, 0.0054799999999999996
36, 0.010305, 0.01044, 0.0052400000000000007
37, 0.01503889087296526, 0.00028499999999999999, 0.010359999999999999
38, 0.02, 0.0056800000000000002, 0.010579999999999999
39, 0.015286378246380551, 0.010735000000000001, 0.01051
40, 0.010230000000000001, 0.0053400000000000001, 0.010290000000000001
*ELEMENT, TYPE=DC3D20, ELSET=SOLID
1, 1, 2, 3, 4, 5, 6, 7, 8, 9, 10, 11, 12, 17, 18, 19,
20, 13, 14, 15, 16
2, 21, 22, 23, 24, 25, 26, 27, 28, 29, 30, 31, 32, 37, 38, 39,
40, 33, 34, 35, 36
*NSET, NSET=LEFT
1, 4, 5, 8, 12, 13, 16, 20
*NSET, NSET=RIGHT
22, 23, 26, 27, 30, 34, 35, 38
