*NODE, NSET=ALL
1, 0, 0, 0
2, 0.005, 0, 0
3, 0.005, 0.01, 0
4, 0, 0.01, 0
5, 0, 0, 0.01
6, 0.005, 0, 0.01
7, 0.005, 0.01, 0.01
8, 0, 0.01, 0.01
9, 0.01, 0, 0
10, 0.01, 0.01, 0
11, 0.01, 0, 0.01
12, 0.01, 0.01, 0.01
13, 0.015, 0, 0
14, 0.015, 0.01, 0
15, 0.015, 0, 0.01
16, 0.015, 0.01, 0.01
17, 0.02, 0, 0
18, 0.02, 0.01, 0
19, 0.02, 0, 0.01
20, 0.02, 0.01, 0.01
*ELEMENT, TYPE=DC3D8, ELSET=SOLID
1, 1, 2, 3, 4, 5, 6, 7, 8
2, 2, 9, 10, 3, 6, 11, 12, 7
3, 9, 13, 14, 10, 11, 15, 16, 12
4, 13, 17, 18, 14, 15, 19, 20, 16
*NSET, NSET=LEFT
1, 4, 5, 8
