*HEADING
DCAX8 fixed conforming thermal interface
*INCLUDE, INPUT=dcax8_contact_mesh.inp
*MATERIAL, NAME=SOLID
*CONDUCTIVITY
10.
*DENSITY
1000.
*SPECIFIC HEAT
100.
*SOLID SECTION, ELSET=SOLID, MATERIAL=SOLID
*SURFACE, NAME=SECONDARY, TYPE=ELEMENT
1, S2
*SURFACE, NAME=PRIMARY, TYPE=ELEMENT
2, S4
*SURFACE INTERACTION, NAME=GAP
*GAP CONDUCTANCE
1000., 0.
1000., 1.
*CONTACT PAIR, INTERACTION=GAP, TYPE=SURFACE TO SURFACE
SECONDARY, PRIMARY
*STEP, NAME=STEADY
*HEAT TRANSFER, STEADY STATE
1., 1.
*BOUNDARY
LEFT, 11, 11, 400.
RIGHT, 11, 11, 300.
*OUTPUT, FIELD, FREQUENCY=1
*NODE OUTPUT
NT, RFL
*ELEMENT OUTPUT
HFL, COORD
*END STEP
