*NODE, NSET=ALL
1, 0.01, 0
2, 0.015, 0
3, 0.015, 0.01
4, 0.01, 0.01
5, 0.0125, 0
6, 0.015, 0.005
7, 0.0125, 0.01
8, 0.01, 0.005
9, 0.02, 0
10, 0.02, 0.01
11, 0.0175, 0
12, 0.02, 0.005
13, 0.0175, 0.01
14, 0.025, 0
15, 0.025, 0.01
16, 0.0225, 0
17, 0.025, 0.005
18, 0.0225, 0.01
19, 0.03, 0
20, 0.03, 0.01
21, 0.0275, 0
22, 0.03, 0.005
23, 0.0275, 0.01
*ELEMENT, TYPE=DCAX8, ELSET=SOLID
1, 1, 2, 3, 4, 5, 6, 7, 8
2, 2, 9, 10, 3, 11, 12, 13, 6
3, 9, 14, 15, 10, 16, 17, 18, 12
4, 14, 19, 20, 15, 21, 22, 23, 17
*NSET, NSET=LEFT
1, 4, 8
