*NODE, NSET=ALL
1, 0.01, 0
2, 0.0195, 0
3, 0.0195, 0.01
4, 0.01, 0.01
5, 0.014749999999999999, 0
6, 0.0195, 0.0050000000000000001
7, 0.014749999999999999, 0.01
8, 0.01, 0.0050000000000000001
9, 0.02, 0
10, 0.029999999999999999, 0
11, 0.029999999999999999, 0.01
12, 0.02, 0.01
13, 0.025000000000000001, 0
14, 0.029999999999999999, 0.0050000000000000001
15, 0.025000000000000001, 0.01
16, 0.02, 0.0050000000000000001
*ELEMENT, TYPE=DCAX8, ELSET=SOLID
1, 1, 2, 3, 4, 5, 6, 7, 8
2, 9, 10, 11, 12, 13, 14, 15, 16
*NSET, NSET=LEFT
1, 4, 8
*NSET, NSET=RIGHT
10, 11, 14
