*NODE, NSET=ALL
1, 0.01, 0
2, 0.014925753787975412, 4.4999999999999989e-05
3, 0.015173241161390703, 0.010195000000000001
4, 0.01, 0.01
5, 0.012459818239601666, 2.2500000000000001e-05
6, 0.015049497474683057, 0.0051200000000000004
7, 0.012593757440929448, 0.010097500000000001
8, 0.01, 0.0050000000000000001
9, 0.019894999999999999, 8.9999999999999992e-05
10, 0.020244999999999999, 0.01039
11, 0.017402992649086315, 6.7500000000000001e-05
12, 0.020070000000000001, 0.0052399999999999999
13, 0.017726350485465267, 0.0102925
14, 0.024925753787975412, 0.000135
15, 0.025173241161390705, 0.010585000000000001
16, 0.022402992649086313, 0.00011249999999999997
17, 0.025049497474683061, 0.0053600000000000002
18, 0.022726350485465265, 0.0104875
19, 0.029999999999999999, 0.00017999999999999996
20, 0.029999999999999999, 0.01078
21, 0.027459818239601665, 0.00015749999999999998
22, 0.029999999999999999, 0.0054799999999999996
23, 0.027593757440929446, 0.010682500000000001
*ELEMENT, TYPE=DCAX8, ELSET=SOLID
1, 1, 2, 3, 4, 5, 6, 7, 8
2, 2, 9, 10, 3, 11, 12, 13, 6
3, 9, 14, 15, 10, 16, 17, 18, 12
4, 14, 19, 20, 15, 21, 22, 23, 17
*NSET, NSET=LEFT
1, 4, 8
