*NODE, NSET=ALL
1, 0.01, 0
2, 0.01125, 0
3, 0.01125, 0.01
4, 0.01, 0.01
5, 0.010625000000000001, 0
6, 0.01125, 0.0050000000000000001
7, 0.010625000000000001, 0.01
8, 0.01, 0.0050000000000000001
9, 0.012500000000000001, 0
10, 0.012500000000000001, 0.01
11, 0.011875, 0
12, 0.012500000000000001, 0.0050000000000000001
13, 0.011875, 0.01
14, 0.01375, 0
15, 0.01375, 0.01
16, 0.013125000000000001, 0
17, 0.01375, 0.0050000000000000001
18, 0.013125000000000001, 0.01
19, 0.014999999999999999, 0
20, 0.014999999999999999, 0.01
21, 0.014375000000000001, 0
22, 0.014999999999999999, 0.0050000000000000001
23, 0.014375000000000001, 0.01
24, 0.016250000000000001, 0
25, 0.016250000000000001, 0.01
26, 0.015625, 0
27, 0.016250000000000001, 0.0050000000000000001
28, 0.015625, 0.01
29, 0.017500000000000002, 0
30, 0.017500000000000002, 0.01
31, 0.016875000000000001, 0
32, 0.017500000000000002, 0.0050000000000000001
33, 0.016875000000000001, 0.01
34, 0.018750000000000003, 0
35, 0.018750000000000003, 0.01
36, 0.018125000000000002, 0
37, 0.018750000000000003, 0.0050000000000000001
38, 0.018125000000000002, 0.01
39, 0.02, 0
40, 0.02, 0.01
41, 0.019375, 0
42, 0.02, 0.0050000000000000001
43, 0.019375, 0.01
44, 0.021249999999999998, 0
45, 0.021249999999999998, 0.01
46, 0.020625000000000001, 0
47, 0.021249999999999998, 0.0050000000000000001
48, 0.020625000000000001, 0.01
49, 0.022499999999999999, 0
50, 0.022499999999999999, 0.01
51, 0.021874999999999999, 0
52, 0.022499999999999999, 0.0050000000000000001
53, 0.021874999999999999, 0.01
54, 0.02375, 0
55, 0.02375, 0.01
56, 0.023125, 0
57, 0.02375, 0.0050000000000000001
58, 0.023125, 0.01
59, 0.025000000000000001, 0
60, 0.025000000000000001, 0.01
61, 0.024375000000000001, 0
62, 0.025000000000000001, 0.0050000000000000001
63, 0.024375000000000001, 0.01
64, 0.026250000000000002, 0
65, 0.026250000000000002, 0.01
66, 0.025625000000000002, 0
67, 0.026250000000000002, 0.0050000000000000001
68, 0.025625000000000002, 0.01
69, 0.027500000000000004, 0
70, 0.027500000000000004, 0.01
71, 0.026875000000000003, 0
72, 0.027500000000000004, 0.0050000000000000001
73, 0.026875000000000003, 0.01
74, 0.028749999999999998, 0
75, 0.028749999999999998, 0.01
76, 0.028124999999999997, 0
77, 0.028749999999999998, 0.0050000000000000001
78, 0.028124999999999997, 0.01
79, 0.029999999999999999, 0
80, 0.029999999999999999, 0.01
81, 0.029374999999999998, 0
82, 0.029999999999999999, 0.0050000000000000001
83, 0.029374999999999998, 0.01
*ELEMENT, TYPE=DCAX8, ELSET=SOLID
1, 1, 2, 3, 4, 5, 6, 7, 8
2, 2, 9, 10, 3, 11, 12, 13, 6
3, 9, 14, 15, 10, 16, 17, 18, 12
4, 14, 19, 20, 15, 21, 22, 23, 17
5, 19, 24, 25, 20, 26, 27, 28, 22
6, 24, 29, 30, 25, 31, 32, 33, 27
7, 29, 34, 35, 30, 36, 37, 38, 32
8, 34, 39, 40, 35, 41, 42, 43, 37
9, 39, 44, 45, 40, 46, 47, 48, 42
10, 44, 49, 50, 45, 51, 52, 53, 47
11, 49, 54, 55, 50, 56, 57, 58, 52
12, 54, 59, 60, 55, 61, 62, 63, 57
13, 59, 64, 65, 60, 66, 67, 68, 62
14, 64, 69, 70, 65, 71, 72, 73, 67
15, 69, 74, 75, 70, 76, 77, 78, 72
16, 74, 79, 80, 75, 81, 82, 83, 77
*NSET, NSET=HOT0
1
*NSET, NSET=HOT2
4
*NSET, NSET=HOT1
8
*NSET, NSET=RIGHT
79, 80, 82
