*NODE, NSET=ALL
1, 0, 0, 0
2, 0.01, 0, 0
3, 0.01, 0.01, 0
4, 0, 0.01, 0
5, 0, 0, 0.01
6, 0.01, 0, 0.01
7, 0.01, 0.01, 0.01
8, 0, 0.01, 0.01
9, 0.01, 0, 0
10, 0.02, 0, 0
11, 0.02, 0.01, 0
12, 0.01, 0.01, 0
13, 0.01, 0, 0.01
14, 0.02, 0, 0.01
15, 0.02, 0.01, 0.01
16, 0.01, 0.01, 0.01
*ELEMENT, TYPE=DC3D8, ELSET=HOT
1, 1, 2, 3, 4, 5, 6, 7, 8
*ELEMENT, TYPE=DC3D8, ELSET=COLD
2, 9, 10, 11, 12, 13, 14, 15, 16
*ELSET, ELSET=SOLID
HOT, COLD
*NSET, NSET=HOT0
1
*NSET, NSET=HOT2
4, 5
*NSET, NSET=HOT4
8
*NSET, NSET=RIGHT
10, 11, 14, 15
*SURFACE, NAME=SECONDARY, TYPE=ELEMENT
1, S4
*SURFACE, NAME=PRIMARY, TYPE=ELEMENT
2, S6
