*NODE, NSET=ALL
1, 0.01, 0
2, 0.012500000000000001, 0
3, 0.012500000000000001, 0.01
4, 0.01, 0.01
5, 0.01125, 0
6, 0.012500000000000001, 0.0050000000000000001
7, 0.01125, 0.01
8, 0.01, 0.0050000000000000001
9, 0.014999999999999999, 0
10, 0.014999999999999999, 0.01
11, 0.01375, 0
12, 0.014999999999999999, 0.0050000000000000001
13, 0.01375, 0.01
14, 0.017500000000000002, 0
15, 0.017500000000000002, 0.01
16, 0.016250000000000001, 0
17, 0.017500000000000002, 0.0050000000000000001
18, 0.016250000000000001, 0.01
19, 0.02, 0
20, 0.02, 0.01
21, 0.018750000000000003, 0
22, 0.02, 0.0050000000000000001
23, 0.018750000000000003, 0.01
24, 0.022499999999999999, 0
25, 0.022499999999999999, 0.01
26, 0.021249999999999998, 0
27, 0.022499999999999999, 0.0050000000000000001
28, 0.021249999999999998, 0.01
29, 0.025000000000000001, 0
30, 0.025000000000000001, 0.01
31, 0.02375, 0
32, 0.025000000000000001, 0.0050000000000000001
33, 0.02375, 0.01
34, 0.027500000000000004, 0
35, 0.027500000000000004, 0.01
36, 0.026250000000000002, 0
37, 0.027500000000000004, 0.0050000000000000001
38, 0.026250000000000002, 0.01
39, 0.029999999999999999, 0
40, 0.029999999999999999, 0.01
41, 0.028749999999999998, 0
42, 0.029999999999999999, 0.0050000000000000001
43, 0.028749999999999998, 0.01
*ELEMENT, TYPE=DCAX8, ELSET=SOLID
1, 1, 2, 3, 4, 5, 6, 7, 8
2, 2, 9, 10, 3, 11, 12, 13, 6
3, 9, 14, 15, 10, 16, 17, 18, 12
4, 14, 19, 20, 15, 21, 22, 23, 17
5, 19, 24, 25, 20, 26, 27, 28, 22
6, 24, 29, 30, 25, 31, 32, 33, 27
7, 29, 34, 35, 30, 36, 37, 38, 32
8, 34, 39, 40, 35, 41, 42, 43, 37
*NSET, NSET=HOT0
1
*NSET, NSET=HOT2
4
*NSET, NSET=HOT1
8
*NSET, NSET=RIGHT
39, 40, 42
