*NODE, NSET=ALL
1, 0.01, 0
2, 0.012500000000000001, 0
3, 0.012500000000000001, 0.01
4, 0.01, 0.01
5, 0.014999999999999999, 0
6, 0.014999999999999999, 0.01
7, 0.017500000000000002, 0
8, 0.017500000000000002, 0.01
9, 0.02, 0
10, 0.02, 0.01
11, 0.022499999999999999, 0
12, 0.022499999999999999, 0.01
13, 0.025000000000000001, 0
14, 0.025000000000000001, 0.01
15, 0.027500000000000004, 0
16, 0.027500000000000004, 0.01
17, 0.029999999999999999, 0
18, 0.029999999999999999, 0.01
*ELEMENT, TYPE=DCAX4, ELSET=SOLID
1, 1, 2, 3, 4
2, 2, 5, 6, 3
3, 5, 7, 8, 6
4, 7, 9, 10, 8
5, 9, 11, 12, 10
6, 11, 13, 14, 12
7, 13, 15, 16, 14
8, 15, 17, 18, 16
*NSET, NSET=HOT0
1
*NSET, NSET=HOT2
4
*NSET, NSET=RIGHT
17, 18
