*NODE, NSET=ALL
1, 0.01, 0
2, 0.01015625, 0
3, 0.01015625, 0.01
4, 0.01, 0.01
5, 0.0103125, 0
6, 0.0103125, 0.01
7, 0.010468750000000001, 0
8, 0.010468750000000001, 0.01
9, 0.010625000000000001, 0
10, 0.010625000000000001, 0.01
11, 0.010781250000000001, 0
12, 0.010781250000000001, 0.01
13, 0.010937499999999999, 0
14, 0.010937499999999999, 0.01
15, 0.011093749999999999, 0
16, 0.011093749999999999, 0.01
17, 0.01125, 0
18, 0.01125, 0.01
19, 0.01140625, 0
20, 0.01140625, 0.01
21, 0.0115625, 0
22, 0.0115625, 0.01
23, 0.01171875, 0
24, 0.01171875, 0.01
25, 0.011875, 0
26, 0.011875, 0.01
27, 0.01203125, 0
28, 0.01203125, 0.01
29, 0.0121875, 0
30, 0.0121875, 0.01
31, 0.012343750000000001, 0
32, 0.012343750000000001, 0.01
33, 0.012500000000000001, 0
34, 0.012500000000000001, 0.01
35, 0.012656250000000001, 0
36, 0.012656250000000001, 0.01
37, 0.012812500000000001, 0
38, 0.012812500000000001, 0.01
39, 0.012968750000000001, 0
40, 0.012968750000000001, 0.01
41, 0.013125000000000001, 0
42, 0.013125000000000001, 0.01
43, 0.01328125, 0
44, 0.01328125, 0.01
45, 0.0134375, 0
46, 0.0134375, 0.01
47, 0.01359375, 0
48, 0.01359375, 0.01
49, 0.01375, 0
50, 0.01375, 0.01
51, 0.01390625, 0
52, 0.01390625, 0.01
53, 0.0140625, 0
54, 0.0140625, 0.01
55, 0.01421875, 0
56, 0.01421875, 0.01
57, 0.014375000000000001, 0
58, 0.014375000000000001, 0.01
59, 0.014531249999999999, 0
60, 0.014531249999999999, 0.01
61, 0.014687499999999999, 0
62, 0.014687499999999999, 0.01
63, 0.014843749999999999, 0
64, 0.014843749999999999, 0.01
65, 0.014999999999999999, 0
66, 0.014999999999999999, 0.01
67, 0.01515625, 0
68, 0.01515625, 0.01
69, 0.0153125, 0
70, 0.0153125, 0.01
71, 0.01546875, 0
72, 0.01546875, 0.01
73, 0.015625, 0
74, 0.015625, 0.01
75, 0.01578125, 0
76, 0.01578125, 0.01
77, 0.0159375, 0
78, 0.0159375, 0.01
79, 0.01609375, 0
80, 0.01609375, 0.01
81, 0.016250000000000001, 0
82, 0.016250000000000001, 0.01
83, 0.016406250000000001, 0
84, 0.016406250000000001, 0.01
85, 0.016562500000000001, 0
86, 0.016562500000000001, 0.01
87, 0.016718750000000001, 0
88, 0.016718750000000001, 0.01
89, 0.016875000000000001, 0
90, 0.016875000000000001, 0.01
91, 0.017031250000000001, 0
92, 0.017031250000000001, 0.01
93, 0.017187500000000001, 0
94, 0.017187500000000001, 0.01
95, 0.017343750000000002, 0
96, 0.017343750000000002, 0.01
97, 0.017500000000000002, 0
98, 0.017500000000000002, 0.01
99, 0.017656249999999998, 0
100, 0.017656249999999998, 0.01
101, 0.017812500000000002, 0
102, 0.017812500000000002, 0.01
103, 0.017968749999999999, 0
104, 0.017968749999999999, 0.01
105, 0.018125000000000002, 0
106, 0.018125000000000002, 0.01
107, 0.018281249999999999, 0
108, 0.018281249999999999, 0.01
109, 0.018437500000000002, 0
110, 0.018437500000000002, 0.01
111, 0.018593749999999999, 0
112, 0.018593749999999999, 0.01
113, 0.018750000000000003, 0
114, 0.018750000000000003, 0.01
115, 0.018906249999999999, 0
116, 0.018906249999999999, 0.01
117, 0.0190625, 0
118, 0.0190625, 0.01
119, 0.01921875, 0
120, 0.01921875, 0.01
121, 0.019375, 0
122, 0.019375, 0.01
123, 0.01953125, 0
124, 0.01953125, 0.01
125, 0.0196875, 0
126, 0.0196875, 0.01
127, 0.01984375, 0
128, 0.01984375, 0.01
129, 0.02, 0
130, 0.02, 0.01
131, 0.020156250000000001, 0
132, 0.020156250000000001, 0.01
133, 0.020312500000000001, 0
134, 0.020312500000000001, 0.01
135, 0.020468750000000001, 0
136, 0.020468750000000001, 0.01
137, 0.020625000000000001, 0
138, 0.020625000000000001, 0.01
139, 0.020781250000000001, 0
140, 0.020781250000000001, 0.01
141, 0.020937500000000001, 0
142, 0.020937500000000001, 0.01
143, 0.021093750000000001, 0
144, 0.021093750000000001, 0.01
145, 0.021249999999999998, 0
146, 0.021249999999999998, 0.01
147, 0.021406250000000002, 0
148, 0.021406250000000002, 0.01
149, 0.021562499999999998, 0
150, 0.021562499999999998, 0.01
151, 0.021718750000000002, 0
152, 0.021718750000000002, 0.01
153, 0.021874999999999999, 0
154, 0.021874999999999999, 0.01
155, 0.022031250000000002, 0
156, 0.022031250000000002, 0.01
157, 0.022187499999999999, 0
158, 0.022187499999999999, 0.01
159, 0.022343750000000002, 0
160, 0.022343750000000002, 0.01
161, 0.022499999999999999, 0
162, 0.022499999999999999, 0.01
163, 0.022656250000000003, 0
164, 0.022656250000000003, 0.01
165, 0.022812499999999999, 0
166, 0.022812499999999999, 0.01
167, 0.022968750000000003, 0
168, 0.022968750000000003, 0.01
169, 0.023125, 0
170, 0.023125, 0.01
171, 0.02328125, 0
172, 0.02328125, 0.01
173, 0.0234375, 0
174, 0.0234375, 0.01
175, 0.02359375, 0
176, 0.02359375, 0.01
177, 0.02375, 0
178, 0.02375, 0.01
179, 0.02390625, 0
180, 0.02390625, 0.01
181, 0.024062500000000001, 0
182, 0.024062500000000001, 0.01
183, 0.024218750000000001, 0
184, 0.024218750000000001, 0.01
185, 0.024375000000000001, 0
186, 0.024375000000000001, 0.01
187, 0.024531250000000001, 0
188, 0.024531250000000001, 0.01
189, 0.024687500000000001, 0
190, 0.024687500000000001, 0.01
191, 0.024843750000000001, 0
192, 0.024843750000000001, 0.01
193, 0.025000000000000001, 0
194, 0.025000000000000001, 0.01
195, 0.025156249999999998, 0
196, 0.025156249999999998, 0.01
197, 0.025312500000000002, 0
198, 0.025312500000000002, 0.01
199, 0.025468749999999998, 0
200, 0.025468749999999998, 0.01
201, 0.025625000000000002, 0
202, 0.025625000000000002, 0.01
203, 0.025781249999999999, 0
204, 0.025781249999999999, 0.01
205, 0.025937500000000002, 0
206, 0.025937500000000002, 0.01
207, 0.026093749999999999, 0
208, 0.026093749999999999, 0.01
209, 0.026250000000000002, 0
210, 0.026250000000000002, 0.01
211, 0.026406249999999999, 0
212, 0.026406249999999999, 0.01
213, 0.026562500000000003, 0
214, 0.026562500000000003, 0.01
215, 0.026718749999999999, 0
216, 0.026718749999999999, 0.01
217, 0.026875000000000003, 0
218, 0.026875000000000003, 0.01
219, 0.02703125, 0
220, 0.02703125, 0.01
221, 0.027187500000000003, 0
222, 0.027187500000000003, 0.01
223, 0.02734375, 0
224, 0.02734375, 0.01
225, 0.027500000000000004, 0
226, 0.027500000000000004, 0.01
227, 0.02765625, 0
228, 0.02765625, 0.01
229, 0.027812500000000004, 0
230, 0.027812500000000004, 0.01
231, 0.027968750000000001, 0
232, 0.027968750000000001, 0.01
233, 0.028124999999999997, 0
234, 0.028124999999999997, 0.01
235, 0.028281250000000001, 0
236, 0.028281250000000001, 0.01
237, 0.028437499999999998, 0
238, 0.028437499999999998, 0.01
239, 0.028593750000000001, 0
240, 0.028593750000000001, 0.01
241, 0.028749999999999998, 0
242, 0.028749999999999998, 0.01
243, 0.028906250000000001, 0
244, 0.028906250000000001, 0.01
245, 0.029062499999999998, 0
246, 0.029062499999999998, 0.01
247, 0.029218750000000002, 0
248, 0.029218750000000002, 0.01
249, 0.029374999999999998, 0
250, 0.029374999999999998, 0.01
251, 0.029531250000000002, 0
252, 0.029531250000000002, 0.01
253, 0.029687499999999999, 0
254, 0.029687499999999999, 0.01
255, 0.029843750000000002, 0
256, 0.029843750000000002, 0.01
257, 0.029999999999999999, 0
258, 0.029999999999999999, 0.01
*ELEMENT, TYPE=DCAX4, ELSET=SOLID
1, 1, 2, 3, 4
2, 2, 5, 6, 3
3, 5, 7, 8, 6
4, 7, 9, 10, 8
5, 9, 11, 12, 10
6, 11, 13, 14, 12
7, 13, 15, 16, 14
8, 15, 17, 18, 16
9, 17, 19, 20, 18
10, 19, 21, 22, 20
11, 21, 23, 24, 22
12, 23, 25, 26, 24
13, 25, 27, 28, 26
14, 27, 29, 30, 28
15, 29, 31, 32, 30
16, 31, 33, 34, 32
17, 33, 35, 36, 34
18, 35, 37, 38, 36
19, 37, 39, 40, 38
20, 39, 41, 42, 40
21, 41, 43, 44, 42
22, 43, 45, 46, 44
23, 45, 47, 48, 46
24, 47, 49, 50, 48
25, 49, 51, 52, 50
26, 51, 53, 54, 52
27, 53, 55, 56, 54
28, 55, 57, 58, 56
29, 57, 59, 60, 58
30, 59, 61, 62, 60
31, 61, 63, 64, 62
32, 63, 65, 66, 64
33, 65, 67, 68, 66
34, 67, 69, 70, 68
35, 69, 71, 72, 70
36, 71, 73, 74, 72
37, 73, 75, 76, 74
38, 75, 77, 78, 76
39, 77, 79, 80, 78
40, 79, 81, 82, 80
41, 81, 83, 84, 82
42, 83, 85, 86, 84
43, 85, 87, 88, 86
44, 87, 89, 90, 88
45, 89, 91, 92, 90
46, 91, 93, 94, 92
47, 93, 95, 96, 94
48, 95, 97, 98, 96
49, 97, 99, 100, 98
50, 99, 101, 102, 100
51, 101, 103, 104, 102
52, 103, 105, 106, 104
53, 105, 107, 108, 106
54, 107, 109, 110, 108
55, 109, 111, 112, 110
56, 111, 113, 114, 112
57, 113, 115, 116, 114
58, 115, 117, 118, 116
59, 117, 119, 120, 118
60, 119, 121, 122, 120
61, 121, 123, 124, 122
62, 123, 125, 126, 124
63, 125, 127, 128, 126
64, 127, 129, 130, 128
65, 129, 131, 132, 130
66, 131, 133, 134, 132
67, 133, 135, 136, 134
68, 135, 137, 138, 136
69, 137, 139, 140, 138
70, 139, 141, 142, 140
71, 141, 143, 144, 142
72, 143, 145, 146, 144
73, 145, 147, 148, 146
74, 147, 149, 150, 148
75, 149, 151, 152, 150
76, 151, 153, 154, 152
77, 153, 155, 156, 154
78, 155, 157, 158, 156
79, 157, 159, 160, 158
80, 159, 161, 162, 160
81, 161, 163, 164, 162
82, 163, 165, 166, 164
83, 165, 167, 168, 166
84, 167, 169, 170, 168
85, 169, 171, 172, 170
86, 171, 173, 174, 172
87, 173, 175, 176, 174
88, 175, 177, 178, 176
89, 177, 179, 180, 178
90, 179, 181, 182, 180
91, 181, 183, 184, 182
92, 183, 185, 186, 184
93, 185, 187, 188, 186
94, 187, 189, 190, 188
95, 189, 191, 192, 190
96, 191, 193, 194, 192
97, 193, 195, 196, 194
98, 195, 197, 198, 196
99, 197, 199, 200, 198
100, 199, 201, 202, 200
101, 201, 203, 204, 202
102, 203, 205, 206, 204
103, 205, 207, 208, 206
104, 207, 209, 210, 208
105, 209, 211, 212, 210
106, 211, 213, 214, 212
107, 213, 215, 216, 214
108, 215, 217, 218, 216
109, 217, 219, 220, 218
110, 219, 221, 222, 220
111, 221, 223, 224, 222
112, 223, 225, 226, 224
113, 225, 227, 228, 226
114, 227, 229, 230, 228
115, 229, 231, 232, 230
116, 231, 233, 234, 232
117, 233, 235, 236, 234
118, 235, 237, 238, 236
119, 237, 239, 240, 238
120, 239, 241, 242, 240
121, 241, 243, 244, 242
122, 243, 245, 246, 244
123, 245, 247, 248, 246
124, 247, 249, 250, 248
125, 249, 251, 252, 250
126, 251, 253, 254, 252
127, 253, 255, 256, 254
128, 255, 257, 258, 256
*NSET, NSET=HOT0
1
*NSET, NSET=HOT2
4
*NSET, NSET=RIGHT
257, 258
