*NODE, NSET=ALL
1, 0.01, 0
2, 0.01017313996305892, 0
3, 0.01017313996305892, 0.01
4, 0.01, 0.01
5, 0.010349277670798646, 0
6, 0.010349277670798646, 0.01
7, 0.010528465026159506, 0
8, 0.010528465026159506, 0.01
9, 0.010710754830729145, 0
10, 0.010710754830729145, 0.01
11, 0.010896200800301705, 0
12, 0.010896200800301705, 0.01
13, 0.011084857580706388, 0
14, 0.011084857580706388, 0.01
15, 0.011276780763910078, 0
16, 0.011276780763910078, 0.01
17, 0.011472026904398771, 0
18, 0.011472026904398771, 0.01
19, 0.011670653535842627, 0
20, 0.011670653535842627, 0.01
21, 0.011872719188049552, 0
22, 0.011872719188049552, 0.01
23, 0.012078283404212336, 0
24, 0.012078283404212336, 0.01
25, 0.012287406758454387, 0
26, 0.012287406758454387, 0.01
27, 0.012500150873679259, 0
28, 0.012500150873679259, 0.01
29, 0.012716578439729235, 0
30, 0.012716578439729235, 0.01
31, 0.012936753231858293, 0
32, 0.012936753231858293, 0.01
33, 0.013160740129524926, 0
34, 0.013160740129524926, 0.01
35, 0.013388605135510327, 0
36, 0.013388605135510327, 0.01
37, 0.0136204153953676, 0
38, 0.0136204153953676, 0.01
39, 0.01385623921720771, 0
40, 0.01385623921720771, 0.01
41, 0.014096146091828, 0
42, 0.014096146091828, 0.01
43, 0.014340206713189226, 0
44, 0.014340206713189226, 0.01
45, 0.014588492999247114, 0
46, 0.014588492999247114, 0.01
47, 0.014841078113144611, 0
48, 0.014841078113144611, 0.01
49, 0.015098036484771052, 0
50, 0.015098036484771052, 0.01
51, 0.015359443832694601, 0
52, 0.015359443832694601, 0.01
53, 0.015625377186474432, 0
54, 0.015625377186474432, 0.01
55, 0.01589591490935922, 0
56, 0.01589591490935922, 0.01
57, 0.016171136721378643, 0
58, 0.016171136721378643, 0.01
59, 0.016451123722834669, 0
60, 0.016451123722834669, 0.01
61, 0.016735958418199602, 0
62, 0.016735958418199602, 0.01
63, 0.017025724740427874, 0
64, 0.017025724740427874, 0.01
65, 0.017320508075688777, 0
66, 0.017320508075688777, 0.01
67, 0.017620395288527425, 0
68, 0.017620395288527425, 0.01
69, 0.017925474747461347, 0
70, 0.017925474747461347, 0.01
71, 0.018235836351020256, 0
72, 0.018235836351020256, 0.01
73, 0.018551571554236673, 0
74, 0.018551571554236673, 0.01
75, 0.018872773395595219, 0
76, 0.018872773395595219, 0.01
77, 0.019199536524448495, 0
78, 0.019199536524448495, 0.01
79, 0.019531957228907635, 0
80, 0.019531957228907635, 0.01
81, 0.019870133464215782, 0
82, 0.019870133464215782, 0.01
83, 0.020214164881612786, 0
84, 0.020214164881612786, 0.01
85, 0.020564152857699726, 0
86, 0.020564152857699726, 0.01
87, 0.02092020052431174, 0
88, 0.02092020052431174, 0.01
89, 0.021282412798908194, 0
90, 0.021282412798908194, 0.01
91, 0.021650896415488959, 0
92, 0.021650896415488959, 0.01
93, 0.022025759956045988, 0
94, 0.022025759956045988, 0.01
95, 0.022407113882559435, 0
96, 0.022407113882559435, 0.01
97, 0.022795070569547771, 0
98, 0.022795070569547771, 0.01
99, 0.023189744337181472, 0
100, 0.023189744337181472, 0.01
101, 0.023591251484970013, 0
102, 0.023591251484970013, 0.01
103, 0.023999710326032153, 0
104, 0.023999710326032153, 0.01
105, 0.024415241221959556, 0
106, 0.024415241221959556, 0.01
107, 0.024837966618284028, 0
108, 0.024837966618284028, 0.01
109, 0.025268011080558869, 0
110, 0.025268011080558869, 0.01
111, 0.025705501331064903, 0
112, 0.025705501331064903, 0.01
113, 0.026150566286152067, 0
114, 0.026150566286152067, 0.01
115, 0.026603337094227488, 0
116, 0.026603337094227488, 0.01
117, 0.027063947174401345, 0
118, 0.027063947174401345, 0.01
119, 0.027532532255801788, 0
120, 0.027532532255801788, 0.01
121, 0.028009230417570596, 0
122, 0.028009230417570596, 0.01
123, 0.028494182129551293, 0
124, 0.028494182129551293, 0.01
125, 0.02898753029368176, 0
126, 0.02898753029368176, 0.01
127, 0.029489420286103501, 0
128, 0.029489420286103501, 0.01
129, 0.029999999999999999, 0
130, 0.029999999999999999, 0.01
*ELEMENT, TYPE=DCAX4, ELSET=SOLID
1, 1, 2, 3, 4
2, 2, 5, 6, 3
3, 5, 7, 8, 6
4, 7, 9, 10, 8
5, 9, 11, 12, 10
6, 11, 13, 14, 12
7, 13, 15, 16, 14
8, 15, 17, 18, 16
9, 17, 19, 20, 18
10, 19, 21, 22, 20
11, 21, 23, 24, 22
12, 23, 25, 26, 24
13, 25, 27, 28, 26
14, 27, 29, 30, 28
15, 29, 31, 32, 30
16, 31, 33, 34, 32
17, 33, 35, 36, 34
18, 35, 37, 38, 36
19, 37, 39, 40, 38
20, 39, 41, 42, 40
21, 41, 43, 44, 42
22, 43, 45, 46, 44
23, 45, 47, 48, 46
24, 47, 49, 50, 48
25, 49, 51, 52, 50
26, 51, 53, 54, 52
27, 53, 55, 56, 54
28, 55, 57, 58, 56
29, 57, 59, 60, 58
30, 59, 61, 62, 60
31, 61, 63, 64, 62
32, 63, 65, 66, 64
33, 65, 67, 68, 66
34, 67, 69, 70, 68
35, 69, 71, 72, 70
36, 71, 73, 74, 72
37, 73, 75, 76, 74
38, 75, 77, 78, 76
39, 77, 79, 80, 78
40, 79, 81, 82, 80
41, 81, 83, 84, 82
42, 83, 85, 86, 84
43, 85, 87, 88, 86
44, 87, 89, 90, 88
45, 89, 91, 92, 90
46, 91, 93, 94, 92
47, 93, 95, 96, 94
48, 95, 97, 98, 96
49, 97, 99, 100, 98
50, 99, 101, 102, 100
51, 101, 103, 104, 102
52, 103, 105, 106, 104
53, 105, 107, 108, 106
54, 107, 109, 110, 108
55, 109, 111, 112, 110
56, 111, 113, 114, 112
57, 113, 115, 116, 114
58, 115, 117, 118, 116
59, 117, 119, 120, 118
60, 119, 121, 122, 120
61, 121, 123, 124, 122
62, 123, 125, 126, 124
63, 125, 127, 128, 126
64, 127, 129, 130, 128
*NSET, NSET=HOT0
1
*NSET, NSET=HOT2
4
*NSET, NSET=RIGHT
129, 130
