*NODE, NSET=ALL
1, 0.01, 0
2, 0.01125, 0
3, 0.01125, 0.01
4, 0.01, 0.01
5, 0.012500000000000001, 0
6, 0.012500000000000001, 0.01
7, 0.01375, 0
8, 0.01375, 0.01
9, 0.014999999999999999, 0
10, 0.014999999999999999, 0.01
11, 0.016250000000000001, 0
12, 0.016250000000000001, 0.01
13, 0.017500000000000002, 0
14, 0.017500000000000002, 0.01
15, 0.018750000000000003, 0
16, 0.018750000000000003, 0.01
17, 0.02, 0
18, 0.02, 0.01
19, 0.021249999999999998, 0
20, 0.021249999999999998, 0.01
21, 0.022499999999999999, 0
22, 0.022499999999999999, 0.01
23, 0.02375, 0
24, 0.02375, 0.01
25, 0.025000000000000001, 0
26, 0.025000000000000001, 0.01
27, 0.026250000000000002, 0
28, 0.026250000000000002, 0.01
29, 0.027500000000000004, 0
30, 0.027500000000000004, 0.01
31, 0.028749999999999998, 0
32, 0.028749999999999998, 0.01
33, 0.029999999999999999, 0
34, 0.029999999999999999, 0.01
*ELEMENT, TYPE=DCAX4, ELSET=SOLID
1, 1, 2, 3, 4
2, 2, 5, 6, 3
3, 5, 7, 8, 6
4, 7, 9, 10, 8
5, 9, 11, 12, 10
6, 11, 13, 14, 12
7, 13, 15, 16, 14
8, 15, 17, 18, 16
9, 17, 19, 20, 18
10, 19, 21, 22, 20
11, 21, 23, 24, 22
12, 23, 25, 26, 24
13, 25, 27, 28, 26
14, 27, 29, 30, 28
15, 29, 31, 32, 30
16, 31, 33, 34, 32
*NSET, NSET=HOT0
1
*NSET, NSET=HOT2
4
*NSET, NSET=RIGHT
33, 34
