*HEADING
DC3D20 one secondary face across two primary faces, tangential temperature gradient
*INCLUDE, INPUT=study_dc3d20_nonmatching_mesh.inp
*MATERIAL, NAME=SOLID
*CONDUCTIVITY
10.
*DENSITY
1000.
*SPECIFIC HEAT
100.
*SOLID SECTION, ELSET=SOLID, MATERIAL=SOLID
*SURFACE INTERACTION, NAME=GAP
*GAP CONDUCTANCE
1000., 0.
1000., 1.
*CONTACT PAIR, INTERACTION=GAP, TYPE=SURFACE TO SURFACE
SECONDARY, PRIMARY
*STEP, NAME=STEADY
*HEAT TRANSFER, STEADY STATE
1., 1.
*BOUNDARY
HOT0, 11, 11, 400.
HOT1, 11, 11, 425.
HOT2, 11, 11, 450.
HOT3, 11, 11, 475.
HOT4, 11, 11, 500.
RIGHT, 11, 11, 300.
*OUTPUT, FIELD, FREQUENCY=1
*NODE OUTPUT
NT, RFL
*ELEMENT OUTPUT
HFL, COORD
*END STEP
