*NODE, NSET=ALL
1, 0.01, 0
2, 0.014999999999999999, 0
3, 0.014999999999999999, 0.01
4, 0.01, 0.01
5, 0.012500000000000001, 0
6, 0.014999999999999999, 0.0050000000000000001
7, 0.012500000000000001, 0.01
8, 0.01, 0.0050000000000000001
9, 0.02, 0
10, 0.02, 0.01
11, 0.017500000000000002, 0
12, 0.02, 0.0050000000000000001
13, 0.017500000000000002, 0.01
14, 0.025000000000000001, 0
15, 0.025000000000000001, 0.01
16, 0.022499999999999999, 0
17, 0.025000000000000001, 0.0050000000000000001
18, 0.022499999999999999, 0.01
19, 0.029999999999999999, 0
20, 0.029999999999999999, 0.01
21, 0.027500000000000004, 0
22, 0.029999999999999999, 0.0050000000000000001
23, 0.027500000000000004, 0.01
*ELEMENT, TYPE=DCAX8, ELSET=SOLID
1, 1, 2, 3, 4, 5, 6, 7, 8
2, 2, 9, 10, 3, 11, 12, 13, 6
3, 9, 14, 15, 10, 16, 17, 18, 12
4, 14, 19, 20, 15, 21, 22, 23, 17
*NSET, NSET=HOT0
1
*NSET, NSET=HOT2
4
*NSET, NSET=HOT1
8
*NSET, NSET=RIGHT
19, 20, 22
