*NODE, NSET=ALL
1, 0.01, 0
2, 0.0103125, 0
3, 0.0103125, 0.01
4, 0.01, 0.01
5, 0.010625000000000001, 0
6, 0.010625000000000001, 0.01
7, 0.010937499999999999, 0
8, 0.010937499999999999, 0.01
9, 0.01125, 0
10, 0.01125, 0.01
11, 0.0115625, 0
12, 0.0115625, 0.01
13, 0.011875, 0
14, 0.011875, 0.01
15, 0.0121875, 0
16, 0.0121875, 0.01
17, 0.012500000000000001, 0
18, 0.012500000000000001, 0.01
19, 0.012812500000000001, 0
20, 0.012812500000000001, 0.01
21, 0.013125000000000001, 0
22, 0.013125000000000001, 0.01
23, 0.0134375, 0
24, 0.0134375, 0.01
25, 0.01375, 0
26, 0.01375, 0.01
27, 0.0140625, 0
28, 0.0140625, 0.01
29, 0.014375000000000001, 0
30, 0.014375000000000001, 0.01
31, 0.014687499999999999, 0
32, 0.014687499999999999, 0.01
33, 0.014999999999999999, 0
34, 0.014999999999999999, 0.01
35, 0.0153125, 0
36, 0.0153125, 0.01
37, 0.015625, 0
38, 0.015625, 0.01
39, 0.0159375, 0
40, 0.0159375, 0.01
41, 0.016250000000000001, 0
42, 0.016250000000000001, 0.01
43, 0.016562500000000001, 0
44, 0.016562500000000001, 0.01
45, 0.016875000000000001, 0
46, 0.016875000000000001, 0.01
47, 0.017187500000000001, 0
48, 0.017187500000000001, 0.01
49, 0.017500000000000002, 0
50, 0.017500000000000002, 0.01
51, 0.017812500000000002, 0
52, 0.017812500000000002, 0.01
53, 0.018125000000000002, 0
54, 0.018125000000000002, 0.01
55, 0.018437500000000002, 0
56, 0.018437500000000002, 0.01
57, 0.018750000000000003, 0
58, 0.018750000000000003, 0.01
59, 0.0190625, 0
60, 0.0190625, 0.01
61, 0.019375, 0
62, 0.019375, 0.01
63, 0.0196875, 0
64, 0.0196875, 0.01
65, 0.02, 0
66, 0.02, 0.01
67, 0.020312500000000001, 0
68, 0.020312500000000001, 0.01
69, 0.020625000000000001, 0
70, 0.020625000000000001, 0.01
71, 0.020937500000000001, 0
72, 0.020937500000000001, 0.01
73, 0.021249999999999998, 0
74, 0.021249999999999998, 0.01
75, 0.021562499999999998, 0
76, 0.021562499999999998, 0.01
77, 0.021874999999999999, 0
78, 0.021874999999999999, 0.01
79, 0.022187499999999999, 0
80, 0.022187499999999999, 0.01
81, 0.022499999999999999, 0
82, 0.022499999999999999, 0.01
83, 0.022812499999999999, 0
84, 0.022812499999999999, 0.01
85, 0.023125, 0
86, 0.023125, 0.01
87, 0.0234375, 0
88, 0.0234375, 0.01
89, 0.02375, 0
90, 0.02375, 0.01
91, 0.024062500000000001, 0
92, 0.024062500000000001, 0.01
93, 0.024375000000000001, 0
94, 0.024375000000000001, 0.01
95, 0.024687500000000001, 0
96, 0.024687500000000001, 0.01
97, 0.025000000000000001, 0
98, 0.025000000000000001, 0.01
99, 0.025312500000000002, 0
100, 0.025312500000000002, 0.01
101, 0.025625000000000002, 0
102, 0.025625000000000002, 0.01
103, 0.025937500000000002, 0
104, 0.025937500000000002, 0.01
105, 0.026250000000000002, 0
106, 0.026250000000000002, 0.01
107, 0.026562500000000003, 0
108, 0.026562500000000003, 0.01
109, 0.026875000000000003, 0
110, 0.026875000000000003, 0.01
111, 0.027187500000000003, 0
112, 0.027187500000000003, 0.01
113, 0.027500000000000004, 0
114, 0.027500000000000004, 0.01
115, 0.027812500000000004, 0
116, 0.027812500000000004, 0.01
117, 0.028124999999999997, 0
118, 0.028124999999999997, 0.01
119, 0.028437499999999998, 0
120, 0.028437499999999998, 0.01
121, 0.028749999999999998, 0
122, 0.028749999999999998, 0.01
123, 0.029062499999999998, 0
124, 0.029062499999999998, 0.01
125, 0.029374999999999998, 0
126, 0.029374999999999998, 0.01
127, 0.029687499999999999, 0
128, 0.029687499999999999, 0.01
129, 0.029999999999999999, 0
130, 0.029999999999999999, 0.01
*ELEMENT, TYPE=DCAX4, ELSET=SOLID
1, 1, 2, 3, 4
2, 2, 5, 6, 3
3, 5, 7, 8, 6
4, 7, 9, 10, 8
5, 9, 11, 12, 10
6, 11, 13, 14, 12
7, 13, 15, 16, 14
8, 15, 17, 18, 16
9, 17, 19, 20, 18
10, 19, 21, 22, 20
11, 21, 23, 24, 22
12, 23, 25, 26, 24
13, 25, 27, 28, 26
14, 27, 29, 30, 28
15, 29, 31, 32, 30
16, 31, 33, 34, 32
17, 33, 35, 36, 34
18, 35, 37, 38, 36
19, 37, 39, 40, 38
20, 39, 41, 42, 40
21, 41, 43, 44, 42
22, 43, 45, 46, 44
23, 45, 47, 48, 46
24, 47, 49, 50, 48
25, 49, 51, 52, 50
26, 51, 53, 54, 52
27, 53, 55, 56, 54
28, 55, 57, 58, 56
29, 57, 59, 60, 58
30, 59, 61, 62, 60
31, 61, 63, 64, 62
32, 63, 65, 66, 64
33, 65, 67, 68, 66
34, 67, 69, 70, 68
35, 69, 71, 72, 70
36, 71, 73, 74, 72
37, 73, 75, 76, 74
38, 75, 77, 78, 76
39, 77, 79, 80, 78
40, 79, 81, 82, 80
41, 81, 83, 84, 82
42, 83, 85, 86, 84
43, 85, 87, 88, 86
44, 87, 89, 90, 88
45, 89, 91, 92, 90
46, 91, 93, 94, 92
47, 93, 95, 96, 94
48, 95, 97, 98, 96
49, 97, 99, 100, 98
50, 99, 101, 102, 100
51, 101, 103, 104, 102
52, 103, 105, 106, 104
53, 105, 107, 108, 106
54, 107, 109, 110, 108
55, 109, 111, 112, 110
56, 111, 113, 114, 112
57, 113, 115, 116, 114
58, 115, 117, 118, 116
59, 117, 119, 120, 118
60, 119, 121, 122, 120
61, 121, 123, 124, 122
62, 123, 125, 126, 124
63, 125, 127, 128, 126
64, 127, 129, 130, 128
*NSET, NSET=HOT0
1
*NSET, NSET=HOT2
4
*NSET, NSET=RIGHT
129, 130
