*HEADING
Two-material transient thermal interface with piecewise-linear body sources
*INCLUDE, INPUT=study_dc3d8_interface_mesh.inp
*MATERIAL, NAME=FIRST
*CONDUCTIVITY
10.
*DENSITY
1000.
*SPECIFIC HEAT
100.
*MATERIAL, NAME=SECOND
*CONDUCTIVITY
20.
*DENSITY
2000.
*SPECIFIC HEAT
200.
*SOLID SECTION, ELSET=HOT, MATERIAL=FIRST
*SOLID SECTION, ELSET=COLD, MATERIAL=SECOND
*SURFACE INTERACTION, NAME=GAP
*GAP CONDUCTANCE
1000.,0.
1000.,1.
*CONTACT PAIR, INTERACTION=GAP, TYPE=SURFACE TO SURFACE
SECONDARY,PRIMARY
*AMPLITUDE, NAME=POWER, TIME=TOTAL TIME
0.,1.,1.,2.,2.,0.5
*INITIAL CONDITIONS, TYPE=TEMPERATURE
ALL,300.
HOT0,400.
HOT2,400.
HOT4,400.
*STEP, NAME=HEATING, INC=20, AMPLITUDE=STEP
*HEAT TRANSFER
0.1,2.,0.1,0.1
*BOUNDARY
HOT0,11,11,400.
HOT2,11,11,400.
HOT4,11,11,400.
*DFLUX, AMPLITUDE=POWER
HOT,BF,1000000.
COLD,BF,2000000.
*FILM
2,F4,300.,100.
*OUTPUT, FIELD, FREQUENCY=1
*NODE OUTPUT
NT,RFL
*ELEMENT OUTPUT
HFL,COORD
*END STEP
