*NODE, NSET=ALL
1, 0, 0, 0
2, 0.01, 0, 0
3, 0.01, 0.01, 0
4, 0, 0.01, 0
5, 0, 0, 0.01
6, 0.01, 0, 0.01
7, 0.01, 0.01, 0.01
8, 0, 0.01, 0.01
9, 0.0050000000000000001, 0, 0
10, 0.01, 0.0050000000000000001, 0
11, 0.0050000000000000001, 0.01, 0
12, 0, 0.0050000000000000001, 0
13, 0, 0, 0.0050000000000000001
14, 0.01, 0, 0.0050000000000000001
15, 0.01, 0.01, 0.0050000000000000001
16, 0, 0.01, 0.0050000000000000001
17, 0.0050000000000000001, 0, 0.01
18, 0.01, 0.0050000000000000001, 0.01
19, 0.0050000000000000001, 0.01, 0.01
20, 0, 0.0050000000000000001, 0.01
21, 0.01, 0, 0
22, 0.02, 0, 0
23, 0.02, 0.0050000000000000001, 0
24, 0.01, 0.0050000000000000001, 0
25, 0.01, 0, 0.01
26, 0.02, 0, 0.01
27, 0.02, 0.0050000000000000001, 0.01
28, 0.01, 0.0050000000000000001, 0.01
29, 0.014999999999999999, 0, 0
30, 0.02, 0.0025000000000000001, 0
31, 0.014999999999999999, 0.0050000000000000001, 0
32, 0.01, 0.0025000000000000001, 0
33, 0.01, 0, 0.0050000000000000001
34, 0.02, 0, 0.0050000000000000001
35, 0.02, 0.0050000000000000001, 0.0050000000000000001
36, 0.01, 0.0050000000000000001, 0.0050000000000000001
37, 0.014999999999999999, 0, 0.01
38, 0.02, 0.0025000000000000001, 0.01
39, 0.014999999999999999, 0.0050000000000000001, 0.01
40, 0.01, 0.0025000000000000001, 0.01
41, 0.02, 0.01, 0
42, 0.01, 0.01, 0
43, 0.02, 0.01, 0.01
44, 0.01, 0.01, 0.01
45, 0.02, 0.0074999999999999997, 0
46, 0.014999999999999999, 0.01, 0
47, 0.01, 0.0074999999999999997, 0
48, 0.02, 0.01, 0.0050000000000000001
49, 0.01, 0.01, 0.0050000000000000001
50, 0.02, 0.0074999999999999997, 0.01
51, 0.014999999999999999, 0.01, 0.01
52, 0.01, 0.0074999999999999997, 0.01
*ELEMENT, TYPE=DC3D20, ELSET=HOT
1, 1, 2, 3, 4, 5, 6, 7, 8, 9, 10, 11, 12, 17, 18, 19,
20, 13, 14, 15, 16
*ELEMENT, TYPE=DC3D20, ELSET=COLD
2, 21, 22, 23, 24, 25, 26, 27, 28, 29, 30, 31, 32, 37, 38, 39,
40, 33, 34, 35, 36
3, 24, 23, 41, 42, 28, 27, 43, 44, 31, 45, 46, 47, 39, 50, 51,
52, 36, 35, 48, 49
*ELSET, ELSET=SOLID
HOT, COLD
*NSET, NSET=HOT0
1
*NSET, NSET=HOT2
4, 5
*NSET, NSET=HOT4
8
*NSET, NSET=HOT1
12, 13
*NSET, NSET=HOT3
16, 20
*NSET, NSET=RIGHT
22, 23, 26, 27, 30, 34, 35, 38, 41, 43, 45, 48, 50
*SURFACE, NAME=SECONDARY, TYPE=ELEMENT
1, S4
*SURFACE, NAME=PRIMARY, TYPE=ELEMENT
2, S6
3, S6
