*Heading
** Four distinct corner temperatures; independently infer E and nu from native S/EE.
** Finite strain, no expansion or inelasticity, all nodal fields prescribed.
*Preprint, echo=NO, model=NO, history=NO, contact=NO
*Node
1, 0.004, 0
2, 0.005, 0
3, 0.005, 0.01
4, 0.004, 0.01
*Element, type=CAX4T, elset=BODY
1, 1, 2, 3, 4
*Nset, nset=ALL
1, 2, 3, 4
*Material, name=SOLID
*Elastic
1e9, 0.20, 600
0.9e9, 0.25, 650
0.8e9, 0.30, 700
0.7e9, 0.35, 750
*Conductivity
10
*Density
1000
*Specific Heat
1000
*Solid Section, elset=BODY, material=SOLID
,
*Initial Conditions, type=TEMPERATURE
1, 600
2, 650
3, 700
4, 750
*Step, name=FIRST, nlgeom=YES, inc=4
*Coupled Temperature-Displacement
0.25, 1, 0.25, 0.25
*Boundary
1, 1, 1, 0.00004
2, 1, 1, 0.00005
3, 1, 1, 0.00005
4, 1, 1, 0.00004
1, 2, 2, 0
2, 2, 2, 0
3, 2, 2, 0.00025
4, 2, 2, 0.00025
1, 11, 11, 600
2, 11, 11, 650
3, 11, 11, 700
4, 11, 11, 750
*Output, field, frequency=1
*Node Output
NT, U
*Element Output
S, EE, COORD
*Output, history, frequency=0
*End Step
*Step, name=SWAP, nlgeom=YES, inc=4
*Coupled Temperature-Displacement
0.25, 1, 0.25, 0.25
*Boundary
1, 1, 1, 0.00012
2, 1, 1, 0.00015
3, 1, 1, 0.00015
4, 1, 1, 0.00012
3, 2, 2, 0.00045
4, 2, 2, 0.00045
1, 11, 11, 750
2, 11, 11, 700
3, 11, 11, 650
4, 11, 11, 600
*Output, field, frequency=1
*Node Output
NT, U
*Element Output
S, EE, COORD
*Output, history, frequency=0
*End Step
