*Heading
** CAX4T paired-corner exponent: production-compatible finite creep history.
** Uniform initial 600 K; prescribed four-corner temperatures reached at t=0.1.
** A remains 1e-19 in SI units; n(T)=2.2+0.001*(T-600).
*Preprint, echo=NO, model=NO, history=NO, contact=NO
*Node
1, 0.004, 0
2, 0.005, 0
3, 0.005, 0.01
4, 0.004, 0.01
*Element, type=CAX4T, elset=BODY
1, 1, 2, 3, 4
*Nset, nset=ALL
1, 2, 3, 4
*Nset, nset=BOTTOM
1, 2
*Nset, nset=TOP
3, 4
*Material, name=SOLID
*Elastic
1e9, 0.3
*Creep, law=TIME
1e-19, 2.2, 0, 600
1e-19, 2.35, 0, 750
*Conductivity
10
*Density
1000
*Specific Heat
1000
*Solid Section, elset=BODY, material=SOLID
,
*Initial Conditions, type=TEMPERATURE
ALL, 600
*Amplitude, name=EXTENSION, time=TOTAL TIME
0, 0, 0.1, 0.0001, 1, 0.0001
*Amplitude, name=T1, time=TOTAL TIME
0, 600, 0.1, 600, 1, 600
*Amplitude, name=T2, time=TOTAL TIME
0, 600, 0.1, 650, 1, 650
*Amplitude, name=T3, time=TOTAL TIME
0, 600, 0.1, 700, 1, 700
*Amplitude, name=T4, time=TOTAL TIME
0, 600, 0.1, 750, 1, 750
*Step, name=LOAD_AND_HOLD, nlgeom=YES, inc=10
*Coupled Temperature-Displacement
0.1, 1, 0.1, 0.1
*Boundary
ALL, 1, 1, 0
BOTTOM, 2, 2, 0
*Boundary, amplitude=EXTENSION
TOP, 2, 2, 1
*Boundary, amplitude=T1
1, 11, 11, 1
*Boundary, amplitude=T2
2, 11, 11, 1
*Boundary, amplitude=T3
3, 11, 11, 1
*Boundary, amplitude=T4
4, 11, 11, 1
*Output, field, frequency=1
*Node Output
NT, U
*Element Output
S, EE, CE, CEEQ, COORD
*Output, history, frequency=0
*End Step
