*Heading
** integrated original axisymmetric PCMI path, CAX8RT.
*Preprint, echo=NO, model=NO, history=NO, contact=NO
*Include, input=b13_integrated_cax8rt_mesh.inc
*Material, name=FUEL
*Elastic
2e11, 0.316
*Expansion, zero=600
1e-5
*Density
10970
*Specific Heat
300
*Conductivity
8.258, 500
8.227529880478087, 502
8.197301587301586, 504
8.167312252964427, 506
8.13755905511811, 508
8.108039215686274, 510
8.07875, 512
8.049688715953307, 514
8.020852713178295, 516
7.992239382239383, 518
7.963846153846154, 520
7.935670498084291, 522
7.907709923664123, 524
7.879961977186312, 526
7.8524242424242425, 528
7.825094339622642, 530
7.797969924812031, 532
7.771048689138577, 534
7.744328358208955, 536
7.717806691449814, 538
7.691481481481482, 540
7.665350553505536, 542
7.639411764705883, 544
7.613663003663004, 546
7.588102189781022, 548
7.562727272727273, 550
7.537536231884058, 552
7.512527075812275, 554
7.487697841726619, 556
7.463046594982079, 558
7.438571428571429, 560
7.414270462633453, 562
7.390141843971631, 564
7.366183745583039, 566
7.342394366197183, 568
7.318771929824562, 570
7.295314685314685, 572
7.272020905923346, 574
7.24888888888889, 576
7.2259169550173015, 578
7.203103448275862, 580
7.180446735395189, 582
7.157945205479453, 584
7.135597269624574, 586
7.113401360544218, 588
7.09135593220339, 590
7.06945945945946, 592
7.047710437710438, 594
7.026107382550336, 596
7.004648829431439, 598
6.983333333333333, 600
6.962159468438538, 602
6.94112582781457, 604
6.9202310231023105, 606
6.899473684210527, 608
6.878852459016394, 610
6.858366013071896, 612
6.838013029315961, 614
6.817792207792208, 616
6.797702265372169, 618
6.7777419354838715, 620
6.757909967845659, 622
6.738205128205129, 624
6.718626198083068, 626
6.699171974522294, 628
6.67984126984127, 630
6.660632911392406, 632
6.641545741324921, 634
6.622578616352202, 636
6.6037304075235115, 638
6.585, 640
6.566386292834891, 642
6.547888198757764, 644
6.529504643962849, 646
6.5112345679012344, 648
6.493076923076924, 650
6.475030674846626, 652
6.457094801223242, 654
6.439268292682927, 656
6.421550151975684, 658
6.403939393939394, 660
6.386435045317221, 662
6.369036144578313, 664
6.351741741741742, 666
6.334550898203593, 668
6.317462686567165, 670
6.300476190476191, 672
6.2835905044510385, 674
6.2668047337278106, 676
6.250117994100295, 678
6.233529411764706, 680
6.217038123167156, 682
6.200643274853801, 684
6.184344023323615, 686
6.168139534883721, 688
6.152028985507247, 690
6.136011560693642, 692
6.120086455331412, 694
6.104252873563219, 696
6.088510028653295, 698
6.072857142857143, 700
6.057293447293447, 702
6.041818181818182, 704
6.02643059490085, 706
6.011129943502826, 708
5.995915492957747, 710
5.980786516853933, 712
5.9657422969187675, 714
5.950782122905029, 716
5.935905292479109, 718
5.921111111111111, 720
5.906398891966759, 722
5.891767955801106, 724
5.877217630853995, 726
5.862747252747253, 728
5.848356164383562, 730
5.834043715846994, 732
5.819809264305177, 734
5.805652173913044, 736
5.791571815718157, 738
5.7775675675675675, 740
5.763638814016173, 742
5.749784946236559, 744
5.736005361930295, 746
5.722299465240642, 748
5.708666666666667, 750
5.695106382978723, 752
5.681618037135279, 754
5.668201058201059, 756
5.654854881266491, 758
5.641578947368421, 760
5.628372703412074, 762
5.615235602094241, 764
5.602167101827677, 766
5.589166666666667, 768
5.576233766233766, 770
5.5633678756476685, 772
5.550568475452197, 774
5.537835051546392, 776
5.525167095115681, 778
5.512564102564103, 780
5.50002557544757, 782
5.487551020408164, 784
5.4751399491094155, 786
5.462791878172589, 788
5.450506329113924, 790
5.438282828282828, 792
5.426120906801008, 794
5.414020100502513, 796
5.401979949874687, 798
5.390000000000001, 800
5.378079800498753, 802
5.366218905472637, 804
5.354416873449132, 806
5.342673267326733, 808
5.330987654320988, 810
5.31935960591133, 812
5.307788697788698, 814
5.296274509803922, 816
5.2848166259168705, 818
5.2734146341463415, 820
5.262068126520681, 822
5.250776699029126, 824
5.2395399515738506, 826
5.228357487922706, 828
5.217228915662651, 830
5.206153846153846, 832
5.195131894484413, 834
5.184162679425838, 836
5.1732458233890215, 838
5.1623809523809525, 840
5.151567695961996, 842
5.140805687203792, 844
5.130094562647755, 846
5.119433962264151, 848
5.108823529411765, 850
5.098262910798122, 852
5.087751756440281, 854
5.077289719626169, 856
5.066876456876457, 858
5.0565116279069775, 860
5.046194895591648, 862
5.035925925925926, 864
5.025704387990762, 866
5.015529953917051, 868
5.005402298850575, 870
4.995321100917431, 872
4.985286041189932, 874
4.975296803652968, 876
4.965353075170843, 878
4.955454545454546, 880
4.945600907029479, 882
4.93579185520362, 884
4.926027088036117, 886
4.916306306306307, 888
4.906629213483146, 890
4.8969955156950675, 892
4.887404921700224, 894
4.877857142857144, 896
4.8683518930957685, 898
4.858888888888889, 900
4.849467849223947, 902
4.8400884955752215, 904
4.83075055187638, 906
4.821453744493392, 908
4.812197802197803, 910
4.802982456140351, 912
4.7938074398249455, 914
4.78467248908297, 916
4.775577342047931, 918
4.766521739130435, 920
4.757505422993493, 922
4.748528138528139, 924
4.739589632829374, 926
4.730689655172414, 928
4.721827956989248, 930
4.713004291845494, 932
4.704218415417559, 934
4.6954700854700855, 936
4.686759061833689, 938
4.678085106382979, 940
4.669447983014862, 942
4.660847457627119, 944
4.6522832980972515, 946
4.643755274261603, 948
4.635263157894737, 950
4.626806722689076, 952
4.618385744234801, 954
4.61, 956
4.601649269311065, 958
4.593333333333334, 960
4.585051975051975, 962
4.5768049792531125, 964
4.568592132505176, 966
4.560413223140496, 968
4.552268041237114, 970
4.544156378600823, 972
4.536078028747434, 974
4.528032786885246, 976
4.520020449897751, 978
4.512040816326531, 980
4.504093686354379, 982
4.496178861788618, 984
4.4882961460446245, 986
4.480445344129555, 988
4.472626262626263, 990
4.464838709677419, 992
4.457082494969819, 994
4.449357429718876, 996
4.441663326653306, 998
4.434, 1000
4.426367265469062, 1002
4.418764940239044, 1004
4.411192842942346, 1006
4.403650793650794, 1008
4.396138613861386, 1010
4.388656126482213, 1012
4.3812031558185405, 1014
4.373779527559055, 1016
4.366385068762279, 1018
4.359019607843138, 1020
4.351682974559687, 1022
4.344375, 1024
4.3370955165692004, 1026
4.329844357976654, 1028
4.322621359223301, 1030
4.315426356589147, 1032
4.30825918762089, 1034
4.301119691119691, 1036
4.2940077071290945, 1038
4.286923076923077, 1040
4.279865642994242, 1042
4.272835249042146, 1044
4.265831739961759, 1046
4.2588549618320615, 1048
4.251904761904762, 1050
4.244980988593156, 1052
4.238083491461101, 1054
4.231212121212121, 1056
4.224366729678639, 1058
4.217547169811321, 1060
4.21075329566855, 1062
4.2039849624060155, 1064
4.197242026266417, 1066
4.190524344569289, 1068
4.183831775700935, 1070
4.177164179104477, 1072
4.170521415270018, 1074
4.163903345724907, 1076
4.157309833024119, 1078
4.150740740740741, 1080
4.144195933456562, 1082
4.137675276752768, 1084
4.131178637200737, 1086
4.124705882352941, 1088
4.118256880733945, 1090
4.111831501831502, 1092
4.1054296160877515, 1094
4.099051094890511, 1096
4.092695810564663, 1098
4.086363636363637, 1100
4.08005444646098, 1102
4.073768115942029, 1104
4.06750452079566, 1106
4.061263537906138, 1108
4.055045045045045, 1110
4.04884892086331, 1112
4.042675044883303, 1114
4.03652329749104, 1116
4.030393559928444, 1118
4.024285714285714, 1120
4.0181996434937615, 1122
4.0121352313167264, 1124
4.0060923623445825, 1126
4.000070921985816, 1128
3.9940707964601767, 1130
3.9880918727915193, 1132
3.982134038800705, 1134
3.9761971830985914, 1136
3.970281195079086, 1138
3.964385964912281, 1140
3.9585113835376533, 1142
3.9526573426573424, 1144
3.946823734729494, 1146
3.9410104529616725, 1148
3.935217391304348, 1150
3.9294444444444445, 1152
3.92369150779896, 1154
3.9179584775086505, 1156
3.912245250431779, 1158
3.906551724137931, 1160
3.9008777969018933, 1162
3.8952233676975943, 1164
3.8895883361921095, 1166
3.883972602739726, 1168
3.878376068376068, 1170
3.8727986348122867, 1172
3.8672402044293013, 1174
3.8617006802721088, 1176
3.8561799660441425, 1178
3.8506779661016948, 1180
3.845194585448392, 1182
3.8397297297297297, 1184
3.8342833052276557, 1186
3.8288552188552187, 1188
3.8234453781512605, 1190
3.8180536912751677, 1192
3.8126800670016747, 1194
3.807324414715719, 1196
3.8019866444073456, 1198
3.7966666666666664, 1200
3.7913643926788683, 1202
3.786079734219269, 1204
3.7808126036484246, 1206
3.775562913907285, 1208
3.7703305785123966, 1210
3.765115511551155, 1212
3.7599176276771002, 1214
3.754736842105263, 1216
3.7495730706075534, 1218
3.7444262295081967, 1220
3.7392962356792143, 1222
3.7341830065359476, 1224
3.7290864600326263, 1226
3.7240065146579804, 1228
3.718943089430894, 1230
3.713896103896104, 1232
3.708865478119935, 1234
3.703851132686084, 1236
3.6988529886914376, 1238
3.6938709677419355, 1240
3.68890499194847, 1242
3.6839549839228294, 1244
3.6790208667736755, 1246
3.674102564102564, 1248
3.6692, 1250
3.6643130990415336, 1252
3.6594417862838915, 1254
3.6545859872611466, 1256
3.649745627980922, 1258
3.6449206349206347, 1260
3.6401109350237717, 1262
3.6353164556962025, 1264
3.6305371248025273, 1266
3.6257728706624603, 1268
3.621023622047244, 1270
3.6162893081761007, 1272
3.611569858712716, 1274
3.6068652037617555, 1276
3.6021752738654147, 1278
3.5974999999999997, 1280
3.5928393135725427, 1282
3.5881931464174452, 1284
3.583561430793157, 1286
3.578944099378882, 1288
3.5743410852713176, 1290
3.569752321981424, 1292
3.565177743431221, 1294
3.560617283950617, 1296
3.556070878274268, 1298
3.5515384615384615, 1300
3.5470199692780335, 1302
3.5425153374233127, 1304
3.53802450229709, 1306
3.5335474006116208, 1308
3.5290839694656486, 1310
3.524634146341463, 1312
3.5201978691019784, 1314
3.515775075987842, 1316
3.5113657056145673, 1318
3.506969696969697, 1320
3.5025869894099846, 1322
3.49821752265861, 1324
3.493861236802413, 1326
3.4895180722891563, 1328
3.485187969924812, 1330
3.480870870870871, 1332
3.476566716641679, 1334
3.4722754491017964, 1336
3.467997010463378, 1338
3.463731343283582, 1340
3.459478390461997, 1342
3.455238095238095, 1344
3.4510104011887073, 1346
3.446795252225519, 1348
3.4425925925925926, 1350
3.438402366863905, 1352
3.4342245199409156, 1354
3.430058997050147, 1356
3.4259057437407954, 1358
3.4217647058823526, 1360
3.4176358296622613, 1362
3.4135190615835778, 1364
3.4094143484626644, 1366
3.4053216374269004, 1368
3.4012408759124084, 1370
3.3971720116618074, 1372
3.3931149927219795, 1374
3.3890697674418604, 1376
3.3850362844702464, 1378
3.381014492753623, 1380
3.3770043415340085, 1382
3.3730057803468205, 1384
3.369018759018759, 1386
3.365043227665706, 1388
3.3610791366906474, 1390
3.357126436781609, 1392
3.3531850789096125, 1394
3.3492550143266473, 1396
3.345336194563662, 1398
3.341428571428571, 1400
3.3375320970042797, 1402
3.3336467236467233, 1404
3.3297724039829304, 1406
3.3259090909090907, 1408
3.3220567375886523, 1410
3.3182152974504247, 1412
3.3143847241867044, 1414
3.3105649717514125, 1416
3.3067559943582507, 1418
3.302957746478873, 1420
3.2991701828410687, 1422
3.2953932584269663, 1424
3.2916269284712483, 1426
3.2878711484593834, 1428
3.284125874125874, 1430
3.280391061452514, 1432
3.2766666666666664, 1434
3.2729526462395544, 1436
3.269248956884562, 1438
3.2655555555555553, 1440
3.261872399445215, 1442
3.2581994459833794, 1444
3.254536652835408, 1446
3.2508839779005525, 1448
3.2472413793103447, 1450
3.243608815426997, 1452
3.2399862448418157, 1454
3.2363736263736262, 1456
3.232770919067215, 1458
3.2291780821917806, 1460
3.225595075239398, 1462
3.222021857923497, 1464
3.218458390177353, 1466
3.2149046321525883, 1468
3.211360544217687, 1470
3.207826086956522, 1472
3.204301221166893, 1474
3.2007859078590783, 1476
3.1972801082543976, 1478
3.1937837837837835, 1480
3.1902968960863696, 1482
3.186819407008086, 1484
3.183351278600269, 1486
3.1798924731182794, 1488
3.176442953020134, 1490
3.1730026809651473, 1492
3.1695716198125834, 1494
3.1661497326203207, 1496
3.1627369826435245, 1498
3.159333333333333, 1500
3.1559387483355525, 1502
3.1525531914893614, 1504
3.149176626826029, 1506
3.1458090185676393, 1508
3.142450331125828, 1510
3.139100529100529, 1512
3.1357595772787317, 1514
3.1324274406332453, 1516
3.1291040843214755, 1518
3.1257894736842102, 1520
3.122483574244415, 1522
3.1191863517060368, 1524
3.1158977719528176, 1526
3.1126178010471204, 1528
3.109346405228758, 1530
3.106083550913838, 1532
3.1028292046936112, 1534
3.0995833333333334, 1536
3.096345903771131, 1538
3.093116883116883, 1540
3.0898962386511024, 1542
3.086683937823834, 1544
3.0834799482535575, 1546
3.080284237726098, 1548
3.0770967741935484, 1550
3.073917525773196, 1552
3.0707464607464607, 1554
3.0675835475578404, 1556
3.064428754813864, 1558
3.0612820512820513, 1560
3.0581434058898846, 1562
3.055012787723785, 1564
3.051890166028097, 1566
3.0487755102040817, 1568
3.045668789808917, 1570
3.0425699745547075, 1572
3.039479034307497, 1574
3.0363959390862942, 1576
3.033320659062104, 1578
3.030253164556962, 1580
3.0271934260429836, 1582
3.024141414141414, 1584
3.0210970996216897, 1586
3.0180604534005036, 1588
3.0150314465408803, 1590
3.012010050251256, 1592
3.008996235884567, 1594
3.0059899749373433, 1596
3.0029912390488107, 1598
3, 1600
2.997016229712859, 1602
2.9940399002493763, 1604
2.99107098381071, 1606
2.9881094527363183, 1608
2.9851552795031053, 1610
2.982208436724566, 1612
2.9792688971499377, 1614
2.976336633663366, 1616
2.9734116192830653, 1618
2.9704938271604937, 1620
2.9675832305795313, 1622
2.964679802955665, 1624
2.9617835178351783, 1626
2.958894348894349, 1628
2.95601226993865, 1630
2.9531372549019608, 1632
2.950269277845777, 1634
2.947408312958435, 1636
2.9445543345543346, 1638
2.9417073170731705, 1640
2.938867235079172, 1642
2.9360340632603403, 1644
2.9332077764277034, 1646
2.930388349514563, 1648
2.9275757575757573, 1650
2.924769975786925, 1652
2.9219709794437727, 1654
2.9191787439613526, 1656
2.9163932448733414, 1658
2.913614457831325, 1660
2.9108423586040915, 1662
2.908076923076923, 1664
2.9053181272509003, 1666
2.902565947242206, 1668
2.899820359281437, 1670
2.8970813397129187, 1672
2.894348864994026, 1674
2.8916229116945105, 1676
2.8889034564958282, 1678
2.886190476190476, 1680
2.8834839476813316, 1682
2.8807838479809975, 1684
2.8780901542111503, 1686
2.8754028436018957, 1688
2.872721893491124, 1690
2.870047281323877, 1692
2.8673789846517117, 1694
2.864716981132075, 1696
2.8620612485276795, 1698
2.8594117647058823, 1700
2.8567685076380727, 1702
2.854131455399061, 1704
2.851500586166471, 1706
2.84887587822014, 1708
2.8462573099415205, 1710
2.843644859813084, 1712
2.8410385064177364, 1714
2.8384382284382284, 1716
2.835844004656577, 1718
2.8332558139534885, 1720
2.8306736353077815, 1722
2.8280974477958236, 1724
2.8255272305909616, 1726
2.8229629629629627, 1728
2.8204046242774563, 1730
2.817852193995381, 1732
2.8153056516724337, 1734
2.8127649769585252, 1736
2.810230149597238, 1738
2.807701149425287, 1740
2.805177956371986, 1742
2.8026605504587154, 1744
2.8001489117983964, 1746
2.7976430205949656, 1748
2.795142857142857, 1750
2.792648401826484, 1752
2.790159635119726, 1754
2.7876765375854213, 1756
2.7851990898748578, 1758
2.7827272727272727, 1760
2.780261066969353, 1762
2.777800453514739, 1764
2.7753454133635334, 1766
2.7728959276018097, 1768
2.77045197740113, 1770
2.7680135440180584, 1772
2.7655806087936865, 1774
2.7631531531531532, 1776
2.760731158605174, 1778
2.758314606741573, 1780
2.7559034792368124, 1782
2.7534977578475335, 1784
2.751097424412094, 1786
2.7487024608501116, 1788
2.746312849162011, 1790
2.7439285714285715, 1792
2.7415496098104795, 1794
2.739175946547884, 1796
2.7368075639599554, 1798
2.7344444444444442, 1800
2.7320865704772475, 1802
2.729733924611973, 1804
2.7273864894795126, 1806
2.7250442477876105, 1808
2.722707182320442, 1810
2.72037527593819, 1812
2.718048511576626, 1814
2.715726872246696, 1816
2.7134103410341033, 1818
2.711098901098901, 1820
2.7087925356750824, 1822
2.7064912280701754, 1824
2.704194961664841, 1826
2.7019037199124725, 1828
2.6996174863387976, 1830
2.697336244541485, 1832
2.695059978189749, 1834
2.692788671023965, 1836
2.6905223068552773, 1838
2.6882608695652173, 1840
2.68600434310532, 1842
2.683752711496746, 1844
2.681505958829902, 1846
2.679264069264069, 1848
2.677027027027027, 1850
2.674794816414687, 1852
2.6725674217907227, 1854
2.6703448275862067, 1856
2.6681270182992463, 1858
2.6659139784946237, 1860
2.663705692803437, 1862
2.661502145922747, 1864
2.6593033226152194, 1866
2.6571092077087792, 1868
2.6549197860962566, 1870
2.6527350427350425, 1872
2.6505549626467446, 1874
2.648379530916844, 1876
2.6462087326943555, 1878
2.6440425531914893, 1880
2.6418809776833156, 1882
2.639723991507431, 1884
2.637571580063627, 1886
2.635423728813559, 1888
2.633280423280423, 1890
2.6311416490486255, 1892
2.6290073917634635, 1894
2.6268776371308014, 1896
2.624752370916754, 1898
2.6226315789473684, 1900
2.620515247108307, 1902
2.6184033613445377, 1904
2.616295907660021, 1906
2.6141928721174, 1908
2.6120942408376964, 1910
2.61, 1912
2.6079101358411703, 1914
2.6058246346555323, 1916
2.603743482794578, 1918
2.6016666666666666, 1920
2.5995941727367327, 1922
2.5975259875259877, 1924
2.5954620976116303, 1926
2.593402489626556, 1928
2.5913471502590673, 1930
2.589296066252588, 1932
2.5872492244053773, 1934
2.585206611570248, 1936
2.583168214654283, 1938
2.5811340206185567, 1940
2.579104016477858, 1942
2.5770781893004115, 1944
2.5750565262076055, 1946
2.5730390143737165, 1948
2.571025641025641, 1950
2.569016393442623, 1952
2.5670112589559877, 1954
2.565010224948875, 1956
2.5630132788559754, 1958
2.5610204081632655, 1960
2.559031600407747, 1962
2.5570468431771896, 1964
2.5550661241098678, 1966
2.553089430894309, 1968
2.5511167512690354, 1970
2.5491480730223124, 1972
2.5471833839918947, 1974
2.5452226720647775, 1976
2.5432659251769465, 1978
2.541313131313131, 1980
2.539364278506559, 1982
2.53741935483871, 1984
2.5354783484390735, 1986
2.5335412474849095, 1988
2.531608040201005, 1990
2.5296787148594375, 1992
2.527753259779338, 1994
2.5258316633266533, 1996
2.5239139139139137, 1998
2.522, 2000
2.52008991008991, 2002
2.518183632734531, 2004
2.516281156530409, 2006
2.514382470119522, 2008
2.5124875621890546, 2010
2.510596421471173, 2012
2.5087090367428004, 2014
2.5068253968253966, 2016
2.5049454905847375, 2018
2.503069306930693, 2020
2.501196834817013, 2022
2.499328063241107, 2024
2.4974629812438303, 2026
2.4956015779092704, 2028
2.493743842364532, 2030
2.4918897637795276, 2032
2.490039331366765, 2034
2.4881925343811395, 2036
2.486349362119725, 2038
2.4845098039215685, 2040
2.4826738491674827, 2042
2.4808414872798434, 2044
2.479012707722385, 2046
2.4771875, 2048
2.475365853658537, 2050
2.4735477582846004, 2052
2.471733203505355, 2054
2.4699221789883268, 2056
2.468114674441205, 2058
2.4663106796116505, 2060
2.4645101842871, 2062
2.4627131782945737, 2064
2.460919651500484, 2066
2.4591295938104447, 2068
2.457342995169082, 2070
2.4555598455598457, 2072
2.4537801350048216, 2074
2.452003853564547, 2076
2.4502309913378246, 2078
2.4484615384615385, 2080
2.4466954851104705, 2082
2.444932821497121, 2084
2.4431735378715245, 2086
2.4414176245210726, 2088
2.4396650717703348, 2090
2.4379158699808796, 2092
2.4361700095510983, 2094
2.4344274809160305, 2096
2.432688274547188, 2098
2.4309523809523808, 2100
2.429219790675547, 2102
2.427490494296578, 2104
2.4257644824311493, 2106
2.42404174573055, 2108
2.4223222748815165, 2110
2.4206060606060604, 2112
2.4188930936613056, 2114
2.4171833648393193, 2116
2.41547686496695, 2118
2.4137735849056603, 2120
2.412073515551367, 2122
2.410376647834275, 2124
2.4086829727187204, 2126
2.4069924812030075, 2128
2.4053051643192487, 2130
2.403621013133208, 2132
2.4019400187441424, 2134
2.400262172284644, 2136
2.3985874649204866, 2138
2.3969158878504673, 2140
2.395247432306256, 2142
2.393582089552239, 2144
2.391919850885368, 2146
2.3902607076350093, 2148
2.3886046511627907, 2150
2.3869516728624536, 2152
2.3853017641597027, 2154
2.3836549165120595, 2156
2.382011121408712, 2158
2.3803703703703705, 2160
2.378732654949121, 2162
2.377097966728281, 2164
2.375466297322253, 2166
2.3738376383763837, 2168
2.3722119815668203, 2170
2.370589318600368, 2172
2.3689696412143513, 2174
2.3673529411764704, 2176
2.365739210284665, 2178
2.3641284403669727, 2180
2.362520623281393, 2182
2.360915750915751, 2184
2.3593138151875572, 2186
2.3577148080438755, 2188
2.356118721461187, 2190
2.3545255474452556, 2192
2.352935278030994, 2194
2.3513479052823314, 2196
2.3497634212920837, 2198
2.348181818181818, 2200
2.346603088101726, 2202
2.34502722323049, 2204
2.3434542157751586, 2206
2.3418840579710145, 2208
2.340316742081448, 2210
2.33875226039783, 2212
2.337190605239386, 2214
2.3356317689530686, 2216
2.3340757439134356, 2218
2.3325225225225226, 2220
2.3309720972097208, 2222
2.3294244604316545, 2224
2.3278796046720576, 2226
2.326337522441652, 2228
2.324798206278027, 2230
2.3232616487455195, 2232
2.321727842435094, 2234
2.320196779964222, 2236
2.318668453976765, 2238
2.317142857142857, 2240
2.3156199821587866, 2242
2.3140998217468804, 2244
2.3125823686553875, 2246
2.311067615658363, 2248
2.3095555555555554, 2250
2.3080461811722914, 2252
2.306539485359361, 2254
2.3050354609929076, 2256
2.3035341009743133, 2258
2.3020353982300885, 2260
2.3005393457117593, 2262
2.2990459363957596, 2264
2.2975551632833184, 2266
2.2960670194003527, 2268
2.2945814977973567, 2270
2.293098591549296, 2272
2.291618293755497, 2274
2.2901405975395432, 2276
2.288665496049166, 2278
2.2871929824561406, 2280
2.2857230499561787, 2282
2.2842556917688266, 2284
2.282790901137358, 2286
2.281328671328671, 2288
2.279868995633188, 2290
2.278411867364747, 2292
2.276957279860506, 2294
2.275505226480836, 2296
2.2740557006092255, 2298
2.272608695652174, 2300
2.2711642050390966, 2302
2.269722222222222, 2304
2.2682827406764963, 2306
2.26684575389948, 2308
2.2654112554112555, 2310
2.263979238754325, 2312
2.2625496974935175, 2314
2.2611226252158896, 2316
2.25969801553063, 2318
2.2582758620689654, 2320
2.2568561584840654, 2322
2.255438898450947, 2324
2.25402407566638, 2326
2.252611683848797, 2328
2.2512017167381972, 2330
2.249794168096055, 2332
2.248389031705227, 2334
2.246986301369863, 2336
2.2455859709153123, 2338
2.244188034188034, 2340
2.242792485055508, 2342
2.2413993174061435, 2344
2.24000852514919, 2346
2.2386201022146506, 2348
2.2372340425531916, 2350
2.2358503401360545, 2352
2.23446898895497, 2354
2.2330899830220714, 2356
2.231713316369805, 2358
2.2303389830508475, 2360
2.2289669771380187, 2362
2.2275972927241963, 2364
2.2262299239222316, 2366
2.224864864864865, 2368
2.2235021097046412, 2370
2.222141652613828, 2372
2.22078348778433, 2374
2.2194276094276093, 2376
2.2180740117746005, 2378
2.21672268907563, 2380
2.215373635600336, 2382
2.214026845637584, 2384
2.2126823134953897, 2386
2.2113400335008375, 2388
2.21, 2390
2.2086622073578597, 2392
2.2073266499582287, 2394
2.205993322203673, 2396
2.2046622185154297, 2398
2.203333333333333, 2400
2.2020066611157367, 2402
2.200682196339434, 2404
2.199359933499584, 2406
2.1980398671096344, 2408
2.196721991701245, 2410
2.1954063018242125, 2412
2.194092792046396, 2414
2.1927814569536426, 2416
2.1914722911497106, 2418
2.1901652892561985, 2420
2.188860445912469, 2422
2.1875577557755777, 2424
2.186257213520198, 2426
2.1849588138385503, 2428
2.1836625514403294, 2430
2.1823684210526317, 2432
2.181076417419885, 2434
2.179786535303777, 2436
2.1784987694831828, 2438
2.1772131147540983, 2440
2.175929565929566, 2442
2.1746481178396073, 2444
2.173368765331153, 2446
2.172091503267974, 2448
2.170816326530612, 2450
2.169543230016313, 2452
2.1682722086389568, 2454
2.1670032573289904, 2456
2.1657363710333604, 2458
2.1644715447154472, 2460
2.163208773354996, 2462
2.161948051948052, 2464
2.1606893755068937, 2466
2.1594327390599677, 2468
2.158178137651822, 2470
2.156925566343042, 2472
2.155675020210186, 2474
2.154426494345719, 2476
2.15317998385795, 2478
2.1519354838709677, 2480
2.1506929895245768, 2482
2.149452495974235, 2484
2.1482139983909896, 2486
2.146977491961415, 2488
2.1457429718875503, 2490
2.144510433386838, 2492
2.143279871692061, 2494
2.1420512820512823, 2496
2.140824659727782, 2498
2.1396, 2500
*Material, name=CLADDING
*Elastic
7.5e10, 0.3
*Density
6500
*Specific Heat
330
*Conductivity
16
*Expansion, zero=600
5e-6
*Plastic
1000000, 0
20001000000, 1
*Creep, law=TIME
8e-28, 3, 0
*Solid Section, elset=FUEL, material=FUEL
,
*Solid Section, elset=CLAD, material=CLADDING
,
*Initial Conditions, type=TEMPERATURE
ALL, 600
*Surface Interaction, name=INTERFACE
*Surface Behavior, pressure-overclosure=LINEAR
1e12
*Friction
0.002
*Gap Heat Generation
0
*Gap Conductance
4000, 0
4000.0000000000005, 0.000001
3960.396039603961, 0.0000010099999999999999
3921.1841976276846, 0.0000010200999999999998
3882.360591710579, 0.0000010303009999999997
3843.9213779312663, 0.0000010406040099999998
3805.8627504269957, 0.0000010510100500999999
3768.1809410168275, 0.000001061520150601
3730.872218828542, 0.00000107213535210701
3693.9328899292495, 0.00000108285670562808
3657.3592969596525, 0.0000010936852726843608
3621.147818771933, 0.0000011046221254112045
3585.294870071221, 0.0000011156683466653166
3549.796901060615, 0.0000011268250301319698
3514.6503970897174, 0.0000011380932804332895
3479.851878306651, 0.0000011494742132376223
3445.397899313516, 0.0000011609689553699985
3411.2850488252634, 0.0000011725786449236986
3377.5099493319435, 0.0000011843044313729356
3344.069256764301, 0.0000011961474756866649
3310.9596601626745, 0.0000012081089504435314
3278.1778813491824, 0.0000012201900399479668
3245.7206746031507, 0.0000012323919403474466
3213.584826339753, 0.0000012447158597509211
3181.767154791835, 0.0000012571630183484303
3150.2645096948854, 0.0000012697346485319147
3119.073771975134, 0.0000012824319950172339
3088.1918534407273, 0.0000012952563149674061
3057.6156964759675, 0.0000013082088781170801
3027.3422737385818, 0.000001321290966898251
2997.368587859982, 0.0000013345038765672334
2967.6916711484973, 0.0000013478489153329057
2938.308585295542, 0.0000013613274044862347
2909.216421084695, 0.000001374940678531097
2880.4122981036585, 0.000001388690085316408
2851.8933644590675, 0.000001402576986169572
2823.6567964941264, 0.0000014166027560312678
2795.699798509036, 0.0000014307687835915804
2768.019602484194, 0.0000014450764714274963
2740.613467806133, 0.0000014595272361417712
2713.478680996171, 0.000001474122508503189
2686.6125554417536, 0.0000014888637335882209
2660.012431130449, 0.0000015037523709241031
2633.675674386583, 0.0000015187898946333443
2607.599677610478, 0.0000015339777935796777
2581.7818590202755, 0.0000015493175715154744
2556.2196623963123, 0.0000015648107472306292
2530.910556828032, 0.0000015804588547029355
2505.852036463398, 0.0000015962634432499648
2481.0416202607903, 0.0000016122260776824644
2456.4768517433563, 0.0000016283483384592892
2432.1552987557984, 0.000001644631821843882
2408.074553223563, 0.0000016610781400623208
2384.232230914419, 0.0000016776889214629442
2360.625971202395, 0.0000016944658106775735
2337.2534368340544, 0.0000017114104687843492
2314.1123136970837, 0.0000017285245734721926
2291.2003105911717, 0.0000017458098192069145
2268.51515900116, 0.0000017632679173989838
2246.054612872436, 0.0000017809005965729735
2223.8164483885503, 0.0000017987096025387033
2201.79846375104, 0.0000018166966985640905
2179.9984789614255, 0.0000018348636655497314
2158.414335605372, 0.0000018532123022052287
2137.043896638982, 0.000001871744425227281
2115.88504617721, 0.0000018904618694795538
2094.935689284366, 0.0000019093664881743493
2074.1937517666993, 0.0000019284601530560927
2053.657179967029, 0.0000019477447545866537
2033.3239405614147, 0.0000019672222021325203
2013.1920203578366, 0.0000019868944241538454
1993.2594260968676, 0.000002006763368395384
1973.5241842543242, 0.000002026831002079338
1953.9843408458655, 0.0000020470993121001315
1934.6379612335302, 0.000002067570305221133
1915.4831299341884, 0.000002088246008273344
1896.5179504298894, 0.0000021091284683560776
1877.7405449800883, 0.0000021302197530396385
1859.1490544357312, 0.000002151521950570035
1840.7416380551795, 0.000002173037170075735
1822.5164733219597, 0.0000021947675417764925
1804.4717557643164, 0.0000022167152171942576
1786.605698776551, 0.0000022388823693662
1768.9165334421295, 0.0000022612711930598622
1751.402508358544, 0.000002283883904990461
1734.0618894639051, 0.0000023067227440403656
1716.8929598652524, 0.0000023297899714807694
1699.8940196685667, 0.000002353087871195577
1683.0633858104623, 0.0000023766187499075327
1666.3993918915469, 0.000002400384937406608
1649.9003880114324, 0.000002424388786780674
1633.5647406053788, 0.0000024486326746484807
1617.3908322825532, 0.0000024731190013949654
1601.3770616658944, 0.000002497850191408915
1585.5218432335587, 0.000002522828693323004
1569.8236071619394, 0.0000025480569802562343
1554.280799170237, 0.0000025735375500587964
1538.8918803665713, 0.0000025992729255593846
1523.6553270956151, 0.0000026252656548149785
1508.5696307877379, 0.000002651518311363128
1493.6332978096414, 0.0000026780334944767595
1478.8448493164765, 0.0000027048138294215272
1464.2028211054221, 0.0000027318619677157427
1449.7057634707148, 0.0000027591805873929002
1435.3522410601138, 0.000002786772393266829
1421.1408327327858, 0.0000028146401171994977
1407.0701314185999, 0.0000028427865183714927
1393.1387439788118, 0.0000028712143835552076
1379.3452910681303, 0.0000028999265273907598
1365.688406998149, 0.000002928925792664667
1352.1667396021278, 0.0000029582150505913138
1338.7789501011166, 0.000002987797201097227
1325.5237129714026, 0.000003017675173108199
1312.39971581327, 0.000003047851924839281
1299.4056592210593, 0.000003078330444087674
1286.5402566545142, 0.0000031091137485285506
1273.8022343114003, 0.000003140204886013836
1261.1903310013863, 0.0000031716069348739743
1248.7032980211745, 0.000003203323004222714
1236.339899030866, 0.000003235356234264941
1224.0989099315505, 0.0000032677097966075907
1211.9791187441094, 0.0000033003868945736665
1199.9793254892172, 0.0000033333907635194033
1188.0983420685318, 0.000003366724671154597
1176.3349921470613, 0.000003400391917866143
1164.6881110366942, 0.000003434395837044805
1153.1565455808854, 0.000003468739795415253
1141.7391540404806, 0.0000035034271933694055
1130.4348059806737, 0.0000035384614653030997
1119.2423821590828, 0.0000035738460799561307
1108.1607744149335, 0.0000036095845407556923
1097.18888555934, 0.0000036456803861632494
1086.3256292666733, 0.000003682137190024882
1075.5699299670032, 0.000003718958561925131
1064.920722739607, 0.0000037561481475443823
1054.3769532075316, 0.0000037937096290198264
1043.9375774331997, 0.000003831646725310025
1033.6015618150493, 0.000003869963192563125
1023.3678829851973, 0.000003908662824488756
1013.2355277081161, 0.000003947749452733644
1003.2034927803129, 0.00000398722694726098
993.2707849310028, 0.00000402709921673359
983.4364207237653, 0.000004067370208900926
973.6994264591734, 0.000004108043910989936
964.0588380783896, 0.000004149124350099835
954.5137010677125, 0.000004190615593600833
945.0630703640717, 0.000004232521749536842
935.7060102614571, 0.00000427484696703221
926.4415943182744, 0.0000043175954367025324
917.2689052656183, 0.000004360771391069557
908.1870349164537, 0.000004404379104980253
899.1950840756969, 0.000004448422896030055
890.2921624511849, 0.000004492907124990356
881.4773885655296, 0.00000453783619624026
872.7498896688412, 0.000004583214558202662
864.108801652318, 0.0000046290467037846885
855.553268962691, 0.000004675337170822536
847.0824445175159, 0.000004722090542530761
838.6954896213028, 0.000004769311447956069
830.391573882478, 0.00000481700456243563
822.1698751311662, 0.000004865174608059987
814.0295793377884, 0.000004913826354140586
805.9698805324638, 0.0000049629646176819924
797.9899807252116, 0.000005012594263858813
790.0890898269421, 0.000005062720206497401
782.2664255712298, 0.0000051133474085623755
774.5212134368612, 0.000005164480882647999
766.8526865711497, 0.000005216125691474479
759.2600857140095, 0.000005268286948389224
751.7426591227818, 0.000005320969817873116
744.2996624978036, 0.000005374179516051848
736.9303589087165, 0.0000054279213112123665
729.6340187215014, 0.00000548220052432449
722.409919526239, 0.000005537022529567735
715.2573460655832, 0.000005592392754863413
708.1755901639438, 0.000005648316682412047
701.16395065737, 0.000005704799849236167
694.2217333241288, 0.000005761847847728529
687.348250815969, 0.0000058194663262058146
680.5428225900683, 0.0000058776609894678725
673.8047748416518, 0.0000059364375993625514
667.1334404372791, 0.000005995801975356177
660.5281588487911, 0.0000060557599951097386
653.988276087912, 0.000006116317595060836
647.513144641497, 0.000006177480771011445
641.1021234074227, 0.0000062392555787215596
634.7545776311116, 0.000006301648134508775
628.4698788426848, 0.000006364664615853863
622.2474047947373, 0.000006428311262012402
616.0865394007301, 0.000006492594374632526
609.9866726739901, 0.000006557520318378851
603.947200667317, 0.0000066230955215626394
597.9675254131852, 0.000006689326476778266
592.0470548645397, 0.000006756219741546049
586.185202836178, 0.0000068237819389615096
580.3813889467108, 0.000006892019758351125
574.6350385610998, 0.000006960939955934636
568.9455827337622, 0.000007030549355493983
563.3124581522397, 0.000007100854849048923
557.7351070814254, 0.000007171863397539413
552.212977308342, 0.0000072435820315148064
546.7455220874674, 0.000007316017851829955
541.3322000866013, 0.000007389178030348254
535.9724753332687, 0.000007463069810651736
530.6658171616522, 0.000007537700508758253
525.4117001600516, 0.000007613077513845836
520.209604118863, 0.000007689208288984295
515.0590139790722, 0.000007766100371874139
509.9594197812596, 0.00000784376137559288
504.91031661510857, 0.000007922198989348809
499.9112045694144, 0.000008001420979242297
494.96158868258846, 0.00000808143518903472
490.06097889365196, 0.000008162249540925068
485.2088899937149, 0.000008243872036334318
480.40484157793554, 0.00000832631075669766
475.64835799795594, 0.000008409573864264638
470.9389683148078, 0.000008493669602907284
466.27620625228496, 0.000008578606298936358
461.6596101507772, 0.00000866439236192572
457.0887229215616, 0.000008751036285544978
452.5630920015462, 0.000008838546648400427
448.0822693084615, 0.000008926932114884432
443.64581119649654, 0.000009016201436033277
439.25327841237277, 0.00000910636345039361
434.90423605185424, 0.000009197427084897546
430.59825351668735, 0.000009289401355746522
426.33490447196766, 0.000009382295369303988
422.1137668039284, 0.000009476118322997027
417.93442257814695, 0.000009570879506226997
413.7964579981653, 0.000009666588301289267
409.6994633645201, 0.00000976325418430216
405.6430330341783, 0.000009860886726145182
401.62676538037454, 0.000009959495593406634
397.65026275284606, 0.0000100590905493407
393.71313143846146, 0.000010159681454834107
389.81498162223903, 0.000010261278269382448
385.9554273487515, 0.000010363891052076273
382.1340864839124, 0.000010467529962597036
378.35058067714095, 0.000010572205262223007
374.6045353239019, 0.000010677927314845237
370.8955795286158, 0.000010784706587993689
367.22334606793646, 0.000010892553653873626
363.5874713543925, 0.000011001479190412362
359.98759540038867, 0.000011111493982316485
356.423361782563, 0.00001122260892213965
352.894417606498, 0.000011334835011361047
349.4004134717802, 0.000011448183361474658
345.94100343740615, 0.000011562665195089404
342.51584498753084, 0.000011678291847040298
339.1245989975553, 0.0000117950747655107
335.7669297005498, 0.000011913025513165808
332.44250465400967, 0.000012032155768297467
329.1509947069403, 0.000012152477325980441
325.8920739672676, 0.000012274002099240245
322.6654197695719, 0.000012396742120232648
319.4707126431405, 0.000012520709541434974
316.30763628033714, 0.000012645916636849323
313.1758775052843, 0.000012772375803217817
310.07512624285573, 0.000012900099561249995
307.00507548797594, 0.000013029100556862496
303.9654212752237, 0.00001315939156243112
300.95586264873634, 0.000013290985478055432
297.9761016324122, 0.000013423895332835986
295.02584320040813, 0.000013558134286164346
292.10479524792885, 0.00001369371562902599
289.2126685623058, 0.00001383065278531625
286.34917679436217, 0.000013968959313169413
283.51403643006154, 0.000014108648906301107
280.70696676243716, 0.000014249735395364118
277.9276898637992, 0.00001439223274931776
275.17593055821703, 0.000014536155076810937
272.4514163942743, 0.000014681516627579046
269.7538776180933, 0.000014828331793854836
267.08304714662705, 0.000014976615111793385
264.4386605412149, 0.000015126381262911318
261.8204559814009, 0.000015277645075540432
259.2281742390108, 0.000015430421526295836
256.66155865248595, 0.000015584725741558794
254.12035510147126, 0.00001574057299897438
251.6043119816547, 0.000015897978728964126
249.11318017985613, 0.000016056958516253768
246.6467130493625, 0.000016217528101416307
244.2046663855074, 0.00001637970338243047
241.7867984014925, 0.000016543500416254774
239.39286970444797, 0.000016708935420417323
237.02264327173066, 0.000016876024774621498
234.67588442745608, 0.000017044785022367713
232.35236081926348, 0.00001721523287259139
230.05184239531036, 0.000017387385201317303
227.7741013814954, 0.000017561259053330477
225.51891225890637, 0.00001773687164386378
223.28605174149143, 0.00001791424036030242
221.0752987539519, 0.000018093382763905445
218.88643440985336, 0.0000182743165915445
216.71924198995382, 0.000018457059757459946
214.57350692074635, 0.000018641630355034544
212.4490167532142, 0.00001882804665858489
210.34556114179625, 0.000019016327125170738
208.26293182356062, 0.000019206490396422447
206.2009225975848, 0.00001939855530038667
204.1593293045394, 0.000019592540853390538
202.13794980647464, 0.000019788466261924443
200.13658396680657, 0.000019986350924543688
198.15503363050155, 0.000020186214433789125
196.19310260445698, 0.000020388076578127017
194.25059663807622, 0.000020591957343908286
192.32732340403587, 0.00002079787691734737
190.42309247924345, 0.000021005855686520843
188.5377153259836, 0.00002121591424338605
186.6710052732511, 0.00002142807338581991
184.8227774982684, 0.00002164235411967811
182.99284900818654, 0.00002185877766087489
181.18103862196688, 0.00002207736543748364
179.38716695244247, 0.000022298139091858476
177.61105638855688, 0.000022521120482777062
175.85253107777908, 0.000022746331687604834
174.11141690869215, 0.000022973795004480882
172.3875414937546, 0.00002320353295452569
170.6807341522323, 0.000023435568284070946
168.9908258932993, 0.000023669923966911655
167.31764939930625, 0.00002390662320658077
165.6610390092141, 0.000024145689438646577
164.0208307021922, 0.000024387146333033045
162.3968620813784, 0.000024631017796363374
160.78897235780042, 0.000024877327974327007
159.19700233445587, 0.000025126101254070276
157.62079439055034, 0.00002537736226661098
156.06019246589142, 0.00002563113588927709
154.51504204543704, 0.000025887447248169863
152.9851901439971, 0.00002614632172065156
151.47048529108622, 0.000026407784937858075
149.97077751592695, 0.000026671862787236657
148.48591833260096, 0.000026938581415109022
147.01576072534746, 0.000027207967229260113
145.5601591340074, 0.000027480046901552715
144.11896943961128, 0.000027754847370568243
142.69204895011018, 0.000028032395844273926
141.27925638624768, 0.000028312719802716667
139.88045186757196, 0.000028595847000743834
138.4954968985861, 0.00002888180547075127
137.12425435503576, 0.000029170623525458784
135.76658847033244, 0.00002946232976071337
134.42236482211132, 0.000029756953058320507
133.09145031892209, 0.00003005452258890371
131.77371318705158, 0.00003035506781479275
130.4690229574768, 0.00003065861849294068
129.17725045294733, 0.000030965204677870084
127.89826777519538, 0.00003127485672464878
126.63194829227267, 0.00003158760529189527
125.37816662601253, 0.00003190348134481422
124.13679863961639, 0.00003222251615826236
122.90772142536275, 0.000032544741319844986
121.69081329243836, 0.00003287018873304344
120.48595375488947, 0.000033198890620373874
119.29302351969254, 0.00003353087952657761
118.11190447494312, 0.00003386618832184339
116.94247967816149, 0.00003420485020506182
115.78463334471434, 0.00003454689870711244
114.63825083635082, 0.00003489236769418357
113.5032186498523, 0.000035241291371125405
112.37942440579437, 0.00003559370428483666
111.26675683742015, 0.00003594964132768503
110.1651057796239, 0.00003630913774096188
109.07436215804348, 0.000036672229118371496
107.99441797826087, 0.00003703895140955521
106.92516631510978, 0.00003740934092365076
105.86650130208889, 0.00003778343433288727
104.81831812088008, 0.000038161268676216145
103.78051299097038, 0.000038542881362978305
102.75298315937661, 0.00003892831017660809
101.73562689047189, 0.00003931759327837417
100.72834345591275, 0.000039710769211157915
99.7310331246661, 0.000040107876903269494
98.74359715313474, 0.00004050895567230219
97.76593777538093, 0.00004091404522902521
96.79795819344648, 0.00004132318568131546
95.8395625677688, 0.00004173641753812861
94.89065600769189, 0.000042153781713509896
93.95114456207116, 0.000042575319530645
93.02093520997146, 0.000043001072725951445
92.09993585145689, 0.00004343108345321096
91.18805529847216, 0.00004386539428774307
90.28520326581402, 0.0000443040482306205
89.39129036219211, 0.000044747088712926704
88.50622808137832, 0.00004519455960005597
87.62992879344388, 0.000045646505196056534
86.76230573608305, 0.0000461029702480171
85.90327300602281, 0.00004656399995049727
85.05274555051764, 0.000047029639950002244
84.21063915892836, 0.00004749993634950227
83.37687045438452, 0.00004797493571299729
82.55135688552922, 0.00004845468507012726
81.73401671834576, 0.00004893923192082854
80.92476902806511, 0.00004942862424003682
80.12353369115358, 0.00004992291048243719
79.33023137737977, 0.00005042213958726156
78.54478354196017, 0.00005092636098313418
77.76711241778234, 0.00005143562459296552
76.9971410077053, 0.00005194998083889518
76.23479307693593, 0.00005246948064728413
75.47999314548112, 0.00005299417545375697
74.73266648067438, 0.00005352411720829454
73.99273908977662, 0.00005405935838037748
73.2601377126501, 0.00005459995196418126
72.53478981450506, 0.000055145951483823074
71.81662357871788, 0.000055697410998661305
71.10556789972067, 0.00005625438510864792
70.40155237596106, 0.0000568169289597344
69.70450730293175, 0.000057385098249331746
69.01436366626905, 0.00005795894923182506
68.33105313491986, 0.00005853853872414331
67.6545080543761, 0.00005912392411138475
66.98466143997632, 0.000059715163352498595
66.3214469702736, 0.00006031231498602358
65.6647989804689, 0.00006091543813588382
65.0146524559098, 0.00006152459251724266
64.37094302565326, 0.00006213983844241509
63.73360695609234, 0.00006276123682683924
63.102581144645875, 0.00006338884919510764
62.47780311351077, 0.00006402273768705871
61.859211003476, 0.00006466296506392931
61.24674356779802, 0.0000653095947145686
60.64034016613665, 0.00006596269066171429
60.03994075855113, 0.00006662231756833144
59.44548589955557, 0.00006728854074401476
58.85691673223324, 0.00006796142615145491
58.27417498240914, 0.00006864104041296946
57.697202952880346, 0.00006932745081709916
57.125943517703305, 0.00007002072532527015
56.56034011653792, 0.00007072093257852286
56.00033674904745, 0.00007142814190430808
55.445877969353916, 0.00007214242332335116
54.89690888054843, 0.00007286384755658467
54.35337512925587, 0.00007359248603215052
53.81522290025334, 0.00007432841089247202
53.282398911141925, 0.00007507169500139674
52.75485040707121, 0.00007582241195141071
52.23252515551605, 0.00007658063607092481
51.71537144110499, 0.00007734644243163407
51.20333806049999, 0.00007811990685595042
50.69637431732672, 0.00007890110592450992
50.19443001715517, 0.00007969011698375502
49.697455462529874, 0.00008048701815359257
49.20540144804938, 0.0000812918883351285
48.71821925549443, 0.00008210480721847979
48.23586064900439, 0.00008292585529066458
47.75827787030137, 0.00008375511384357123
47.28542363396175, 0.00008459266498200695
46.81725112273441, 0.00008543859163182702
46.353713982905354, 0.00008629297754814529
45.894766319708275, 0.00008715590732362674
45.44036269278047, 0.00008802746639686301
44.99045811166383, 0.00008890774106083164
44.54500803135032, 0.00008979681847143996
44.10396834787161, 0.00009069478665615436
43.667295393932285, 0.0000916017345227159
43.23494593458642, 0.00009251775186794306
42.80687716295685, 0.00009344292938662249
42.38304669599688, 0.00009437735868048872
41.96341257029394, 0.00009532113226729361
41.5479332379148, 0.00009627434358996654
41.13656756229187, 0.00009723708702586621
40.72927481415037, 0.00009820945789612487
40.32601466747561, 0.00009919155247508613
39.926747195520406, 0.00010018346799983699
39.53143286685189, 0.00010118530267983537
39.14003254143751, 0.00010219715570663371
38.75250746676981, 0.00010321912726370006
38.36881927402952, 0.00010425131853633705
37.988929974286656, 0.00010529383172170042
37.61280195473926, 0.00010634677003891742
37.24039797498937, 0.0001074102377393066
36.87168116335581, 0.00010848434011669967
36.50661501322357, 0.00010956918351786667
36.14516337942928, 0.00011066487535304533
35.78729047468246, 0.00011177152410657579
35.43296086602223, 0.00011288923934764156
35.082139471309134, 0.00011401813174111798
34.73479155575162, 0.00011515831305852916
34.39088272846695, 0.00011630989618911446
34.05037893907618, 0.0001174729951510056
33.713246474332855, 0.00011864772510251566
33.379451954785004, 0.00011983420235354082
33.0489623314703, 0.00012103254437707623
32.72174488264386, 0.000122242869820847
32.39776721053848, 0.00012346529851905546
32.07699723815691, 0.000124699951504246
31.759403206095957, 0.00012594695101928846
31.444953669401936, 0.00012720642052948134
31.133617494457365, 0.00012847848473477615
30.82536385589838, 0.0001297632695821239
30.520162233562758, 0.00013106090227794513
30.21798240946808, 0.00013237151130072458
29.918794464819882, 0.0001336952264137318
29.622568777049388, 0.00013503217867786912
29.329276016880584, 0.0001363825004646478
29.03888714542632, 0.0001377463254692943
28.751373411313192, 0.00013912378872398722
28.46670634783484, 0.0001405150266112271
28.184857770133505, 0.00014192017687733938
27.905799772409413, 0.00014333937864611276
27.629504725157833, 0.0001447727724325739
27.355945272433498, 0.00014622050015689964
27.085094329142073, 0.00014768270515846864
26.816925078358487, 0.00014915953221005334
26.551410968671767, 0.00015065112753215388
26.288525711556208, 0.0001521576388074754
26.02824327876852, 0.00015367921519555017
25.770537899770815, 0.00015521600734750567
25.515384059179024, 0.00015676816742098073
25.262756494236655, 0.00015833584909519054
25.01263019231352, 0.00015991920758614246
24.764980388429226, 0.00016151839966200388
24.51978256280122, 0.0001631335836586239
24.27701243841705, 0.00016476491949521014
24.03664597863074, 0.00016641256869016224
23.79865938478291, 0.00016807669437706387
23.563029093844467, 0.00016975746132083451
23.329731776083626, 0.00017145503593404287
23.098744332756066, 0.0001731695862933833
22.87004389381789, 0.00017490128215631712
22.643607815661277, 0.0001766502949778803
22.41941367887255, 0.0001784167979276591
22.197439286012425, 0.0001802009659069357
21.977662659418243, 0.00018200297556600505
21.760062039027964, 0.0001838230053216651
21.544615880225706, 0.00018566123537488175
21.33130285170862, 0.00018751784772863057
21.12010183337487, 0.00018939302620591688
20.910991914232547, 0.00019128695646797604
20.703952390329253, 0.00019319982603265581
20.49896276270223, 0.00019513182429298237
20.296002735348743, 0.0001970831425359122
20.095052213216576, 0.0001990539739612713
19.896091300214433, 0.00020104451370088402
19.699100297242016, 0.00020305495883789286
19.504059700239615, 0.0002050855084262718
19.310950198257046, 0.00020713636351053452
19.11975267154163, 0.00020920772714563986
18.930448189645176, 0.00021129980441709627
18.74301800954968, 0.00021341280246126723
18.557443573811565, 0.00021554693048587991
18.37370650872432, 0.00021770239979073872
18.191788622499327, 0.0002198794237886461
18.01167190346468, 0.00022207821802653258
17.833338518281863, 0.0002242990002067979
17.65677081018006, 0.00022654199020886588
17.48195129720798, 0.00022880741011095453
17.30886267050295, 0.0002310954842120641
17.13748779257718, 0.00023340643905418474
16.967809695620968, 0.0002357405034447266
16.79981157982274, 0.00023809790847917385
16.633476811705684, 0.0002404788875639656
16.468788922480876, 0.00024288367643960526
16.30573160641671, 0.0002453125132040013
16.144288719224463, 0.0002477656383360413
15.984444276459866, 0.0002502432947194017
15.826182451940461, 0.00025274572766659573
15.669487576178675, 0.0002552731849432617
15.51434413483037, 0.0002578259167926943
15.36073676715878, 0.0002604041759606213
15.208650264513645, 0.0002630082177202275
15.058069568825392, 0.00026563829989742976
14.908979771114248, 0.00026829468289640406
14.761366110014109, 0.0002709776297253681
14.615213970310998, 0.00027368740602262177
14.47050888149604, 0.00027642428008284797
14.327236516332711, 0.00027918852288367645
14.185382689438327, 0.0002819804081125132
14.044933355879532, 0.00028480021219363835
13.905874609781716, 0.0002876482143155747
13.768192682952193, 0.0002905246964587305
13.631873943517022, 0.0002934299434233178
13.496904894571308, 0.000296364242857551
13.36327217284288, 0.0002993278852861265
13.230962547369186, 0.0003023211641389878
13.099962918187313, 0.0003053443757803777
12.970260315036944, 0.0003083978195381815
12.84184189607618, 0.0003114817977335633
12.71469494661008, 0.0003145966157108989
12.588806877831763, 0.0003177425818680079
12.464165225576002, 0.000320920007686688
12.340757649085152, 0.0003241292077635549
12.218571929787279, 0.0003273704998411904
12.097595970086415, 0.0003306442048396023
11.977817792164767, 0.0003339506468879983
11.8592255367968, 0.0003372901533568783
11.741807462175048, 0.0003406630548904471
11.625551942747572, 0.0003440696854393516
11.510447468066902, 0.00034751038229374515
11.396482641650397, 0.0003509854861166826
11.283646179851878, 0.00035449534097784944
11.171926910744434, 0.00035804029438762794
11.061313773014291, 0.0003616206973315042
10.951795814865635, 0.00036523690430481924
10.843362192936272, 0.00036888927334786746
10.736002171224031, 0.00037257816608134614
10.629705120023793, 0.00037630394774215963
10.524460514875042, 0.00038006698721958123
10.420257935519844, 0.00038386765709177707
10.317087064871131, 0.00038770633366269484
10.21493768799122, 0.0003915833969993218
10.113799691080416, 0.000395499230969315
10.01366306047566, 0.00039945422327900817
9.914517881659068, 0.00040344876551179826
9.816354338276305, 0.00040748325316691624
9.719162711164659, 0.0004115580856985854
9.622933377390751, 0.00041567366655557124
9.527656809297774, 0.00041983040322112695
9.433323573562152, 0.0004240287072533382
9.339924330259556, 0.00042826899432587157
9.247449831940155, 0.0004325516842691303
9.155890922713025, 0.0004368772011118216
9.06523853733963, 0.0004412459731229398
8.975483700336266, 0.0004456584328541692
8.886617525085413, 0.0004501150171827109
8.798631212955854, 0.000454616167354538
8.711516052431538, 0.0004591623290280834
8.625263418249046, 0.00046375395231836427
8.53986477054361, 0.0004683914918415479
8.455311654003575, 0.00047307540675996343
8.371595697033241, 0.00047780616082756307
8.288708610924001, 0.0004825842224358387
8.206642189033666, 0.0004874100646601971
8.125388305973926, 0.000492284165306799
8.044938916805869, 0.000497207006959867
7.965286056243434, 0.0005021790770294657
7.886421837864786, 0.0005072008677997603
7.808338453331471, 0.0005122728764777579
7.731028171615319, 0.0005173956052425355
7.654483338232987, 0.0005225695612949609
7.578696374488107, 0.0005277952569079105
7.503659776720898, 0.0005330732094769896
7.429366115565245, 0.0005384039415717595
7.355808035213114, 0.0005437879809874771
7.282978252686251, 0.0005492258607973519
7.2108695571151005, 0.0005547181194053254
7.1394748090248505, 0.0005602653005993787
7.068786939628565, 0.0005658679536053725
6.998798950127293, 0.0005715266331414262
6.929503911017122, 0.0005772418994728404
6.860894961403091, 0.0005830143184675688
6.792965308319893, 0.0005888444616522445
6.7257082260593, 0.0005947329062687669
6.659117055504257, 0.0006006802353314545
6.593185203469561, 0.0006066870376847691
6.527906142049071, 0.0006127539080616168
6.4632734079693765, 0.000618881447142233
6.399280601949878, 0.0006250702616136554
6.335921388069186, 0.0006313209642297919
6.273189493137807, 0.0006376341738720899
6.211078706077037, 0.0006440105156108108
6.149582877303997, 0.0006504506207669189
6.088695918122769, 0.000656955126974588
6.028411800121554, 0.0006635246782443339
5.968724554575796, 0.0006701599250267773
5.9096282718572235, 0.0006768615242770451
5.851117100848736, 0.0006836301395198156
5.793185248365085, 0.0006904664409150137
5.735826978579292, 0.0006973711053241639
5.679036612454745, 0.0007043448163774055
5.622808527182915, 0.0007113882645411796
5.567137155626648, 0.0007185021471865915
5.512016985768959, 0.0007256871686584574
5.457442560167286, 0.0007329440403450419
5.403408475413155, 0.0007402734807484923
5.3499093815971825, 0.0007476762155559772
5.296939981779389, 0.000755152977711537
5.244495031464742, 0.0007627045074886523
5.192569338083903, 0.0007703315525635388
5.141157760479111, 0.0007780348680891743
5.09025520839516, 0.000785815216770066
5.039856641975406, 0.0007936733689377667
4.989957071262778, 0.0008016101026271443
4.940551555705721, 0.0008096262036534158
4.891635203669031, 0.0008177224656899499
4.843203171949535, 0.0008258996903468494
4.795250665296569, 0.000834158687250318
4.747772935937197, 0.0008425002741228212
4.7007652831061355, 0.0008509252768640494
4.654223052580332, 0.0008594345296326899
4.608141636218151, 0.0008680288749290168
4.56251647150312, 0.000876709163678307
4.5173430410921975, 0.00088547625531509
4.472616872368513, 0.0008943310178682409
4.428333536998528, 0.0009032743280469233
4.384488650493592, 0.0009123070713273926
4.341077871775833, 0.0009214301420406665
4.298096902748349, 0.0009306444434610732
4.255541487869653, 0.0009399508878956839
4.213407413732329, 0.0009493503967746408
4.171690508645871, 0.0009588439007423872
4.130386642223635, 0.000968432339749811
4.089491724973895, 0.0009781166631473092
4.049001707894946, 0.0009878978297787823
4.0089125820742035, 0.0009977768080765702
3.9692203782912907, 0.0010077545761573358
3.9299211666250407, 0.0010178321219189092
3.8910110560643965, 0.0010280104431380983
3.852486194123165, 0.0010382905475694792
3.814342766458579, 0.001048673453045174
3.7765769964936426, 0.0010591601875756258
3.7391851450432108, 0.001069751789451382
3.7021635099437735, 0.0010804493073458957
3.6655084256869044, 0.0010912538004193546
3.629216263056341, 0.0011021663384235482
3.5932834287686544, 0.0011131880018077837
3.5577063651174794, 0.0011243198818258616
3.5224815496212663, 0.0011355630806441203
3.487605494674521, 0.0011469187114505615
3.4530747472024963, 0.001158387898565067
3.4188858883193034, 0.0011699717775507177
3.3850355329894093, 0.001181671495326225
3.3515203296924847, 0.0011934882102794871
3.3183369600915693, 0.001205423092382282
3.285482138704524, 0.0012174773233061048
3.2529526125787362, 0.001229652096539166
3.2207451609690456, 0.0012419486175045576
3.188856595018857, 0.0012543681036796032
3.157283757444413, 0.0012669117847163992
3.1260235222221913, 0.0012795809025635632
3.095072794279397, 0.0012923767115891988
3.064428509187522, 0.0013053004787050909
3.034087632858933, 0.0013183534834921417
3.0040471612464676, 0.0013315370183270632
2.974304120046008, 0.0013448523885103338
2.944855564401988, 0.0013583009123954372
2.9156985786158294, 0.0013718839215193916
2.886830275857257, 0.0013856027607345855
2.858247797878472, 0.0013994587883419314
2.8299483147311606, 0.0014134533762253506
2.8019290244862978, 0.001427587909987604
2.7741871529567304, 0.00144186378908748
2.7467199534225055, 0.001456282426978355
2.719524706358916, 0.0014708452512481385
2.6925987191672434, 0.00148555370376062
2.6659393259081616, 0.0015004092407982263
2.639543887037784, 0.0015154133332062085
2.613409789146321, 0.0015305674665382705
2.5875344446993274, 0.0015458731412036533
2.5619152917815122, 0.0015613318726156898
2.536549793843082, 0.0015769451913418466
2.511435439448596, 0.001592714643255265
2.4865697420283124, 0.0016086417896878178
2.4619502396319928, 0.001624728207584696
2.4375744946851414, 0.0016409754896605428
2.4134400937476648, 0.0016573852445571483
2.3895446472749153, 0.00167395909700272
2.365885789381104, 0.0016906986879727472
2.3424611776050535, 0.0017076056748524747
2.3192684926782707, 0.0017246817316009994
2.2963054382953176, 0.0017419285489170095
2.273569740886453, 0.0017593478344061796
2.251059149392528, 0.0017769413127502415
2.2287714350421064, 0.001794710725877744
2.2067043911307986, 0.0018126578331365214
2.184855832802771, 0.0018307844114678867
2.163223596834426, 0.0018490922555825656
2.141805541420224, 0.0018675831781383913
2.120599545960618, 0.0018862590099197752
2.099603510852097, 0.001905121600018973
2.078815357279304, 0.0019241728160191627
2.0582330270092117, 0.0019434145441793542
2.037854482187339, 0.0019628486896211476
2.017677705135979, 0.001982477176517359
1.9977006981544343, 0.002002301948282533
1.9779214833212222, 0.002022324967765358
1.9583381022982396, 0.002042548217443012
1.9389486161368708, 0.002062973699617442
1.9197511050860105, 0.0020836034366136166
1.900743668401991, 0.0021044394709797526
1.8819244241603872, 0.00212548386568955
1.86329150906969, 0.0021467387043464458
1.844843078286822, 0.00216820609138991
1.826577305234477, 0.0021898881523038094
1.8084923814202745, 0.0022117870338268474
1.7905865162576975, 0.0022339049041651157
1.7728579368888095, 0.0022562439532067668
1.7553048880087223, 0.0022788063927388345
1.7379256316918041, 0.0023015944566662228
1.7207184472196082, 0.002324610401232885
1.7036816309105032, 0.002347856505245214
1.686813495950993, 0.002371335070297666
1.6701123722287061, 0.0023950484210006426
1.6535766061670358, 0.002418998905210649
1.6372045605614214, 0.0024431888942627556
1.620994614417249, 0.002467620783205383
1.6049451627893554, 0.002492296991037437
1.589054616623124, 0.0025172199609478116
1.5733214025971525, 0.0025423921605572898
1.5577439629674779, 0.0025678160821628626
1.5423207554133445, 0.002593494242984491
1.5270502528844994, 0.002619429185414336
1.5119309434499992, 0.0026456234772684797
1.496961330148514, 0.0026720797120411647
1.4821399308401126, 0.0026988005091615765
1.4674652780595174, 0.0027257885142531924
1.4529359188708095, 0.0027530463993957243
1.4385504147235737, 0.0027805768633896817
1.424307341310469, 0.0028083826320235783
1.410205288426207, 0.002836466458343814
1.3962428598279277, 0.002864831122927252
1.382418673096958, 0.0028934794341565245
1.3687313595019388, 0.0029224142284980897
1.3551795638633057, 0.002951638370783071
1.3417619444191147, 0.0029811547544909014
1.3284771726921927, 0.0030109663020358103
1.3153239333586066, 0.0030410759650561685
1.3023009241174321, 0.0030714867247067304
1.2894068555618141, 0.003102201591953798
1.276640451051301, 0.003133223607873336
1.2640004465854466, 0.003164555843952069
1.25148559067866, 0.0031962014023915897
1.239094644236297, 0.003228163416415506
1.2268263804319772, 0.003260445050579661
1.214679584586116, 0.0032930495010854576
1.2026530540456593, 0.0033259799960963124
1.1907455980650092, 0.0033592397960572756
1.1789560376881278, 0.0033928321940178484
1.1672832056318099, 0.003426760515958027
1.1557259461701088, 0.003461028121117607
1.1442831150199098, 0.003495638402328783
1.1329535792276333, 0.003530594786352071
1.1217362170570628, 0.0035659007342155914
1.11062991787828, 0.0036015597415577473
1.099633582057703, 0.0036375753389733248
1.0887461208492109, 0.003673951092363058
1.0779664562863474, 0.003710690603286689
1.0672935210755914, 0.003747797509319556
1.0567262584906845, 0.0037852754844127515
1.0462636222680044, 0.003823128239256879
1.0359045765029746, 0.0038613595216494476
1.0256480955474998, 0.003899973116865942
1.0154931639084155, 0.0039389728480346015
1.005438776146946, 0.003978362576514948
0.9954839367791545, 0.004018146202280097
0.9856276601773806, 0.004058327664302899
0.975868970472654, 0.004098910940945928
0.9662069014580732, 0.004139900050355388
0.9566404964931418, 0.0041812990508589415
0.9471688084090512, 0.004223112041367531
0.937790899414902, 0.004265343161781207
0.9285058410048536, 0.004307996593399019
0.9193127138661915, 0.004351076559333009
0.9102106077883084, 0.0043945873249263395
0.9011986215725826, 0.004438533198175603
0.892275862943151, 0.00448291853015736
0.8834414484585654, 0.004527747715458933
0.8746945034243222, 0.004573025192613522
0.8660341618062596, 0.004618755444539657
0.8574595661448116, 0.004664942998985054
0.8489698674701105, 0.004711592428974904
0.8405642252179312, 0.004758708353264653
0.8322418071464665, 0.0048062954367973
0.8240017892539271, 0.004854358391165273
0.8158433556969575, 0.004902901975076926
0.8077656987098589, 0.004951930994827695
0.7997680185246129, 0.005001450304775972
0.7918495232916959, 0.005051464807823732
0.784009429001679, 0.005101979455901969
0.776246959407603, 0.005152999250460989
0.7685613459481219, 0.0052045292429655984
0.7609518276714078, 0.005256574535395254
0.7534176511598097, 0.005309140280749206
0.7459580704552572, 0.0053622316835566985
0.7385723469854032, 0.0054158540003922655
0.7312597494904981, 0.0054700125403961885
0.7240195539509883, 0.0055247126658001505
0.71685104351583, 0.005579959792458152
0.7097535084315147, 0.005635759390382734
0.7027262459717968, 0.005692116984286561
0.6957685603681156, 0.005749038154129427
0.6888797627407085, 0.005806528535670721
0.6820591710304045, 0.005864593821027429
0.6753061099310934, 0.005923239759237703
0.6686199108228649, 0.00598247215683008
0.6619999117058067, 0.006042296878398381
0.6554454571344622, 0.0061027198471823646
0.6489558981529328, 0.0061637470456541886
0.6425305922306266, 0.00622538451611073
0.6361689031986402, 0.006287638361271838
0.6298702011867724, 0.006350514744884557
0.6236338625611607, 0.0064140198923334025
0.6174592698625354, 0.006478160091256737
0.6113458117450845, 0.0065429416921693045
0.6052928829159252, 0.0066083711090909976
0.5992998840751735, 0.0066744548201819074
0.5933662218566074, 0.006741199368383727
0.5874913087689182, 0.006808611362067564
0.5816745631375427, 0.00687669747568824
0.5759154090470721, 0.006945464450445122
0.5702132762842297, 0.007014919094949574
0.5645676002814155, 0.00708506828589907
0.5589778220608075, 0.007155918968758061
0.5534433881790173, 0.007227478158445641
0.5479637506722943, 0.007299752940030098
0.5425383670022716, 0.007372750469430399
0.5371667000022491, 0.007446477974124703
0.531848217824009, 0.00752094275386595
0.5265823938851575, 0.007596152181404609
0.5213687068169875, 0.0076721137032186556
0.516206640412859, 0.0077488348402508424
0.511095683577088, 0.007826323188653351
0.5060353302743447, 0.007904586420539884
0.5010250794795491, 0.007983632284745284
0.4960644351282664, 0.008063468607592737
0.49115290606759043, 0.008144103293668666
0.4862900060075153, 0.008225544326605352
0.4814752534727874, 0.008307799769871406
0.47670817175523506, 0.00839087776757012
0.4719882888665694, 0.00847478654524582
0.46731513749165293, 0.008559534410698278
0.4626882549422306, 0.008645129754805261
0.45810718311111936, 0.008731581052353315
0.45357146842685087, 0.008818896862876848
0.4490806618087632, 0.008907085831505616
0.4446343186225378, 0.008996156689820673
0.44023199863617607, 0.00908611825671888
0.43587326597641196, 0.009176979439286068
0.4315576890855564, 0.009268749233678928
0.42728484067876876, 0.009361436726015717
0.42305429770175124, 0.009455051093275874
0.4188656412888626, 0.009549601604208632
0.41471845672164614, 0.009645097620250719
0.4106123333877685, 0.009741548596453226
0.4065468647403648, 0.009838964082417759
0.4025216482577869, 0.009937353723241936
0.3985362854037494, 0.010036727260474356
0.39459038158787074, 0.0101370945330791
0.39068354612660466, 0.01023846547840989
0.38681539220455907, 0.01034085013319399
0.3829855368361971, 0.01044425863452593
0.3791936008279179, 0.010548701220871188
0.3754392087405128, 0.010654188233079901
0.37172198885199287, 0.0107607301154107
0.368041573120785, 0.010868337416564807
0.3643975971492921, 0.010977020790730456
0.3607897001478139, 0.01108679099863776
0.35721752489882563, 0.011197658908624139
0.3536807177216095, 0.01130963549771038
0.3501789284372372, 0.011422731852687483
0.3467118103338982, 0.011536959171214358
0.3432790201325725, 0.011652328762926501
0.3398802179530421, 0.011768852050555766
0.33651506728023967, 0.011886540571061324
0.3331832349309304, 0.012005405976771938
0.3298843910207231, 0.012125460036539658
0.326618208931409, 0.012246714636905055
0.3233843652786228, 0.012369181783274105
0.32018253987982453, 0.012492873601106846
0.3170124157225986, 0.012617802337117914
0.3138736789332659, 0.012743980360489094
0.31076601874580784, 0.012871420164093985
0.30768912747109683, 0.013000134365734925
0.3046427004664325, 0.013130135709392275
0.3016264361053787, 0.013261437066486198
0.2986400357478997, 0.013394051437151059
0.2956832037107918, 0.01352799195152257
0.2927556472384077, 0.013663271871037797
0.289857076473671, 0.013799904589748176
0.2869872044293772, 0.013937903635645657
0.2841457469597794, 0.014077282672002114
0.28133242273245485, 0.014218055498722135
0.27854695320045036, 0.014360236053709357
0.2757890625747033, 0.01450383841424645
0.273058477796736, 0.014648876798388914
0.2703549285116198, 0.014795365566372802
0.26767814704120774, 0.01494331922203653
0.2650278683576314, 0.015092752414256895
0.2624038300570608, 0.015243679938399464
0.25980577233372354, 0.015396116737783459
0.25723343795418174, 0.015550077905161294
0.25468657223186314, 0.015705578684212906
0.2521649230018447, 0.015862634471055036
0.2496682405958858, 0.016021260815765586
0.24719627781770873, 0.016181473423923242
0.2447487899185235, 0.016343288158162474
0.24232553457279554, 0.0165067210397441
0.23992627185425303, 0.01667178825014154
0.2375507642121317, 0.016838506132642955
0.23519877644765513, 0.017006891193969385
0.23287007569074766, 0.017176960105909078
0.2305644313769779, 0.01734872970696817
0.2282816152247306, 0.01752221700403785
0.22602140121260453, 0.01769743917407823
0.2237835655570342, 0.017874413565819012
0.22156788669013286, 0.018053157701477203
0.21937414523775528, 0.018233689278491977
0.2172021239977775, 0.018416026171276897
0.21505160791859157, 0.018600186432989666
0.21292238407781344, 0.018786188297319564
0.2108142416612014, 0.01897405018029276
0.2087269719417836, 0.019163790682095685
0.20666036825919168, 0.019355428588916642
0.2046142259991997, 0.019548982874805807
0.20258834257346503, 0.019744472703553867
0.20058251739947033, 0.019941917430589404
0.1985965518806637, 0.0201413366048953
0.19663024938679574, 0.020342749970944252
0.1946834152344512, 0.020546177470653695
0.1927558566677735, 0.02075163924536023
0.19084738283937971, 0.020959155637813833
0.18895780479146504, 0.021168747194191973
0.1870869354370941, 0.021380434666133895
0.1852345895416773, 0.021594239012795235
0.183400583704631, 0.021810181402923186
0.18158473634121883, 0.022028283216952417
0.1797868676645731, 0.02224856604912194
0.17800679966789415, 0.02247105170961316
0.1762443561068259, 0.02269576222670929
0.17449936248200584, 0.022922719848976383
0.17277164602178796, 0.023151947047466148
0.17106103566513658, 0.02338346651794081
0.1693673620446897, 0.023617301183120217
0.16769045746998978, 0.02385347419495142
0.166030155910881, 0.024092008936900933
0.16438629298107027, 0.024332929026269944
0.16275870592185177, 0.024576258316532644
0.16114723358599184, 0.02482202089969797
0.1595517164217741, 0.02507024110869495
0.15797199645720209, 0.0253209435197819
0.1564079172843585, 0.02557415295497972
0.1548593240439193, 0.025829894484529516
0.15332606340982108, 0.026088193429374813
0.1518079835740803, 0.02634907536366856
0.15030493423176264, 0.026612566117305246
0.14881676656610163, 0.0268786917784783
0.147343333233764, 0.02714747869626308
0.14588448835026138, 0.027418953483225712
0.14444008747550632, 0.027693143018057968
0.1430099875995112, 0.027970074448238548
0.14159404712822893, 0.028249775192720934
0.14019212586953358, 0.028532272944648145
0.13880408501934016, 0.02881759567409463
0.13742978714786155, 0.029105771630835574
0.13606909618600152, 0.02939682934714393
0.13472187741188268, 0.02969079764061537
0.13338799743750762, 0.029987705617021524
0.13206732419555212, 0.03028758267319174
0.1307597269262892, 0.030590458499923655
0.12946507616464278, 0.03089636308492289
0.1281832437273691, 0.03120532671577212
0.12691410270036546, 0.03151737998292984
0.1256575274261044, 0.03183255378275914
0.12441339349119247, 0.03215087932058673
0.12318157771405196, 0.0324723881137926
0.12196195813272472, 0.032797111994930524
0.12075441399279675, 0.03312508311487983
0.11955882573544233, 0.03345633394602863
0.11837507498558644, 0.03379089728548892
0.11720304454018458, 0.03412880625834381
0.1160426183566184, 0.03447009432092725
0.11489368154120634, 0.03481479526413652
0.11375612033782805, 0.03516294321677789
0.11262982211666143, 0.03551457264894567
0.11151467536303111, 0.03586971837543513
0.11041056966636743, 0.03622841555918948
0.10931739570927468, 0.03659069971478138
0.1082350452567076, 0.03695660671192919
0.10716341114525506, 0.03732617277904848
0.10610238727252976, 0.03769943450683897
0.10505186858666313, 0.03807642885190736
0.10401175107590407, 0.038457193140426435
0.10298193175832086, 0.0388417650718307
0.10196230867160481, 0.03923018272254901
0.10095278086297507, 0.039622484549774496
0.09995324837918322, 0.040018709395272245
0.09896361225661705, 0.04041889648922497
0.09798377451150203, 0.04082308545411722
0.09701363813020004, 0.04123131630865839
0.096053107059604, 0.04164362947174497
0.09510208619762772, 0.04206006576646242
0.09416048138378982, 0.042480666424127046
0.09322819938989091, 0.04290547308836832
0.09230514791078308, 0.043334527819252004
0.09139123555523077, 0.043767873097444523
0.09048637183686215, 0.04420555182841897
0.08959046716521005, 0.04464760734670316
0.08870343283684162, 0.04509408342017019
0.08782518102657587, 0.045545024254371895
0.08695562477878799, 0.04600047449691561
0.08609467799879998, 0.04646047924188477
0.08524225544435643, 0.046925084034303614
0.08439827271718459, 0.04739433487464665
0.0835626462546382, 0.04786827822339312
0.08273529332142396, 0.04834696100562705
0.08191613200140986, 0.04883043061568332
0.08110508118951472, 0.04931873492184015
0.08030206058367793, 0.04981192227105855
0.07950699067690885, 0.050310041493769136
0.0787197927494147, 0.05081314190870683
0.07794038886080663, 0.0513212733277939
0.07716870184238281, 0.051834486061071834
0.07640465528948794, 0.05235283092168255
0.07564817355394844, 0.05287635923089938
0.07489918173658261, 0.053405122823208376
0.07415760567978476, 0.05393917405144046
0.07342337196018293, 0.05447856579195487
0.07269640788136923, 0.05502335144987442
0.07197664146670221, 0.05557358496437317
0.0712640014521804, 0.0561293208140169
0.07055841727938654, 0.05669061402215707
0.06985981908850153, 0.05725752016237864
0.06916813771138765, 0.05783009536400242
0.06848330466474024, 0.05840839631764245
0.06780525214330717, 0.058992480280818875
0.06713391301317542, 0.05958240508362706
0.06646922080512417, 0.060178229134463336
0.06581110970804374, 0.06078001142580797
0.06515951456241954, 0.06138781154006605
0.06451437085388073, 0.06200168965546671
0.0638756147068126, 0.06262170655202137
0.0632431828780323, 0.06324792361754158
0.06261701275052702, 0.063880402853717
0.061997042327254476, 0.06451920688225417
0.061383210225004425, 0.06516439895107672
0.06077545566832121, 0.06581604294058749
0.06017371848348635, 0.06647420336999336
0.05957793909256075, 0.06713894540369329
0.05898805850748589, 0.06781033485773022
0.058404018324243454, 0.06848843820630753
0.057825760717072724, 0.0691733225883706
0.05725322843274528, 0.0698650558142543
0.05668636478489632, 0.07056370637239684
0.056125113648412196, 0.0712693434361208
0.05556941945387346, 0.07198203687048202
0.055019227182052925, 0.07270185723918685
0.054474482358468246, 0.07342887581157871
0.053935131047988354, 0.0741631645696945
0.053401119849493424, 0.07490479621539145
0.052872395890587544, 0.07565384417754537
0.05234890682236391, 0.07641038261932082
0.05183060081422169, 0.07717448644551403
0.05131742654873435, 0.07794623130996917
0.05080933321656866, 0.07872569362306886
0.050306270511454115, 0.07951295055929955
0.0498081886252021, 0.08030808006489254
0.04931503824277436, 0.08111116086554146
0.04882677053740035, 0.08192227247419688
0.04834333716574292, 0.08274149519893885
0.047864690263111805, 0.08356891015092824
0.047390782438724556, 0.08440459925243753
0.04692156677101442, 0.0852486452449619
0.04645699680298457, 0.08610113169741151
0.04599702653760848, 0.08696214301438564
0.045541610433275724, 0.08783176444452949
0.045090703399282894, 0.08871008208897478
0.044644260791369204, 0.08959718290986453
0.04420223840729624, 0.09049315473896317
0.043764592482471526, 0.0913980862863528
0.04333127968561538, 0.09231206714921633
0.04290225711447067, 0.0932351878207085
0.04247748229155512, 0.09416753969891559
0.04205691315995556, 0.09510921509590474
0.04164050807916392, 0.09606030724686379
0.04122822582095438, 0.09702091031933242
0.040820025565301364, 0.09799111942252575
0.040415866896337985, 0.09897103061675101
0.040015709798354435, 0.09996074092291853
0.03961951465183607, 0.10096034833214772
0.03922724222954067, 0.1019699518154692
0.03883885369261452, 0.1029896513336239
0.038454310586747045, 0.10401954784696013
0.03807357483836341, 0.10505974332542974
0.037696608750854864, 0.10611034075868403
0.0373233750008464, 0.10717144416627088
0.036953836634501386, 0.10824315860793358
0.03658795706386276, 0.10932559019401292
0.036225700063230455, 0.11041884609595305
0.03586702976557471, 0.11152303455691258
0.03551191065898486, 0.1126382649024817
0.035160307583153326, 0.11376464755150652
0.03481218572589438, 0.11490229402702158
0.034467510619697404, 0.1160513169672918
0.03412624813831427, 0.11721183013696472
0.033788364493380456, 0.11838394843833437
0.03345382623106976, 0.11956778792271772
0.03312260022878194, 0.1207634658019449
0.03279465369186331, 0.12197110045996434
0.03246995415035971, 0.12319081146456398
0.032148469455801694, 0.12442271957920963
0.03183016777802148, 0.12566694677500173
0.03151501760200146, 0.12692361624275175
0.03120298772475392, 0.12819285240517928
0.030894047252231605, 0.12947478092923106
0.030588165596268917, 0.13076952873852338
0.030285312471553385, 0.1320772240259086
0.02998545789262711, 0.1333979962661677
0.029688572170917932, 0.13473197622882938
0.02939462591179993, 0.13607929599111768
0.0291035900116831, 0.13744008895102885
0.02881543565513178, 0.13881448984053915
0.028530134312011665, 0.14020263473894454
0.028247657734665012, 0.141604661086334
0.027967977955113875, 0.14302070769719732
0.027691067282290965, 0.1444509147741693
0.027416898299297988, 0.145895423921911
0.027145443860691076, 0.1473543781611301
0.026876677089793147, 0.1488279219427414
0.02661057137603282, 0.1503162011621688
0.026347100372309723, 0.15181936317379047
0.026086237992385863, 0.15333755680552838
0.025827958408302838, 0.15487093237358365
0.025572236047824593, 0.15641964169731948
0.025319045591905537, 0.15798383811429267
0.025068361972183702, 0.1595636764954356
0.024820160368498715, 0.16115931326038996
0.02457441620643437, 0.16277090639299385
0.024331105154885513, 0.1643986154569238
0.024090203123649026, 0.16604260161149303
0.02385168626103864, 0.16770302762760797
0.023615530951523404, 0.16938005790388405
0.023381713813389507, 0.1710738584829229
0.023150211696425255, 0.17278459706775212
0.022921001679628968, 0.17451244303842964
0.02269406106893957, 0.17625756746881394
0.022469367394989677, 0.17802014314350206
0.022246898410880865, 0.1798003445749371
0.022026632089981055, 0.18159834802068647
0.021808546623743617, 0.18341433150089334
0.021592620419548136, 0.1852484748159023
0.02137883209856251, 0.1871009595640613
0.021167160493626245, 0.18897196915970194
0.0209575846471547, 0.19086168885129895
0.020750083809064058, 0.19277030573981194
0.02054463743471689, 0.19469800879721005
0.02034122518288801, 0.19664498888518214
0.020139826913750505, 0.19861143877403398
0.019940422686881686, 0.20059755316177433
0.0197429927592888, 0.20260352869339207
0.019547517583454254, 0.204629563980326
0.01935397780540025, 0.20667585962012927
0.01916235426277253, 0.20874261821633056
0.018972627982943097, 0.21083004439849387
0.018784780181131777, 0.2129383448424788
0.018598792258546316, 0.2150677282909036
0.018414645800540905, 0.21721840557381264
0.018232322574792976, 0.21939058962955077
0.018051804529497995, 0.22158449552584628
0.01787307379158217, 0.22380034048110475
0.01769611266493284, 0.22603834388591582
0.01752090362864638, 0.22829872732477496
0.017347429335293447, 0.2305817145980227
0.017175672609201432, 0.23288753174400292
0.017005616444753895, 0.23521640706144295
0.016837244004706826, 0.23756857113205737
0.01667053861852161, 0.23994425684337795
0.016505483780714467, 0.24234369941181172
0.016342063149222243, 0.24476713640592984
0.016180260543784398, 0.24721480776998914
0.01602005994434099, 0.24968695584768902
0.015861445489446523, 0.2521838254061659
0.01570440147469953, 0.25470566366022757
0.015548912351187653, 0.25725272029682983
0.015394962723948172, 0.25982524749979813
0.015242537350443734, 0.26242349997479614
0.0150916211390532, 0.2650477349745441
0.014942199147577427, 0.26769821232428953
0.014794256581759828, 0.27037519444753244
0.014647778793821613, 0.27307894639200775
0.014502751281011498, 0.27580973585592783
0.014359159684169799, 0.27856783321448714
0.01421698978630673, 0.281353511546632
0.014076227511194781, 0.28416704666209835
0.013936858921975031, 0.28700871712871934
0.01379887021977726, 0.2898788043000065
0.01366224774235372, 0.2927775923430066
0.013526977962726457, 0.2957053682664367
0.013393047487847977, 0.29866242194910103
0.013260443057275225, 0.30164904616859206
0.013129151541856655, 0.304665536630278
0.012999159942432333, 0.3077121919965808
0.012870455388546866, 0.3107893139165466
0.012743025137175113, 0.31389720705571206
0.012616856571460508, 0.3170361791262692
0.01249193719946585, 0.32020654091753187
0.012368254652936485, 0.3234086063267072
0.012245796686075727, 0.3266426923899743
0.012124551174332403, 0.329909119313874
0.012004506113200399, 0.33320821050701277
0.011885649617030097, 0.3365402926120829
0.011767969917851583, 0.3399056955382037
0.011651455364209487, 0.3433047524935858
0.011536094420009394, 0.3467378000185216
0.011421875663375637, 0.3502051780187068
0.011308787785520432, 0.3537072297988939
0.01119681958962419, 0.35724430209688285
0.011085959989726921, 0.36081674511785167
0.010976198009630615, 0.3644249125690302
0.01086752278181249, 0.3680691616947205
0.010759923546349, 0.3717498533116677
0.010653389649850494, 0.3754673518447844
0.01054791054440643, 0.37922202536323224
0.010443475786541019, 0.3830142456168646
0.010340075036179227, 0.38684438807303323
0.010237698055622997, 0.39071283195376355
0.010136334708537621, 0.3946199602733012
0.01003597495894814, 0.3985661598760342
0.009936608870245682, 0.40255182147479457
0.009838226604203646, 0.4065773396895425
0.009740818420003608, 0.41064311308643797
0.0096443746732709, 0.41474954421730237
0.009548885815119703, 0.4188970396594754
0.009454342391207626, 0.42308601005607016
0.00936073504079963, 0.4273168701566309
0.009268054495841217, 0.4315900388581972
0.009176291580040808, 0.4359059392467792
0.009085437207961197, 0.44026499863924695
0.008995482384119997, 0.4446676486256394
0.008906418202099007, 0.4491143251118958
0.008818235843662384, 0.4536054683630148
0.008730926577883547, 0.45814152304664496
0.00864448176028074, 0.4627229382771114
0.008558892831961129, 0.4673501676598825
0.008474151318773394, 0.4720236693364814
0.008390248830468707, 0.4767439060298462
0.008307177059870007, 0.48151134509014465
0.008224927782049512, 0.4863264585410461
0.008143492853514367, 0.4911897231264566
0.008062864211400364, 0.49610162035772115
0.007983033872673628, 0.5010626365612983
0.007903993933340226, 0.5060732629269113
0.00782573656766359, 0.5111339955561804
0.007748254027389693, 0.5162453355117422
0.007671538640979894, 0.5214077888668597
0.00759558281285138, 0.5266218667555282
0.007520379022625129, 0.5318880854230835
0.007445919824381316, 0.5372069662773143
0.007372197845922095, 0.5425790359400875
0.007299205788041679, 0.5480048262994883
0.007226936423803643, 0.5534848745624832
0.007155382597825389, 0.559019723308108
0.007084537225569692, 0.5646099205411891
0.007014393292643259, 0.570256019746601
0.006944943854102236, 0.5759585799440671
0.00687618203376459, 0.5817181657435078
0.006808101023529297, 0.5875353474009428
0.006740694082702274, 0.5934107008749523
0.006673954537328984, 0.5993448078837018
0.006607875779533648, 0.6053382559625389
0.0065424512668649975, 0.6113916385221643
0.006477674521648513, 0.6175055549073859
0.006413539130345062, 0.6236806104564597
0.006350038742915903, 0.6299174165610243
0.006287167072193964, 0.6362165907266345
0.00622491789326135, 0.6425787566339008
0.00616328504283302, 0.6490045442002399
0.006102262418646555, 0.6554945896422423
0.006041843978857975, 0.6620495355386647
0.005982023741443539, 0.6686700308940514
0.005922795783607464, 0.6753567312029919
0.00586415424119551, 0.6821102985150218
0.005806093308114366, 0.6889314015001721
0.005748607235756797, 0.6958207155151738
0.005691690332432473, 0.7027789226703255
0.0056353369628044285, 0.7098067118970287
0.005579541547331117, 0.716904779015999
0.005524298561713978, 0.7240738268061591
0.005469602536350472, 0.7313145650742207
0.005415448055792547, 0.7386277107249629
0.005361829758210443, 0.7460139878322125
0.005308742334861824, 0.7534741277105347
0.005256180529566162, 0.7610088689876401
0.005204139138184318, 0.7686189576775165
0.005152613008103286, 0.7763051472542917
0.005101597037726025, 0.7840681987268346
0.005051086175966361, 0.791908880714103
0.005001075421748873, 0.799827969521244
0.004951559823513735, 0.8078262492164565
0.00490253447872647, 0.8159045117086211
0.004853994533392545, 0.8240635568257073
0.004805935181576777, 0.8323041923939644
0.004758351664927502, 0.840627234317904
0.004711239272205448, 0.849033506661083
0.004664593338817275, 0.8575238417276938
0.004618409246353738, 0.8660990801449707
0.004572682422132414, 0.8747600709464204
0.0045274083387449645, 0.8835076716558846
0.004482582513608876, 0.8923427483724434
0.00443820050852364, 0.9012661758561679
0.004394257929231327, 0.9102788376147295
0.004350750424981511, 0.9193816259908768
0.004307673688100506, 0.9285754422507856
0.004265023453564857, 0.9378611966732935
0.004222795498579067, 0.9472398086400264
0.004180985642157491, 0.9567122067264268
0.004139589744710387, 0.966279328793691
0.004098603707634047, 0.975942122081628
0.004058023472904996, 0.9857015433024443
0.004017845022678215, 0.9955585587354687
0.004, 1
*Contact Pair, interaction=INTERFACE, type=NODE TO SURFACE, adjust=0, smooth=0
S_FUEL_RIGHT, S_CLAD_LEFT
*Amplitude, name=POWER, time=TOTAL TIME
0, 0, 0.5, 0.4, 1.5, 1, 3, 0.8
4.5, 1.2, 6, 1
*Amplitude, name=INTERNAL_PRESSURE, time=TOTAL TIME
0, 0, 0.5, 0.25, 1.5, 1, 3, 0.7
4.5, 1.1, 6, 1
*Amplitude, name=EXTERNAL_PRESSURE, time=TOTAL TIME
0, 0, 0.5, 0.8, 1.5, 1, 3, 1.2
4.5, 0.9, 6, 1
*Amplitude, name=AXIAL_SLIDE, time=TOTAL TIME
0, 0, 0.5, 6e-5, 1.5, 2.4e-4, 3, 3.6e-4
4.5, 4.8e-4, 6, 6e-4
*Step, name=PCMI, nlgeom=YES, inc=96
*Coupled Temperature-Displacement
.0625, 6, .0625, .0625
*Controls, parameters=FIELD, field=DISPLACEMENT
1e-10, 1e-10, , , , 1e-10
*Controls, parameters=FIELD, field=TEMPERATURE
1e-10, 1e-10, , , , 1e-10
*Boundary
FUEL_LEFT, 1, 1, 0
CLAD_BOTTOM, 2, 2, 0
CLAD_RIGHT, 11, 11, 600
*Boundary, amplitude=AXIAL_SLIDE
FUEL_TOP, 2, 2, 1
*Dflux, amplitude=POWER
FUEL, BF, 2e7
*Dsload, amplitude=INTERNAL_PRESSURE
S_CLAD_LEFT, P, 5e5
*Dsload, amplitude=EXTERNAL_PRESSURE
S_CLAD_RIGHT, P, 2e6
*Output, field, frequency=1
*Node Output
NT, U, RF, RFL
*Element Output, directions=YES
S, EE, PE, PEEQ, CE, CEEQ, COORD, IVOL, HFL
*Contact Output
CSTRESS, CDISP, CFORCE, HFL
*Output, history, frequency=0
*End Step
