*Heading
** Two CPEG8T blocks, frictionless penalty contact and constant gap conductance.
*Preprint, echo=NO, model=NO, history=NO, contact=NO
*Node
1,-.01,-.01
2,.01,-.01
3,.01,0
4,-.01,0
5,0,-.01
6,.01,-.005
7,0,0
8,-.01,-.005
9,-.01,.0001
10,.01,.0001
11,.01,.0101
12,-.01,.0101
13,0,.0001
14,.01,.0051
15,0,.0101
16,-.01,.0051
17,0,0
18,0,0
*Element,type=CPEG8T,elset=LOWER
1,1,2,3,4,5,6,7,8
*Element,type=CPEG8T,elset=UPPER
2,9,10,11,12,13,14,15,16
*Nset,nset=FIELD,generate
1,16,1
*Nset,nset=BOTTOM
1,2,5
*Nset,nset=TOP
11,12,15
*Nset,nset=CONTROLS
17,18
*Material,name=SOLID
*Elastic
1e6,.25
*Plastic
500,0
1500,.1
*Creep,law=TIME
1e-7,1,0
*Expansion,zero=300
1e-5
*Conductivity
10
*Density
1000
*Specific Heat
100
*Solid Section,elset=LOWER,material=SOLID,ref node=17
.1,0,0
*Solid Section,elset=UPPER,material=SOLID,ref node=18
.1,0,0
*Surface,name=PRIMARY,type=ELEMENT
LOWER,S3
*Surface,name=SECONDARY,type=ELEMENT
UPPER,S1
*Surface Interaction,name=INTERFACE
.1
*Surface Behavior,pressure-overclosure=LINEAR
1e9
*Gap Conductance
1000,0
1000,1
*Contact Pair,interaction=INTERFACE,type=SURFACE TO SURFACE
SECONDARY,PRIMARY
*Initial Conditions,type=TEMPERATURE
FIELD,300
*Nset,nset=LOWER_NODES,generate
1,8,1
*Nset,nset=UPPER_NODES,generate
9,16,1
*Amplitude,name=PRESS,time=TOTAL TIME
0,0,.25,-.0003,.5,-.0005,.75,0
1,-.0007
*Amplitude,name=HOT,time=TOTAL TIME
0,300,1,400
*Amplitude,name=EXTEND,time=TOTAL TIME
0,0,1,.003
*Step,name=HISTORY,nlgeom=NO,inc=1000
*Coupled Temperature-Displacement
.0625,1,.0625,.0625
*Controls,parameters=FIELD,field=DISPLACEMENT
1e-12,1e-12,,,,1e-12
*Controls,parameters=FIELD,field=TEMPERATURE
1e-12,1e-12,,,,1e-12
*Boundary
FIELD,1,1,0
BOTTOM,2,2,0
BOTTOM,11,11,300
CONTROLS,4,5,0
*Boundary,amplitude=EXTEND
CONTROLS,3,3,1
*Boundary,amplitude=PRESS
TOP,2,2,1
*Boundary,amplitude=HOT
TOP,11,11,1
*Output,field,frequency=1
*Node Output
NT,U,RF,RFL
*Element Output
S,EE,PE,CE,PEEQ,CEEQ,COORD
*Contact Output
CDISP,CFORCE
*Output,history,frequency=1
*Node Output,nset=CONTROLS
U3,UR1,UR2,RF3,RM1,RM2
*End Step
