*Heading
** Two CPEG8T blocks, frictionless penalty contact and constant gap conductance.
*Preprint, echo=NO, model=NO, history=NO, contact=NO
*Node
1,-0.01,-0.01
2,0.01,-0.01
3,0.01,0.001
4,-0.01,0.001
5,0,-0.01
6,0.01,-0.0045
7,0,0
8,-0.01,-0.0045
9,-0.008,0.00074
10,0.008,0.00074
11,0.008,0.01074
12,-0.008,0.01074
13,0,0.0001
14,0.008,0.00574
15,0,0.0101
16,-0.008,0.00574
17,0,0
18,0,0
*Element,type=CPEG8T,elset=LOWER
1,1,2,3,4,5,6,7,8
*Element,type=CPEG8T,elset=UPPER
2,9,10,11,12,13,14,15,16
*Nset,nset=FIELD,generate
1,16,1
*Nset,nset=BOTTOM,generate
1,8,1
*Nset,nset=TOP,generate
9,16,1
*Nset,nset=CONTROLS
17,18
*Material,name=SOLID
*Elastic
1e6,.25
*Conductivity
10
*Density
1000
*Specific Heat
100
*Solid Section,elset=LOWER,material=SOLID,ref node=17
.1,0,0
*Solid Section,elset=UPPER,material=SOLID,ref node=18
.1,0,0
*Surface,name=PRIMARY,type=ELEMENT
LOWER,S3
*Surface,name=SECONDARY,type=ELEMENT
UPPER,S1
*Surface Interaction,name=INTERFACE
.1
*Surface Behavior,pressure-overclosure=LINEAR
1e9
*Gap Conductance
1000,0
1000,1
*Contact Pair,interaction=INTERFACE,type=SURFACE TO SURFACE
SECONDARY,PRIMARY
*Initial Conditions,type=TEMPERATURE
FIELD,300
*Boundary
FIELD,1,1,0
BOTTOM,2,2,0
CONTROLS,3,5,0
*Step,name=CONTACT,nlgeom=NO,inc=20
*Coupled Temperature-Displacement,steady state
1,1,1e-6,1
*Boundary
TOP,2,2,-.0002
TOP,11,11,400
BOTTOM,11,11,300
*Output,field,frequency=1
*Node Output
NT,U,RF,RFL
*Element Output
S,E,EE,COORD,IVOL,HFL
*Contact Output
CSTRESS,CDISP,CFORCE
*Output,history,frequency=1
*Node Output,nset=CONTROLS
U3,UR1,UR2,RF3,RM1,RM2
*End Step
