*Heading
** Deformable curved contact crossing a primary edge boundary.
*Preprint,echo=NO,model=NO,history=NO,contact=NO
*Node
1,-0.029999999999999999,-0.01
2,0,-0.01
3,0,0
4,-0.029999999999999999,0
5,-0.014999999999999999,-0.01
6,0,-0.0050000000000000001
7,-0.014999999999999999,0
8,-0.029999999999999999,-0.0050000000000000001
9,0.029999999999999999,-0.01
10,0.029999999999999999,0
11,0.014999999999999999,-0.01
12,0.029999999999999999,-0.0050000000000000001
13,0.014999999999999999,0
14,-0.017999999999999999,0.00038799999999999994
15,-0.0060000000000000001,0.0001
16,-0.0060000000000000001,0.0101
17,-0.017999999999999999,0.010388
18,-0.012,0.00017200000000000001
19,-0.0060000000000000001,0.0051000000000000004
20,-0.012,0.010172
21,-0.017999999999999999,0.0053880000000000004
22,0.0060000000000000001,0.000388
23,0.0060000000000000001,0.010388
24,0,0.00017200000000000001
25,0.0060000000000000001,0.0053880000000000004
26,0,0.010172
101,0,0
102,0,0
*Element,type=CPEG8T,elset=lower
1,1,2,3,4,5,6,7,8
2,2,9,10,3,11,12,13,6
*Element,type=CPEG8T,elset=upper
3,14,15,16,17,18,19,20,21
4,15,22,23,16,24,25,26,19
*Nset,nset=bottom
1,2,5,9,11
*Nset,nset=top
16,17,20,23,26
*Nset,nset=lower
1,2,3,4,5,6,7,8,9,10,11,12,13
*Nset,nset=upper
14,15,16,17,18,19,20,21,22,23,24,25,26
*Nset,nset=field
1,2,3,4,5,6,7,8,9,10,11,12,13,14,15,16,17,18,19,20,21,22,23,24,25,26
*Nset,nset=CONTROLS
101,102
*Material,name=SOLID
*Elastic
1e6,.25
*Conductivity
10
*Density
1000
*Specific Heat
100
*Solid Section,elset=lower,material=SOLID,ref node=101
.1,0,0
*Solid Section,elset=upper,material=SOLID,ref node=102
.1,0,0
*Surface,name=PRIMARY,type=ELEMENT
lower,S3
*Surface,name=SECONDARY,type=ELEMENT
upper,S1
*Surface Interaction,name=INTERFACE
.1
*Surface Behavior,pressure-overclosure=LINEAR
1e9
*Gap Conductance
1000,0
1000,1
*Contact Pair,interaction=INTERFACE,type=SURFACE TO SURFACE
SECONDARY,PRIMARY
*Initial Conditions,type=TEMPERATURE
field,300
*Amplitude,name=SLIDE,time=TOTAL TIME
0,0,.25,0,1,.012
*Amplitude,name=PRESS,time=TOTAL TIME
0,0,.25,-.0005,1,-.001
*Amplitude,name=HOT,time=TOTAL TIME
0,300,1,400
*Step,name=HISTORY,nlgeom=YES,inc=1000
*Coupled Temperature-Displacement,steady state
.0625,1,.0625,.0625
*Controls,parameters=FIELD,field=DISPLACEMENT
1e-12,1e-12,,,,1e-12
*Boundary
bottom,1,2,0
bottom,11,11,300
CONTROLS,3,5,0
*Boundary,amplitude=SLIDE
top,1,1,1
*Boundary,amplitude=PRESS
top,2,2,1
*Boundary,amplitude=HOT
top,11,11,1
*Output,field,frequency=1
*Node Output
NT,U,RF,RFL
*Element Output
S,EE,COORD
*Contact Output
CDISP,CFORCE
*Output,history,frequency=1
*Node Output,nset=CONTROLS
U3,UR1,UR2,RF3,RM1,RM2
*End Step
