*Heading
** Three independent mechanisms; uniform axial strain history.
*Preprint,echo=NO,model=NO,history=NO,contact=NO
*Node
1,-0.01,-0.005
2,0.01,-0.005
3,0.01,0.005
4,-0.01,0.005
5,0,-0.005
6,0.01,0
7,0,0.005
8,-0.01,0
9,0.02,-0.005
10,0.04,-0.005
11,0.04,0.005
12,0.02,0.005
13,0.03,-0.005
14,0.04,0
15,0.03,0.005
16,0.02,0
17,0.05,-0.005
18,0.06999999999999999,-0.005
19,0.06999999999999999,0.005
20,0.05,0.005
21,0.06,-0.005
22,0.06999999999999999,0
23,0.06,0.005
24,0.05,0
101,0.0,0
102,0.03,0
103,0.06,0
*Element,type=CPEG8T,elset=plastic
1,1,2,3,4,5,6,7,8
*Material,name=plastic
*Elastic
1e6,.25
*Plastic
1000,0
2000,.1
*Conductivity
10
*Density
1000
*Specific Heat
100
*Solid Section,elset=plastic,material=plastic,ref node=101
.1,0,0
*Element,type=CPEG8T,elset=creep
2,9,10,11,12,13,14,15,16
*Material,name=creep
*Elastic
1e6,.25
*Creep,law=TIME
1e-7,1,0
*Conductivity
10
*Density
1000
*Specific Heat
100
*Solid Section,elset=creep,material=creep,ref node=102
.1,0,0
*Element,type=CPEG8T,elset=coupled
3,17,18,19,20,21,22,23,24
*Material,name=coupled
*Elastic
1e6,.25
*Plastic
1000,0
2000,.1
*Creep,law=TIME
1e-7,1,0
*Conductivity
10
*Density
1000
*Specific Heat
100
*Solid Section,elset=coupled,material=coupled,ref node=103
.1,0,0
*Nset,nset=FIELD,generate
1,24,1
*Nset,nset=CONTROLS
101,102,103
*Initial Conditions,type=TEMPERATURE
FIELD,300
*Amplitude,name=EXTENSION,time=TOTAL TIME
0,0,1,.001,2,.001,3,.0002
*Step,name=HISTORY,nlgeom=NO,inc=100
*Coupled Temperature-Displacement
.25,3,.25,.25
*Controls,parameters=FIELD,field=DISPLACEMENT
1e-12,1e-12,,,,1e-12
*Boundary
FIELD,1,2,0
FIELD,11,11,300
CONTROLS,4,5,0
*Boundary,amplitude=EXTENSION
CONTROLS,3,3,1
*Output,field,frequency=1
*Node Output
NT,U,RF,RFL
*Element Output
S,EE,PE,PEEQ,CE,CEEQ,COORD,IVOL
*Output,history,frequency=1
*Node Output,nset=CONTROLS
U3,UR1,UR2,RF3,RM1,RM2
*End Step
