*Heading
** Curved two-edge secondary surface shares a nonuniform pressure constraint.
*Preprint,echo=NO,model=NO,history=NO,contact=NO
*Node
1,-0.02,-0.01
2,0,-0.01
3,0,0
4,-0.02,0
5,-0.01,-0.01
6,0,-0.0050000000000000001
7,-0.01,0
8,-0.02,-0.0050000000000000001
9,0.02,-0.01
10,0.02,0
11,0.01,-0.01
12,0.02,-0.0050000000000000001
13,0.01,0
14,-0.01,0.00015000000000000001
15,0,0.0001
16,0,0.0101
17,-0.01,0.010150000000000001
18,-0.0050000000000000001,0.00011250000000000001
19,0,0.0051000000000000004
20,-0.0050000000000000001,0.0101125
21,-0.01,0.0051500000000000001
22,0.01,0.00015000000000000001
23,0.01,0.010150000000000001
24,0.0050000000000000001,0.00011250000000000001
25,0.01,0.0051500000000000001
26,0.0050000000000000001,0.0101125
101,0,0
102,0,0
*Element,type=CPEG8T,elset=lower
1,1,2,3,4,5,6,7,8
2,2,9,10,3,11,12,13,6
*Nset,nset=lower
1,2,3,4,5,6,7,8,9,10,11,12,13
*Element,type=CPEG8T,elset=upper
3,14,15,16,17,18,19,20,21
4,15,22,23,16,24,25,26,19
*Nset,nset=upper
14,15,16,17,18,19,20,21,22,23,24,25,26
*Nset,nset=FIELD,generate
1,26,1
*Nset,nset=CONTROLS
101,102
*Material,name=SOLID
*Elastic
1e6,.25
*Conductivity
10
*Density
1000
*Specific Heat
100
*Solid Section,elset=lower,material=SOLID,ref node=101
.1,0,0
*Solid Section,elset=upper,material=SOLID,ref node=102
.1,0,0
*Surface,name=PRIMARY,type=ELEMENT
lower,S3
*Surface,name=SECONDARY,type=ELEMENT
upper,S1
*Surface Interaction,name=INTERFACE
.1
*Surface Behavior,pressure-overclosure=LINEAR
1e9
*Contact Pair,interaction=INTERFACE,type=SURFACE TO SURFACE
SECONDARY,PRIMARY
*Initial Conditions,type=TEMPERATURE
FIELD,300
*Step,name=CONTACT,nlgeom=NO,inc=10
*Coupled Temperature-Displacement,steady state
1,1,1,1
*Boundary
FIELD,1,1,0
FIELD,11,11,300
lower,2,2,0
upper,2,2,-.0003
CONTROLS,3,5,0
*Output,field,frequency=1
*Node Output
NT,U,RF,RFL
*Element Output
S,EE,COORD
*Contact Output
CDISP,CFORCE
*End Step
