*Heading
** Independent primary cells identify the averaged gap transfer.
*Preprint,echo=NO,model=NO,history=NO,contact=NO
*Node
1,-0.02,-0.01
2,-0.019375,-0.01
3,-0.019375,0
4,-0.02,0
5,-0.0196875,-0.01
6,-0.019375,-0.0050000000000000001
7,-0.0196875,0
8,-0.02,-0.0050000000000000001
9,-0.019375,-0.01
10,-0.018749999999999999,-0.01
11,-0.018749999999999999,0
12,-0.019375,0
13,-0.0190625,-0.01
14,-0.018749999999999999,-0.0050000000000000001
15,-0.0190625,0
16,-0.019375,-0.0050000000000000001
17,-0.018749999999999999,-0.01
18,-0.018124999999999999,-0.01
19,-0.018124999999999999,0
20,-0.018749999999999999,0
21,-0.018437499999999999,-0.01
22,-0.018124999999999999,-0.0050000000000000001
23,-0.018437499999999999,0
24,-0.018749999999999999,-0.0050000000000000001
25,-0.018125000000000002,-0.01
26,-0.017500000000000002,-0.01
27,-0.017500000000000002,0
28,-0.018125000000000002,0
29,-0.017812500000000002,-0.01
30,-0.017500000000000002,-0.0050000000000000001
31,-0.017812500000000002,0
32,-0.018125000000000002,-0.0050000000000000001
33,-0.017500000000000002,-0.01
34,-0.016875000000000001,-0.01
35,-0.016875000000000001,0
36,-0.017500000000000002,0
37,-0.017187500000000001,-0.01
38,-0.016875000000000001,-0.0050000000000000001
39,-0.017187500000000001,0
40,-0.017500000000000002,-0.0050000000000000001
41,-0.016875000000000001,-0.01
42,-0.016250000000000001,-0.01
43,-0.016250000000000001,0
44,-0.016875000000000001,0
45,-0.016562500000000001,-0.01
46,-0.016250000000000001,-0.0050000000000000001
47,-0.016562500000000001,0
48,-0.016875000000000001,-0.0050000000000000001
49,-0.016250000000000001,-0.01
50,-0.015625,-0.01
51,-0.015625,0
52,-0.016250000000000001,0
53,-0.0159375,-0.01
54,-0.015625,-0.0050000000000000001
55,-0.0159375,0
56,-0.016250000000000001,-0.0050000000000000001
57,-0.015625,-0.01
58,-0.014999999999999999,-0.01
59,-0.014999999999999999,0
60,-0.015625,0
61,-0.0153125,-0.01
62,-0.014999999999999999,-0.0050000000000000001
63,-0.0153125,0
64,-0.015625,-0.0050000000000000001
65,-0.014999999999999999,-0.01
66,-0.014374999999999999,-0.01
67,-0.014374999999999999,0
68,-0.014999999999999999,0
69,-0.014687499999999999,-0.01
70,-0.014374999999999999,-0.0050000000000000001
71,-0.014687499999999999,0
72,-0.014999999999999999,-0.0050000000000000001
73,-0.014375000000000001,-0.01
74,-0.01375,-0.01
75,-0.01375,0
76,-0.014375000000000001,0
77,-0.0140625,-0.01
78,-0.01375,-0.0050000000000000001
79,-0.0140625,0
80,-0.014375000000000001,-0.0050000000000000001
81,-0.01375,-0.01
82,-0.013125,-0.01
83,-0.013125,0
84,-0.01375,0
85,-0.0134375,-0.01
86,-0.013125,-0.0050000000000000001
87,-0.0134375,0
88,-0.01375,-0.0050000000000000001
89,-0.013125000000000001,-0.01
90,-0.012500000000000001,-0.01
91,-0.012500000000000001,0
92,-0.013125000000000001,0
93,-0.012812500000000001,-0.01
94,-0.012500000000000001,-0.0050000000000000001
95,-0.012812500000000001,0
96,-0.013125000000000001,-0.0050000000000000001
97,-0.012500000000000001,-0.01
98,-0.011875,-0.01
99,-0.011875,0
100,-0.012500000000000001,0
101,-0.0121875,-0.01
102,-0.011875,-0.0050000000000000001
103,-0.0121875,0
104,-0.012500000000000001,-0.0050000000000000001
105,-0.011875,-0.01
106,-0.01125,-0.01
107,-0.01125,0
108,-0.011875,0
109,-0.0115625,-0.01
110,-0.01125,-0.0050000000000000001
111,-0.0115625,0
112,-0.011875,-0.0050000000000000001
113,-0.01125,-0.01
114,-0.010624999999999999,-0.01
115,-0.010624999999999999,0
116,-0.01125,0
117,-0.010937499999999999,-0.01
118,-0.010624999999999999,-0.0050000000000000001
119,-0.010937499999999999,0
120,-0.01125,-0.0050000000000000001
121,-0.010625000000000001,-0.01
122,-0.01,-0.01
123,-0.01,0
124,-0.010625000000000001,0
125,-0.0103125,-0.01
126,-0.01,-0.0050000000000000001
127,-0.0103125,0
128,-0.010625000000000001,-0.0050000000000000001
129,-0.01,-0.01
130,-0.0093749999999999997,-0.01
131,-0.0093749999999999997,0
132,-0.01,0
133,-0.0096874999999999999,-0.01
134,-0.0093749999999999997,-0.0050000000000000001
135,-0.0096874999999999999,0
136,-0.01,-0.0050000000000000001
137,-0.0093749999999999997,-0.01
138,-0.0087499999999999991,-0.01
139,-0.0087499999999999991,0
140,-0.0093749999999999997,0
141,-0.0090624999999999994,-0.01
142,-0.0087499999999999991,-0.0050000000000000001
143,-0.0090624999999999994,0
144,-0.0093749999999999997,-0.0050000000000000001
145,-0.0087500000000000008,-0.01
146,-0.0081250000000000003,-0.01
147,-0.0081250000000000003,0
148,-0.0087500000000000008,0
149,-0.0084375000000000006,-0.01
150,-0.0081250000000000003,-0.0050000000000000001
151,-0.0084375000000000006,0
152,-0.0087500000000000008,-0.0050000000000000001
153,-0.0081250000000000003,-0.01
154,-0.0075000000000000006,-0.01
155,-0.0075000000000000006,0
156,-0.0081250000000000003,0
157,-0.0078125,-0.01
158,-0.0075000000000000006,-0.0050000000000000001
159,-0.0078125,0
160,-0.0081250000000000003,-0.0050000000000000001
161,-0.0074999999999999997,-0.01
162,-0.006875,-0.01
163,-0.006875,0
164,-0.0074999999999999997,0
165,-0.0071874999999999994,-0.01
166,-0.006875,-0.0050000000000000001
167,-0.0071874999999999994,0
168,-0.0074999999999999997,-0.0050000000000000001
169,-0.0068750000000000009,-0.01
170,-0.0062500000000000012,-0.01
171,-0.0062500000000000012,0
172,-0.0068750000000000009,0
173,-0.0065625000000000006,-0.01
174,-0.0062500000000000012,-0.0050000000000000001
175,-0.0065625000000000006,0
176,-0.0068750000000000009,-0.0050000000000000001
177,-0.0062500000000000003,-0.01
178,-0.0056250000000000007,-0.01
179,-0.0056250000000000007,0
180,-0.0062500000000000003,0
181,-0.0059375000000000001,-0.01
182,-0.0056250000000000007,-0.0050000000000000001
183,-0.0059375000000000001,0
184,-0.0062500000000000003,-0.0050000000000000001
185,-0.0056249999999999998,-0.01
186,-0.0050000000000000001,-0.01
187,-0.0050000000000000001,0
188,-0.0056249999999999998,0
189,-0.0053124999999999995,-0.01
190,-0.0050000000000000001,-0.0050000000000000001
191,-0.0053124999999999995,0
192,-0.0056249999999999998,-0.0050000000000000001
193,-0.005000000000000001,-0.01
194,-0.0043750000000000013,-0.01
195,-0.0043750000000000013,0
196,-0.005000000000000001,0
197,-0.0046875000000000007,-0.01
198,-0.0043750000000000013,-0.0050000000000000001
199,-0.0046875000000000007,0
200,-0.005000000000000001,-0.0050000000000000001
201,-0.0043750000000000004,-0.01
202,-0.0037500000000000003,-0.01
203,-0.0037500000000000003,0
204,-0.0043750000000000004,0
205,-0.0040625000000000001,-0.01
206,-0.0037500000000000003,-0.0050000000000000001
207,-0.0040625000000000001,0
208,-0.0043750000000000004,-0.0050000000000000001
209,-0.0037499999999999999,-0.01
210,-0.0031249999999999997,-0.01
211,-0.0031249999999999997,0
212,-0.0037499999999999999,0
213,-0.0034374999999999996,-0.01
214,-0.0031249999999999997,-0.0050000000000000001
215,-0.0034374999999999996,0
216,-0.0037499999999999999,-0.0050000000000000001
217,-0.0031249999999999993,-0.01
218,-0.0024999999999999992,-0.01
219,-0.0024999999999999992,0
220,-0.0031249999999999993,0
221,-0.002812499999999999,-0.01
222,-0.0024999999999999992,-0.0050000000000000001
223,-0.002812499999999999,0
224,-0.0031249999999999993,-0.0050000000000000001
225,-0.0024999999999999988,-0.01
226,-0.0018749999999999986,-0.01
227,-0.0018749999999999986,0
228,-0.0024999999999999988,0
229,-0.0021874999999999985,-0.01
230,-0.0018749999999999986,-0.0050000000000000001
231,-0.0021874999999999985,0
232,-0.0024999999999999988,-0.0050000000000000001
233,-0.0018750000000000017,-0.01
234,-0.0012500000000000015,-0.01
235,-0.0012500000000000015,0
236,-0.0018750000000000017,0
237,-0.0015625000000000016,-0.01
238,-0.0012500000000000015,-0.0050000000000000001
239,-0.0015625000000000016,0
240,-0.0018750000000000017,-0.0050000000000000001
241,-0.0012500000000000011,-0.01
242,-0.0006250000000000011,-0.01
243,-0.0006250000000000011,0
244,-0.0012500000000000011,0
245,-0.00093750000000000105,-0.01
246,-0.0006250000000000011,-0.0050000000000000001
247,-0.00093750000000000105,0
248,-0.0012500000000000011,-0.0050000000000000001
249,-0.00062500000000000056,-0.01
250,-5.4210108624275222e-19,-0.01
251,-5.4210108624275222e-19,0
252,-0.00062500000000000056,0
253,-0.00031250000000000055,-0.01
254,-5.4210108624275222e-19,-0.0050000000000000001
255,-0.00031250000000000055,0
256,-0.00062500000000000056,-0.0050000000000000001
257,0,-0.01
258,0.00062500000000000001,-0.01
259,0.00062500000000000001,0
260,0,0
261,0.00031250000000000001,-0.01
262,0.00062500000000000001,-0.0050000000000000001
263,0.00031250000000000001,0
264,0,-0.0050000000000000001
265,0.00062500000000000056,-0.01
266,0.0012500000000000007,-0.01
267,0.0012500000000000007,0
268,0.00062500000000000056,0
269,0.00093750000000000062,-0.01
270,0.0012500000000000007,-0.0050000000000000001
271,0.00093750000000000062,0
272,0.00062500000000000056,-0.0050000000000000001
273,0.0012500000000000011,-0.01
274,0.0018750000000000012,-0.01
275,0.0018750000000000012,0
276,0.0012500000000000011,0
277,0.0015625000000000012,-0.01
278,0.0018750000000000012,-0.0050000000000000001
279,0.0015625000000000012,0
280,0.0012500000000000011,-0.0050000000000000001
281,0.0018750000000000017,-0.01
282,0.0025000000000000018,-0.01
283,0.0025000000000000018,0
284,0.0018750000000000017,0
285,0.0021875000000000019,-0.01
286,0.0025000000000000018,-0.0050000000000000001
287,0.0021875000000000019,0
288,0.0018750000000000017,-0.0050000000000000001
289,0.0024999999999999988,-0.01
290,0.0031249999999999989,-0.01
291,0.0031249999999999989,0
292,0.0024999999999999988,0
293,0.002812499999999999,-0.01
294,0.0031249999999999989,-0.0050000000000000001
295,0.002812499999999999,0
296,0.0024999999999999988,-0.0050000000000000001
297,0.0031249999999999993,-0.01
298,0.0037499999999999994,-0.01
299,0.0037499999999999994,0
300,0.0031249999999999993,0
301,0.0034374999999999996,-0.01
302,0.0037499999999999994,-0.0050000000000000001
303,0.0034374999999999996,0
304,0.0031249999999999993,-0.0050000000000000001
305,0.0037499999999999999,-0.01
306,0.0043749999999999995,-0.01
307,0.0043749999999999995,0
308,0.0037499999999999999,0
309,0.0040625000000000001,-0.01
310,0.0043749999999999995,-0.0050000000000000001
311,0.0040625000000000001,0
312,0.0037499999999999999,-0.0050000000000000001
313,0.0043750000000000004,-0.01
314,0.0050000000000000001,-0.01
315,0.0050000000000000001,0
316,0.0043750000000000004,0
317,0.0046875000000000007,-0.01
318,0.0050000000000000001,-0.0050000000000000001
319,0.0046875000000000007,0
320,0.0043750000000000004,-0.0050000000000000001
321,0.005000000000000001,-0.01
322,0.0056250000000000007,-0.01
323,0.0056250000000000007,0
324,0.005000000000000001,0
325,0.0053125000000000012,-0.01
326,0.0056250000000000007,-0.0050000000000000001
327,0.0053125000000000012,0
328,0.005000000000000001,-0.0050000000000000001
329,0.0056250000000000015,-0.01
330,0.0062500000000000012,-0.01
331,0.0062500000000000012,0
332,0.0056250000000000015,0
333,0.0059375000000000018,-0.01
334,0.0062500000000000012,-0.0050000000000000001
335,0.0059375000000000018,0
336,0.0056250000000000015,-0.0050000000000000001
337,0.0062499999999999986,-0.01
338,0.0068749999999999983,-0.01
339,0.0068749999999999983,0
340,0.0062499999999999986,0
341,0.0065624999999999989,-0.01
342,0.0068749999999999983,-0.0050000000000000001
343,0.0065624999999999989,0
344,0.0062499999999999986,-0.0050000000000000001
345,0.0068749999999999992,-0.01
346,0.0074999999999999989,-0.01
347,0.0074999999999999989,0
348,0.0068749999999999992,0
349,0.0071874999999999994,-0.01
350,0.0074999999999999989,-0.0050000000000000001
351,0.0071874999999999994,0
352,0.0068749999999999992,-0.0050000000000000001
353,0.0074999999999999997,-0.01
354,0.0081250000000000003,-0.01
355,0.0081250000000000003,0
356,0.0074999999999999997,0
357,0.0078125,-0.01
358,0.0081250000000000003,-0.0050000000000000001
359,0.0078125,0
360,0.0074999999999999997,-0.0050000000000000001
361,0.0081250000000000003,-0.01
362,0.0087500000000000008,-0.01
363,0.0087500000000000008,0
364,0.0081250000000000003,0
365,0.0084375000000000006,-0.01
366,0.0087500000000000008,-0.0050000000000000001
367,0.0084375000000000006,0
368,0.0081250000000000003,-0.0050000000000000001
369,0.0087500000000000008,-0.01
370,0.0093750000000000014,-0.01
371,0.0093750000000000014,0
372,0.0087500000000000008,0
373,0.0090625000000000011,-0.01
374,0.0093750000000000014,-0.0050000000000000001
375,0.0090625000000000011,0
376,0.0087500000000000008,-0.0050000000000000001
377,0.0093750000000000014,-0.01
378,0.010000000000000002,-0.01
379,0.010000000000000002,0
380,0.0093750000000000014,0
381,0.0096875000000000017,-0.01
382,0.010000000000000002,-0.0050000000000000001
383,0.0096875000000000017,0
384,0.0093750000000000014,-0.0050000000000000001
385,0.0099999999999999985,-0.01
386,0.010624999999999999,-0.01
387,0.010624999999999999,0
388,0.0099999999999999985,0
389,0.010312499999999999,-0.01
390,0.010624999999999999,-0.0050000000000000001
391,0.010312499999999999,0
392,0.0099999999999999985,-0.0050000000000000001
393,0.010624999999999999,-0.01
394,0.01125,-0.01
395,0.01125,0
396,0.010624999999999999,0
397,0.010937499999999999,-0.01
398,0.01125,-0.0050000000000000001
399,0.010937499999999999,0
400,0.010624999999999999,-0.0050000000000000001
401,0.01125,-0.01
402,0.011875,-0.01
403,0.011875,0
404,0.01125,0
405,0.0115625,-0.01
406,0.011875,-0.0050000000000000001
407,0.0115625,0
408,0.01125,-0.0050000000000000001
409,0.011875,-0.01
410,0.012500000000000001,-0.01
411,0.012500000000000001,0
412,0.011875,0
413,0.0121875,-0.01
414,0.012500000000000001,-0.0050000000000000001
415,0.0121875,0
416,0.011875,-0.0050000000000000001
417,0.012500000000000001,-0.01
418,0.013125000000000001,-0.01
419,0.013125000000000001,0
420,0.012500000000000001,0
421,0.012812500000000001,-0.01
422,0.013125000000000001,-0.0050000000000000001
423,0.012812500000000001,0
424,0.012500000000000001,-0.0050000000000000001
425,0.013125000000000001,-0.01
426,0.013750000000000002,-0.01
427,0.013750000000000002,0
428,0.013125000000000001,0
429,0.013437500000000002,-0.01
430,0.013750000000000002,-0.0050000000000000001
431,0.013437500000000002,0
432,0.013125000000000001,-0.0050000000000000001
433,0.013750000000000002,-0.01
434,0.014375000000000002,-0.01
435,0.014375000000000002,0
436,0.013750000000000002,0
437,0.014062500000000002,-0.01
438,0.014375000000000002,-0.0050000000000000001
439,0.014062500000000002,0
440,0.013750000000000002,-0.0050000000000000001
441,0.014375000000000002,-0.01
442,0.015000000000000003,-0.01
443,0.015000000000000003,0
444,0.014375000000000002,0
445,0.014687500000000003,-0.01
446,0.015000000000000003,-0.0050000000000000001
447,0.014687500000000003,0
448,0.014375000000000002,-0.0050000000000000001
449,0.015000000000000003,-0.01
450,0.015625000000000003,-0.01
451,0.015625000000000003,0
452,0.015000000000000003,0
453,0.015312500000000003,-0.01
454,0.015625000000000003,-0.0050000000000000001
455,0.015312500000000003,0
456,0.015000000000000003,-0.0050000000000000001
457,0.015625000000000003,-0.01
458,0.016250000000000004,-0.01
459,0.016250000000000004,0
460,0.015625000000000003,0
461,0.015937500000000004,-0.01
462,0.016250000000000004,-0.0050000000000000001
463,0.015937500000000004,0
464,0.015625000000000003,-0.0050000000000000001
465,0.016249999999999997,-0.01
466,0.016874999999999998,-0.01
467,0.016874999999999998,0
468,0.016249999999999997,0
469,0.016562499999999997,-0.01
470,0.016874999999999998,-0.0050000000000000001
471,0.016562499999999997,0
472,0.016249999999999997,-0.0050000000000000001
473,0.016874999999999998,-0.01
474,0.017499999999999998,-0.01
475,0.017499999999999998,0
476,0.016874999999999998,0
477,0.017187499999999998,-0.01
478,0.017499999999999998,-0.0050000000000000001
479,0.017187499999999998,0
480,0.016874999999999998,-0.0050000000000000001
481,0.017499999999999998,-0.01
482,0.018124999999999999,-0.01
483,0.018124999999999999,0
484,0.017499999999999998,0
485,0.017812499999999998,-0.01
486,0.018124999999999999,-0.0050000000000000001
487,0.017812499999999998,0
488,0.017499999999999998,-0.0050000000000000001
489,0.018124999999999999,-0.01
490,0.018749999999999999,-0.01
491,0.018749999999999999,0
492,0.018124999999999999,0
493,0.018437499999999999,-0.01
494,0.018749999999999999,-0.0050000000000000001
495,0.018437499999999999,0
496,0.018124999999999999,-0.0050000000000000001
497,0.018749999999999999,-0.01
498,0.019375,-0.01
499,0.019375,0
500,0.018749999999999999,0
501,0.0190625,-0.01
502,0.019375,-0.0050000000000000001
503,0.0190625,0
504,0.018749999999999999,-0.0050000000000000001
505,0.019375,-0.01
506,0.02,-0.01
507,0.02,0
508,0.019375,0
509,0.0196875,-0.01
510,0.02,-0.0050000000000000001
511,0.0196875,0
512,0.019375,-0.0050000000000000001
513,-0.01,0.0001
514,0.01,0.0001
515,0.01,0.0101
516,-0.01,0.0101
517,0,0.0001
518,0.01,0.0051
519,0,0.0101
520,-0.01,0.0051
10001,0,0
10002,0,0
*Element,type=CPEG8T,elset=LOWER
1,1,2,3,4,5,6,7,8
2,9,10,11,12,13,14,15,16
3,17,18,19,20,21,22,23,24
4,25,26,27,28,29,30,31,32
5,33,34,35,36,37,38,39,40
6,41,42,43,44,45,46,47,48
7,49,50,51,52,53,54,55,56
8,57,58,59,60,61,62,63,64
9,65,66,67,68,69,70,71,72
10,73,74,75,76,77,78,79,80
11,81,82,83,84,85,86,87,88
12,89,90,91,92,93,94,95,96
13,97,98,99,100,101,102,103,104
14,105,106,107,108,109,110,111,112
15,113,114,115,116,117,118,119,120
16,121,122,123,124,125,126,127,128
17,129,130,131,132,133,134,135,136
18,137,138,139,140,141,142,143,144
19,145,146,147,148,149,150,151,152
20,153,154,155,156,157,158,159,160
21,161,162,163,164,165,166,167,168
22,169,170,171,172,173,174,175,176
23,177,178,179,180,181,182,183,184
24,185,186,187,188,189,190,191,192
25,193,194,195,196,197,198,199,200
26,201,202,203,204,205,206,207,208
27,209,210,211,212,213,214,215,216
28,217,218,219,220,221,222,223,224
29,225,226,227,228,229,230,231,232
30,233,234,235,236,237,238,239,240
31,241,242,243,244,245,246,247,248
32,249,250,251,252,253,254,255,256
33,257,258,259,260,261,262,263,264
34,265,266,267,268,269,270,271,272
35,273,274,275,276,277,278,279,280
36,281,282,283,284,285,286,287,288
37,289,290,291,292,293,294,295,296
38,297,298,299,300,301,302,303,304
39,305,306,307,308,309,310,311,312
40,313,314,315,316,317,318,319,320
41,321,322,323,324,325,326,327,328
42,329,330,331,332,333,334,335,336
43,337,338,339,340,341,342,343,344
44,345,346,347,348,349,350,351,352
45,353,354,355,356,357,358,359,360
46,361,362,363,364,365,366,367,368
47,369,370,371,372,373,374,375,376
48,377,378,379,380,381,382,383,384
49,385,386,387,388,389,390,391,392
50,393,394,395,396,397,398,399,400
51,401,402,403,404,405,406,407,408
52,409,410,411,412,413,414,415,416
53,417,418,419,420,421,422,423,424
54,425,426,427,428,429,430,431,432
55,433,434,435,436,437,438,439,440
56,441,442,443,444,445,446,447,448
57,449,450,451,452,453,454,455,456
58,457,458,459,460,461,462,463,464
59,465,466,467,468,469,470,471,472
60,473,474,475,476,477,478,479,480
61,481,482,483,484,485,486,487,488
62,489,490,491,492,493,494,495,496
63,497,498,499,500,501,502,503,504
64,505,506,507,508,509,510,511,512
*Element,type=CPEG8T,elset=UPPER
65,513,514,515,516,517,518,519,520
*Nset,nset=FIELD,generate
1,520,1
*Nset,nset=UPPERNODES,generate
513,520,1
*Nset,nset=LOWERNODES,generate
1,512,1
*Nset,nset=CONTROLS
10001,10002
*Material,name=SOLID
*Elastic
1e6,.25
*Conductivity
10
*Density
1000
*Specific Heat
100
*Solid Section,elset=LOWER,material=SOLID,ref node=10001
.1,0,0
*Solid Section,elset=UPPER,material=SOLID,ref node=10002
.1,0,0
*Surface,name=PRIMARY,type=ELEMENT
LOWER,S3
*Surface,name=SECONDARY,type=ELEMENT
UPPER,S1
*Surface Interaction,name=INTERFACE
.1
*Surface Behavior,pressure-overclosure=LINEAR
1e9
*Contact Pair,interaction=INTERFACE,type=SURFACE TO SURFACE
SECONDARY,PRIMARY
*Initial Conditions,type=TEMPERATURE
FIELD,300
*Step,name=CELL0,nlgeom=YES,inc=10
*Coupled Temperature-Displacement,steady state
1,1,1,1
*Boundary,op=NEW
FIELD,1,1,0
FIELD,11,11,300
UPPERNODES,2,2,-.0002
CONTROLS,3,5,0
1,2,2,0
2,2,2,0
3,2,2,0
4,2,2,0
5,2,2,0
6,2,2,0
7,2,2,0
8,2,2,0
9,2,2,0
10,2,2,0
11,2,2,0
12,2,2,0
13,2,2,0
14,2,2,0
15,2,2,0
16,2,2,0
17,2,2,0
18,2,2,0
19,2,2,0
20,2,2,0
21,2,2,0
22,2,2,0
23,2,2,0
24,2,2,0
25,2,2,0
26,2,2,0
27,2,2,0
28,2,2,0
29,2,2,0
30,2,2,0
31,2,2,0
32,2,2,0
33,2,2,0
34,2,2,0
35,2,2,0
36,2,2,0
37,2,2,0
38,2,2,0
39,2,2,0
40,2,2,0
41,2,2,0
42,2,2,0
43,2,2,0
44,2,2,0
45,2,2,0
46,2,2,0
47,2,2,0
48,2,2,0
49,2,2,0
50,2,2,0
51,2,2,0
52,2,2,0
53,2,2,0
54,2,2,0
55,2,2,0
56,2,2,0
57,2,2,0
58,2,2,0
59,2,2,0
60,2,2,0
61,2,2,0
62,2,2,0
63,2,2,0
64,2,2,0
65,2,2,0
66,2,2,0
67,2,2,0
68,2,2,0
69,2,2,0
70,2,2,0
71,2,2,0
72,2,2,0
73,2,2,0
74,2,2,0
75,2,2,0
76,2,2,0
77,2,2,0
78,2,2,0
79,2,2,0
80,2,2,0
81,2,2,0
82,2,2,0
83,2,2,0
84,2,2,0
85,2,2,0
86,2,2,0
87,2,2,0
88,2,2,0
89,2,2,0
90,2,2,0
91,2,2,0
92,2,2,0
93,2,2,0
94,2,2,0
95,2,2,0
96,2,2,0
97,2,2,0
98,2,2,0
99,2,2,0
100,2,2,0
101,2,2,0
102,2,2,0
103,2,2,0
104,2,2,0
105,2,2,0
106,2,2,0
107,2,2,0
108,2,2,0
109,2,2,0
110,2,2,0
111,2,2,0
112,2,2,0
113,2,2,0
114,2,2,0
115,2,2,0
116,2,2,0
117,2,2,0
118,2,2,0
119,2,2,0
120,2,2,0
121,2,2,0
122,2,2,0
123,2,2,0
124,2,2,0
125,2,2,0
126,2,2,0
127,2,2,0
128,2,2,0
129,2,2,0
130,2,2,0
131,2,2,0
132,2,2,0
133,2,2,0
134,2,2,0
135,2,2,0
136,2,2,0
137,2,2,0
138,2,2,0
139,2,2,0
140,2,2,0
141,2,2,0
142,2,2,0
143,2,2,0
144,2,2,0
145,2,2,0
146,2,2,0
147,2,2,0
148,2,2,0
149,2,2,0
150,2,2,0
151,2,2,0
152,2,2,0
153,2,2,0
154,2,2,0
155,2,2,0
156,2,2,0
157,2,2,0
158,2,2,0
159,2,2,0
160,2,2,0
161,2,2,0
162,2,2,0
163,2,2,0
164,2,2,0
165,2,2,0
166,2,2,0
167,2,2,0
168,2,2,0
169,2,2,0
170,2,2,0
171,2,2,0
172,2,2,0
173,2,2,0
174,2,2,0
175,2,2,0
176,2,2,0
177,2,2,0
178,2,2,0
179,2,2,0
180,2,2,0
181,2,2,0
182,2,2,0
183,2,2,0
184,2,2,0
185,2,2,0
186,2,2,0
187,2,2,0
188,2,2,0
189,2,2,0
190,2,2,0
191,2,2,0
192,2,2,0
193,2,2,0
194,2,2,0
195,2,2,0
196,2,2,0
197,2,2,0
198,2,2,0
199,2,2,0
200,2,2,0
201,2,2,0
202,2,2,0
203,2,2,0
204,2,2,0
205,2,2,0
206,2,2,0
207,2,2,0
208,2,2,0
209,2,2,0
210,2,2,0
211,2,2,0
212,2,2,0
213,2,2,0
214,2,2,0
215,2,2,0
216,2,2,0
217,2,2,0
218,2,2,0
219,2,2,0
220,2,2,0
221,2,2,0
222,2,2,0
223,2,2,0
224,2,2,0
225,2,2,0
226,2,2,0
227,2,2,0
228,2,2,0
229,2,2,0
230,2,2,0
231,2,2,0
232,2,2,0
233,2,2,0
234,2,2,0
235,2,2,0
236,2,2,0
237,2,2,0
238,2,2,0
239,2,2,0
240,2,2,0
241,2,2,0
242,2,2,0
243,2,2,0
244,2,2,0
245,2,2,0
246,2,2,0
247,2,2,0
248,2,2,0
249,2,2,0
250,2,2,0
251,2,2,0
252,2,2,0
253,2,2,0
254,2,2,0
255,2,2,0
256,2,2,0
257,2,2,0
258,2,2,0
259,2,2,0
260,2,2,0
261,2,2,0
262,2,2,0
263,2,2,0
264,2,2,0
265,2,2,0
266,2,2,0
267,2,2,0
268,2,2,0
269,2,2,0
270,2,2,0
271,2,2,0
272,2,2,0
273,2,2,0
274,2,2,0
275,2,2,0
276,2,2,0
277,2,2,0
278,2,2,0
279,2,2,0
280,2,2,0
281,2,2,0
282,2,2,0
283,2,2,0
284,2,2,0
285,2,2,0
286,2,2,0
287,2,2,0
288,2,2,0
289,2,2,0
290,2,2,0
291,2,2,0
292,2,2,0
293,2,2,0
294,2,2,0
295,2,2,0
296,2,2,0
297,2,2,0
298,2,2,0
299,2,2,0
300,2,2,0
301,2,2,0
302,2,2,0
303,2,2,0
304,2,2,0
305,2,2,0
306,2,2,0
307,2,2,0
308,2,2,0
309,2,2,0
310,2,2,0
311,2,2,0
312,2,2,0
313,2,2,0
314,2,2,0
315,2,2,0
316,2,2,0
317,2,2,0
318,2,2,0
319,2,2,0
320,2,2,0
321,2,2,0
322,2,2,0
323,2,2,0
324,2,2,0
325,2,2,0
326,2,2,0
327,2,2,0
328,2,2,0
329,2,2,0
330,2,2,0
331,2,2,0
332,2,2,0
333,2,2,0
334,2,2,0
335,2,2,0
336,2,2,0
337,2,2,0
338,2,2,0
339,2,2,0
340,2,2,0
341,2,2,0
342,2,2,0
343,2,2,0
344,2,2,0
345,2,2,0
346,2,2,0
347,2,2,0
348,2,2,0
349,2,2,0
350,2,2,0
351,2,2,0
352,2,2,0
353,2,2,0
354,2,2,0
355,2,2,0
356,2,2,0
357,2,2,0
358,2,2,0
359,2,2,0
360,2,2,0
361,2,2,0
362,2,2,0
363,2,2,0
364,2,2,0
365,2,2,0
366,2,2,0
367,2,2,0
368,2,2,0
369,2,2,0
370,2,2,0
371,2,2,0
372,2,2,0
373,2,2,0
374,2,2,0
375,2,2,0
376,2,2,0
377,2,2,0
378,2,2,0
379,2,2,0
380,2,2,0
381,2,2,0
382,2,2,0
383,2,2,0
384,2,2,0
385,2,2,0
386,2,2,0
387,2,2,0
388,2,2,0
389,2,2,0
390,2,2,0
391,2,2,0
392,2,2,0
393,2,2,0
394,2,2,0
395,2,2,0
396,2,2,0
397,2,2,0
398,2,2,0
399,2,2,0
400,2,2,0
401,2,2,0
402,2,2,0
403,2,2,0
404,2,2,0
405,2,2,0
406,2,2,0
407,2,2,0
408,2,2,0
409,2,2,0
410,2,2,0
411,2,2,0
412,2,2,0
413,2,2,0
414,2,2,0
415,2,2,0
416,2,2,0
417,2,2,0
418,2,2,0
419,2,2,0
420,2,2,0
421,2,2,0
422,2,2,0
423,2,2,0
424,2,2,0
425,2,2,0
426,2,2,0
427,2,2,0
428,2,2,0
429,2,2,0
430,2,2,0
431,2,2,0
432,2,2,0
433,2,2,0
434,2,2,0
435,2,2,0
436,2,2,0
437,2,2,0
438,2,2,0
439,2,2,0
440,2,2,0
441,2,2,0
442,2,2,0
443,2,2,0
444,2,2,0
445,2,2,0
446,2,2,0
447,2,2,0
448,2,2,0
449,2,2,0
450,2,2,0
451,2,2,0
452,2,2,0
453,2,2,0
454,2,2,0
455,2,2,0
456,2,2,0
457,2,2,0
458,2,2,0
459,2,2,0
460,2,2,0
461,2,2,0
462,2,2,0
463,2,2,0
464,2,2,0
465,2,2,0
466,2,2,0
467,2,2,0
468,2,2,0
469,2,2,0
470,2,2,0
471,2,2,0
472,2,2,0
473,2,2,0
474,2,2,0
475,2,2,0
476,2,2,0
477,2,2,0
478,2,2,0
479,2,2,0
480,2,2,0
481,2,2,0
482,2,2,0
483,2,2,0
484,2,2,0
485,2,2,0
486,2,2,0
487,2,2,0
488,2,2,0
489,2,2,0
490,2,2,0
491,2,2,0
492,2,2,0
493,2,2,0
494,2,2,0
495,2,2,0
496,2,2,0
497,2,2,0
498,2,2,0
499,2,2,0
500,2,2,0
501,2,2,0
502,2,2,0
503,2,2,0
504,2,2,0
505,2,2,0
506,2,2,0
507,2,2,0
508,2,2,0
509,2,2,0
510,2,2,0
511,2,2,0
512,2,2,0
*Output,field,frequency=1
*Node Output,nset=UPPERNODES
U,RF
*Contact Output
CDISP,CFORCE
*End Step
*Step,name=CELL1,nlgeom=YES,inc=10
*Coupled Temperature-Displacement,steady state
1,1,1,1
*Boundary,op=NEW
FIELD,1,1,0
FIELD,11,11,300
UPPERNODES,2,2,-.0002
CONTROLS,3,5,0
1,2,2,1e-07
2,2,2,1e-07
3,2,2,1e-07
4,2,2,1e-07
5,2,2,1e-07
6,2,2,1e-07
7,2,2,1e-07
8,2,2,1e-07
9,2,2,0
10,2,2,0
11,2,2,0
12,2,2,0
13,2,2,0
14,2,2,0
15,2,2,0
16,2,2,0
17,2,2,0
18,2,2,0
19,2,2,0
20,2,2,0
21,2,2,0
22,2,2,0
23,2,2,0
24,2,2,0
25,2,2,0
26,2,2,0
27,2,2,0
28,2,2,0
29,2,2,0
30,2,2,0
31,2,2,0
32,2,2,0
33,2,2,0
34,2,2,0
35,2,2,0
36,2,2,0
37,2,2,0
38,2,2,0
39,2,2,0
40,2,2,0
41,2,2,0
42,2,2,0
43,2,2,0
44,2,2,0
45,2,2,0
46,2,2,0
47,2,2,0
48,2,2,0
49,2,2,0
50,2,2,0
51,2,2,0
52,2,2,0
53,2,2,0
54,2,2,0
55,2,2,0
56,2,2,0
57,2,2,0
58,2,2,0
59,2,2,0
60,2,2,0
61,2,2,0
62,2,2,0
63,2,2,0
64,2,2,0
65,2,2,0
66,2,2,0
67,2,2,0
68,2,2,0
69,2,2,0
70,2,2,0
71,2,2,0
72,2,2,0
73,2,2,0
74,2,2,0
75,2,2,0
76,2,2,0
77,2,2,0
78,2,2,0
79,2,2,0
80,2,2,0
81,2,2,0
82,2,2,0
83,2,2,0
84,2,2,0
85,2,2,0
86,2,2,0
87,2,2,0
88,2,2,0
89,2,2,0
90,2,2,0
91,2,2,0
92,2,2,0
93,2,2,0
94,2,2,0
95,2,2,0
96,2,2,0
97,2,2,0
98,2,2,0
99,2,2,0
100,2,2,0
101,2,2,0
102,2,2,0
103,2,2,0
104,2,2,0
105,2,2,0
106,2,2,0
107,2,2,0
108,2,2,0
109,2,2,0
110,2,2,0
111,2,2,0
112,2,2,0
113,2,2,0
114,2,2,0
115,2,2,0
116,2,2,0
117,2,2,0
118,2,2,0
119,2,2,0
120,2,2,0
121,2,2,0
122,2,2,0
123,2,2,0
124,2,2,0
125,2,2,0
126,2,2,0
127,2,2,0
128,2,2,0
129,2,2,0
130,2,2,0
131,2,2,0
132,2,2,0
133,2,2,0
134,2,2,0
135,2,2,0
136,2,2,0
137,2,2,0
138,2,2,0
139,2,2,0
140,2,2,0
141,2,2,0
142,2,2,0
143,2,2,0
144,2,2,0
145,2,2,0
146,2,2,0
147,2,2,0
148,2,2,0
149,2,2,0
150,2,2,0
151,2,2,0
152,2,2,0
153,2,2,0
154,2,2,0
155,2,2,0
156,2,2,0
157,2,2,0
158,2,2,0
159,2,2,0
160,2,2,0
161,2,2,0
162,2,2,0
163,2,2,0
164,2,2,0
165,2,2,0
166,2,2,0
167,2,2,0
168,2,2,0
169,2,2,0
170,2,2,0
171,2,2,0
172,2,2,0
173,2,2,0
174,2,2,0
175,2,2,0
176,2,2,0
177,2,2,0
178,2,2,0
179,2,2,0
180,2,2,0
181,2,2,0
182,2,2,0
183,2,2,0
184,2,2,0
185,2,2,0
186,2,2,0
187,2,2,0
188,2,2,0
189,2,2,0
190,2,2,0
191,2,2,0
192,2,2,0
193,2,2,0
194,2,2,0
195,2,2,0
196,2,2,0
197,2,2,0
198,2,2,0
199,2,2,0
200,2,2,0
201,2,2,0
202,2,2,0
203,2,2,0
204,2,2,0
205,2,2,0
206,2,2,0
207,2,2,0
208,2,2,0
209,2,2,0
210,2,2,0
211,2,2,0
212,2,2,0
213,2,2,0
214,2,2,0
215,2,2,0
216,2,2,0
217,2,2,0
218,2,2,0
219,2,2,0
220,2,2,0
221,2,2,0
222,2,2,0
223,2,2,0
224,2,2,0
225,2,2,0
226,2,2,0
227,2,2,0
228,2,2,0
229,2,2,0
230,2,2,0
231,2,2,0
232,2,2,0
233,2,2,0
234,2,2,0
235,2,2,0
236,2,2,0
237,2,2,0
238,2,2,0
239,2,2,0
240,2,2,0
241,2,2,0
242,2,2,0
243,2,2,0
244,2,2,0
245,2,2,0
246,2,2,0
247,2,2,0
248,2,2,0
249,2,2,0
250,2,2,0
251,2,2,0
252,2,2,0
253,2,2,0
254,2,2,0
255,2,2,0
256,2,2,0
257,2,2,0
258,2,2,0
259,2,2,0
260,2,2,0
261,2,2,0
262,2,2,0
263,2,2,0
264,2,2,0
265,2,2,0
266,2,2,0
267,2,2,0
268,2,2,0
269,2,2,0
270,2,2,0
271,2,2,0
272,2,2,0
273,2,2,0
274,2,2,0
275,2,2,0
276,2,2,0
277,2,2,0
278,2,2,0
279,2,2,0
280,2,2,0
281,2,2,0
282,2,2,0
283,2,2,0
284,2,2,0
285,2,2,0
286,2,2,0
287,2,2,0
288,2,2,0
289,2,2,0
290,2,2,0
291,2,2,0
292,2,2,0
293,2,2,0
294,2,2,0
295,2,2,0
296,2,2,0
297,2,2,0
298,2,2,0
299,2,2,0
300,2,2,0
301,2,2,0
302,2,2,0
303,2,2,0
304,2,2,0
305,2,2,0
306,2,2,0
307,2,2,0
308,2,2,0
309,2,2,0
310,2,2,0
311,2,2,0
312,2,2,0
313,2,2,0
314,2,2,0
315,2,2,0
316,2,2,0
317,2,2,0
318,2,2,0
319,2,2,0
320,2,2,0
321,2,2,0
322,2,2,0
323,2,2,0
324,2,2,0
325,2,2,0
326,2,2,0
327,2,2,0
328,2,2,0
329,2,2,0
330,2,2,0
331,2,2,0
332,2,2,0
333,2,2,0
334,2,2,0
335,2,2,0
336,2,2,0
337,2,2,0
338,2,2,0
339,2,2,0
340,2,2,0
341,2,2,0
342,2,2,0
343,2,2,0
344,2,2,0
345,2,2,0
346,2,2,0
347,2,2,0
348,2,2,0
349,2,2,0
350,2,2,0
351,2,2,0
352,2,2,0
353,2,2,0
354,2,2,0
355,2,2,0
356,2,2,0
357,2,2,0
358,2,2,0
359,2,2,0
360,2,2,0
361,2,2,0
362,2,2,0
363,2,2,0
364,2,2,0
365,2,2,0
366,2,2,0
367,2,2,0
368,2,2,0
369,2,2,0
370,2,2,0
371,2,2,0
372,2,2,0
373,2,2,0
374,2,2,0
375,2,2,0
376,2,2,0
377,2,2,0
378,2,2,0
379,2,2,0
380,2,2,0
381,2,2,0
382,2,2,0
383,2,2,0
384,2,2,0
385,2,2,0
386,2,2,0
387,2,2,0
388,2,2,0
389,2,2,0
390,2,2,0
391,2,2,0
392,2,2,0
393,2,2,0
394,2,2,0
395,2,2,0
396,2,2,0
397,2,2,0
398,2,2,0
399,2,2,0
400,2,2,0
401,2,2,0
402,2,2,0
403,2,2,0
404,2,2,0
405,2,2,0
406,2,2,0
407,2,2,0
408,2,2,0
409,2,2,0
410,2,2,0
411,2,2,0
412,2,2,0
413,2,2,0
414,2,2,0
415,2,2,0
416,2,2,0
417,2,2,0
418,2,2,0
419,2,2,0
420,2,2,0
421,2,2,0
422,2,2,0
423,2,2,0
424,2,2,0
425,2,2,0
426,2,2,0
427,2,2,0
428,2,2,0
429,2,2,0
430,2,2,0
431,2,2,0
432,2,2,0
433,2,2,0
434,2,2,0
435,2,2,0
436,2,2,0
437,2,2,0
438,2,2,0
439,2,2,0
440,2,2,0
441,2,2,0
442,2,2,0
443,2,2,0
444,2,2,0
445,2,2,0
446,2,2,0
447,2,2,0
448,2,2,0
449,2,2,0
450,2,2,0
451,2,2,0
452,2,2,0
453,2,2,0
454,2,2,0
455,2,2,0
456,2,2,0
457,2,2,0
458,2,2,0
459,2,2,0
460,2,2,0
461,2,2,0
462,2,2,0
463,2,2,0
464,2,2,0
465,2,2,0
466,2,2,0
467,2,2,0
468,2,2,0
469,2,2,0
470,2,2,0
471,2,2,0
472,2,2,0
473,2,2,0
474,2,2,0
475,2,2,0
476,2,2,0
477,2,2,0
478,2,2,0
479,2,2,0
480,2,2,0
481,2,2,0
482,2,2,0
483,2,2,0
484,2,2,0
485,2,2,0
486,2,2,0
487,2,2,0
488,2,2,0
489,2,2,0
490,2,2,0
491,2,2,0
492,2,2,0
493,2,2,0
494,2,2,0
495,2,2,0
496,2,2,0
497,2,2,0
498,2,2,0
499,2,2,0
500,2,2,0
501,2,2,0
502,2,2,0
503,2,2,0
504,2,2,0
505,2,2,0
506,2,2,0
507,2,2,0
508,2,2,0
509,2,2,0
510,2,2,0
511,2,2,0
512,2,2,0
*Output,field,frequency=1
*Node Output,nset=UPPERNODES
U,RF
*Contact Output
CDISP,CFORCE
*End Step
*Step,name=CELL2,nlgeom=YES,inc=10
*Coupled Temperature-Displacement,steady state
1,1,1,1
*Boundary,op=NEW
FIELD,1,1,0
FIELD,11,11,300
UPPERNODES,2,2,-.0002
CONTROLS,3,5,0
1,2,2,0
2,2,2,0
3,2,2,0
4,2,2,0
5,2,2,0
6,2,2,0
7,2,2,0
8,2,2,0
9,2,2,1e-07
10,2,2,1e-07
11,2,2,1e-07
12,2,2,1e-07
13,2,2,1e-07
14,2,2,1e-07
15,2,2,1e-07
16,2,2,1e-07
17,2,2,0
18,2,2,0
19,2,2,0
20,2,2,0
21,2,2,0
22,2,2,0
23,2,2,0
24,2,2,0
25,2,2,0
26,2,2,0
27,2,2,0
28,2,2,0
29,2,2,0
30,2,2,0
31,2,2,0
32,2,2,0
33,2,2,0
34,2,2,0
35,2,2,0
36,2,2,0
37,2,2,0
38,2,2,0
39,2,2,0
40,2,2,0
41,2,2,0
42,2,2,0
43,2,2,0
44,2,2,0
45,2,2,0
46,2,2,0
47,2,2,0
48,2,2,0
49,2,2,0
50,2,2,0
51,2,2,0
52,2,2,0
53,2,2,0
54,2,2,0
55,2,2,0
56,2,2,0
57,2,2,0
58,2,2,0
59,2,2,0
60,2,2,0
61,2,2,0
62,2,2,0
63,2,2,0
64,2,2,0
65,2,2,0
66,2,2,0
67,2,2,0
68,2,2,0
69,2,2,0
70,2,2,0
71,2,2,0
72,2,2,0
73,2,2,0
74,2,2,0
75,2,2,0
76,2,2,0
77,2,2,0
78,2,2,0
79,2,2,0
80,2,2,0
81,2,2,0
82,2,2,0
83,2,2,0
84,2,2,0
85,2,2,0
86,2,2,0
87,2,2,0
88,2,2,0
89,2,2,0
90,2,2,0
91,2,2,0
92,2,2,0
93,2,2,0
94,2,2,0
95,2,2,0
96,2,2,0
97,2,2,0
98,2,2,0
99,2,2,0
100,2,2,0
101,2,2,0
102,2,2,0
103,2,2,0
104,2,2,0
105,2,2,0
106,2,2,0
107,2,2,0
108,2,2,0
109,2,2,0
110,2,2,0
111,2,2,0
112,2,2,0
113,2,2,0
114,2,2,0
115,2,2,0
116,2,2,0
117,2,2,0
118,2,2,0
119,2,2,0
120,2,2,0
121,2,2,0
122,2,2,0
123,2,2,0
124,2,2,0
125,2,2,0
126,2,2,0
127,2,2,0
128,2,2,0
129,2,2,0
130,2,2,0
131,2,2,0
132,2,2,0
133,2,2,0
134,2,2,0
135,2,2,0
136,2,2,0
137,2,2,0
138,2,2,0
139,2,2,0
140,2,2,0
141,2,2,0
142,2,2,0
143,2,2,0
144,2,2,0
145,2,2,0
146,2,2,0
147,2,2,0
148,2,2,0
149,2,2,0
150,2,2,0
151,2,2,0
152,2,2,0
153,2,2,0
154,2,2,0
155,2,2,0
156,2,2,0
157,2,2,0
158,2,2,0
159,2,2,0
160,2,2,0
161,2,2,0
162,2,2,0
163,2,2,0
164,2,2,0
165,2,2,0
166,2,2,0
167,2,2,0
168,2,2,0
169,2,2,0
170,2,2,0
171,2,2,0
172,2,2,0
173,2,2,0
174,2,2,0
175,2,2,0
176,2,2,0
177,2,2,0
178,2,2,0
179,2,2,0
180,2,2,0
181,2,2,0
182,2,2,0
183,2,2,0
184,2,2,0
185,2,2,0
186,2,2,0
187,2,2,0
188,2,2,0
189,2,2,0
190,2,2,0
191,2,2,0
192,2,2,0
193,2,2,0
194,2,2,0
195,2,2,0
196,2,2,0
197,2,2,0
198,2,2,0
199,2,2,0
200,2,2,0
201,2,2,0
202,2,2,0
203,2,2,0
204,2,2,0
205,2,2,0
206,2,2,0
207,2,2,0
208,2,2,0
209,2,2,0
210,2,2,0
211,2,2,0
212,2,2,0
213,2,2,0
214,2,2,0
215,2,2,0
216,2,2,0
217,2,2,0
218,2,2,0
219,2,2,0
220,2,2,0
221,2,2,0
222,2,2,0
223,2,2,0
224,2,2,0
225,2,2,0
226,2,2,0
227,2,2,0
228,2,2,0
229,2,2,0
230,2,2,0
231,2,2,0
232,2,2,0
233,2,2,0
234,2,2,0
235,2,2,0
236,2,2,0
237,2,2,0
238,2,2,0
239,2,2,0
240,2,2,0
241,2,2,0
242,2,2,0
243,2,2,0
244,2,2,0
245,2,2,0
246,2,2,0
247,2,2,0
248,2,2,0
249,2,2,0
250,2,2,0
251,2,2,0
252,2,2,0
253,2,2,0
254,2,2,0
255,2,2,0
256,2,2,0
257,2,2,0
258,2,2,0
259,2,2,0
260,2,2,0
261,2,2,0
262,2,2,0
263,2,2,0
264,2,2,0
265,2,2,0
266,2,2,0
267,2,2,0
268,2,2,0
269,2,2,0
270,2,2,0
271,2,2,0
272,2,2,0
273,2,2,0
274,2,2,0
275,2,2,0
276,2,2,0
277,2,2,0
278,2,2,0
279,2,2,0
280,2,2,0
281,2,2,0
282,2,2,0
283,2,2,0
284,2,2,0
285,2,2,0
286,2,2,0
287,2,2,0
288,2,2,0
289,2,2,0
290,2,2,0
291,2,2,0
292,2,2,0
293,2,2,0
294,2,2,0
295,2,2,0
296,2,2,0
297,2,2,0
298,2,2,0
299,2,2,0
300,2,2,0
301,2,2,0
302,2,2,0
303,2,2,0
304,2,2,0
305,2,2,0
306,2,2,0
307,2,2,0
308,2,2,0
309,2,2,0
310,2,2,0
311,2,2,0
312,2,2,0
313,2,2,0
314,2,2,0
315,2,2,0
316,2,2,0
317,2,2,0
318,2,2,0
319,2,2,0
320,2,2,0
321,2,2,0
322,2,2,0
323,2,2,0
324,2,2,0
325,2,2,0
326,2,2,0
327,2,2,0
328,2,2,0
329,2,2,0
330,2,2,0
331,2,2,0
332,2,2,0
333,2,2,0
334,2,2,0
335,2,2,0
336,2,2,0
337,2,2,0
338,2,2,0
339,2,2,0
340,2,2,0
341,2,2,0
342,2,2,0
343,2,2,0
344,2,2,0
345,2,2,0
346,2,2,0
347,2,2,0
348,2,2,0
349,2,2,0
350,2,2,0
351,2,2,0
352,2,2,0
353,2,2,0
354,2,2,0
355,2,2,0
356,2,2,0
357,2,2,0
358,2,2,0
359,2,2,0
360,2,2,0
361,2,2,0
362,2,2,0
363,2,2,0
364,2,2,0
365,2,2,0
366,2,2,0
367,2,2,0
368,2,2,0
369,2,2,0
370,2,2,0
371,2,2,0
372,2,2,0
373,2,2,0
374,2,2,0
375,2,2,0
376,2,2,0
377,2,2,0
378,2,2,0
379,2,2,0
380,2,2,0
381,2,2,0
382,2,2,0
383,2,2,0
384,2,2,0
385,2,2,0
386,2,2,0
387,2,2,0
388,2,2,0
389,2,2,0
390,2,2,0
391,2,2,0
392,2,2,0
393,2,2,0
394,2,2,0
395,2,2,0
396,2,2,0
397,2,2,0
398,2,2,0
399,2,2,0
400,2,2,0
401,2,2,0
402,2,2,0
403,2,2,0
404,2,2,0
405,2,2,0
406,2,2,0
407,2,2,0
408,2,2,0
409,2,2,0
410,2,2,0
411,2,2,0
412,2,2,0
413,2,2,0
414,2,2,0
415,2,2,0
416,2,2,0
417,2,2,0
418,2,2,0
419,2,2,0
420,2,2,0
421,2,2,0
422,2,2,0
423,2,2,0
424,2,2,0
425,2,2,0
426,2,2,0
427,2,2,0
428,2,2,0
429,2,2,0
430,2,2,0
431,2,2,0
432,2,2,0
433,2,2,0
434,2,2,0
435,2,2,0
436,2,2,0
437,2,2,0
438,2,2,0
439,2,2,0
440,2,2,0
441,2,2,0
442,2,2,0
443,2,2,0
444,2,2,0
445,2,2,0
446,2,2,0
447,2,2,0
448,2,2,0
449,2,2,0
450,2,2,0
451,2,2,0
452,2,2,0
453,2,2,0
454,2,2,0
455,2,2,0
456,2,2,0
457,2,2,0
458,2,2,0
459,2,2,0
460,2,2,0
461,2,2,0
462,2,2,0
463,2,2,0
464,2,2,0
465,2,2,0
466,2,2,0
467,2,2,0
468,2,2,0
469,2,2,0
470,2,2,0
471,2,2,0
472,2,2,0
473,2,2,0
474,2,2,0
475,2,2,0
476,2,2,0
477,2,2,0
478,2,2,0
479,2,2,0
480,2,2,0
481,2,2,0
482,2,2,0
483,2,2,0
484,2,2,0
485,2,2,0
486,2,2,0
487,2,2,0
488,2,2,0
489,2,2,0
490,2,2,0
491,2,2,0
492,2,2,0
493,2,2,0
494,2,2,0
495,2,2,0
496,2,2,0
497,2,2,0
498,2,2,0
499,2,2,0
500,2,2,0
501,2,2,0
502,2,2,0
503,2,2,0
504,2,2,0
505,2,2,0
506,2,2,0
507,2,2,0
508,2,2,0
509,2,2,0
510,2,2,0
511,2,2,0
512,2,2,0
*Output,field,frequency=1
*Node Output,nset=UPPERNODES
U,RF
*Contact Output
CDISP,CFORCE
*End Step
*Step,name=CELL3,nlgeom=YES,inc=10
*Coupled Temperature-Displacement,steady state
1,1,1,1
*Boundary,op=NEW
FIELD,1,1,0
FIELD,11,11,300
UPPERNODES,2,2,-.0002
CONTROLS,3,5,0
1,2,2,0
2,2,2,0
3,2,2,0
4,2,2,0
5,2,2,0
6,2,2,0
7,2,2,0
8,2,2,0
9,2,2,0
10,2,2,0
11,2,2,0
12,2,2,0
13,2,2,0
14,2,2,0
15,2,2,0
16,2,2,0
17,2,2,1e-07
18,2,2,1e-07
19,2,2,1e-07
20,2,2,1e-07
21,2,2,1e-07
22,2,2,1e-07
23,2,2,1e-07
24,2,2,1e-07
25,2,2,0
26,2,2,0
27,2,2,0
28,2,2,0
29,2,2,0
30,2,2,0
31,2,2,0
32,2,2,0
33,2,2,0
34,2,2,0
35,2,2,0
36,2,2,0
37,2,2,0
38,2,2,0
39,2,2,0
40,2,2,0
41,2,2,0
42,2,2,0
43,2,2,0
44,2,2,0
45,2,2,0
46,2,2,0
47,2,2,0
48,2,2,0
49,2,2,0
50,2,2,0
51,2,2,0
52,2,2,0
53,2,2,0
54,2,2,0
55,2,2,0
56,2,2,0
57,2,2,0
58,2,2,0
59,2,2,0
60,2,2,0
61,2,2,0
62,2,2,0
63,2,2,0
64,2,2,0
65,2,2,0
66,2,2,0
67,2,2,0
68,2,2,0
69,2,2,0
70,2,2,0
71,2,2,0
72,2,2,0
73,2,2,0
74,2,2,0
75,2,2,0
76,2,2,0
77,2,2,0
78,2,2,0
79,2,2,0
80,2,2,0
81,2,2,0
82,2,2,0
83,2,2,0
84,2,2,0
85,2,2,0
86,2,2,0
87,2,2,0
88,2,2,0
89,2,2,0
90,2,2,0
91,2,2,0
92,2,2,0
93,2,2,0
94,2,2,0
95,2,2,0
96,2,2,0
97,2,2,0
98,2,2,0
99,2,2,0
100,2,2,0
101,2,2,0
102,2,2,0
103,2,2,0
104,2,2,0
105,2,2,0
106,2,2,0
107,2,2,0
108,2,2,0
109,2,2,0
110,2,2,0
111,2,2,0
112,2,2,0
113,2,2,0
114,2,2,0
115,2,2,0
116,2,2,0
117,2,2,0
118,2,2,0
119,2,2,0
120,2,2,0
121,2,2,0
122,2,2,0
123,2,2,0
124,2,2,0
125,2,2,0
126,2,2,0
127,2,2,0
128,2,2,0
129,2,2,0
130,2,2,0
131,2,2,0
132,2,2,0
133,2,2,0
134,2,2,0
135,2,2,0
136,2,2,0
137,2,2,0
138,2,2,0
139,2,2,0
140,2,2,0
141,2,2,0
142,2,2,0
143,2,2,0
144,2,2,0
145,2,2,0
146,2,2,0
147,2,2,0
148,2,2,0
149,2,2,0
150,2,2,0
151,2,2,0
152,2,2,0
153,2,2,0
154,2,2,0
155,2,2,0
156,2,2,0
157,2,2,0
158,2,2,0
159,2,2,0
160,2,2,0
161,2,2,0
162,2,2,0
163,2,2,0
164,2,2,0
165,2,2,0
166,2,2,0
167,2,2,0
168,2,2,0
169,2,2,0
170,2,2,0
171,2,2,0
172,2,2,0
173,2,2,0
174,2,2,0
175,2,2,0
176,2,2,0
177,2,2,0
178,2,2,0
179,2,2,0
180,2,2,0
181,2,2,0
182,2,2,0
183,2,2,0
184,2,2,0
185,2,2,0
186,2,2,0
187,2,2,0
188,2,2,0
189,2,2,0
190,2,2,0
191,2,2,0
192,2,2,0
193,2,2,0
194,2,2,0
195,2,2,0
196,2,2,0
197,2,2,0
198,2,2,0
199,2,2,0
200,2,2,0
201,2,2,0
202,2,2,0
203,2,2,0
204,2,2,0
205,2,2,0
206,2,2,0
207,2,2,0
208,2,2,0
209,2,2,0
210,2,2,0
211,2,2,0
212,2,2,0
213,2,2,0
214,2,2,0
215,2,2,0
216,2,2,0
217,2,2,0
218,2,2,0
219,2,2,0
220,2,2,0
221,2,2,0
222,2,2,0
223,2,2,0
224,2,2,0
225,2,2,0
226,2,2,0
227,2,2,0
228,2,2,0
229,2,2,0
230,2,2,0
231,2,2,0
232,2,2,0
233,2,2,0
234,2,2,0
235,2,2,0
236,2,2,0
237,2,2,0
238,2,2,0
239,2,2,0
240,2,2,0
241,2,2,0
242,2,2,0
243,2,2,0
244,2,2,0
245,2,2,0
246,2,2,0
247,2,2,0
248,2,2,0
249,2,2,0
250,2,2,0
251,2,2,0
252,2,2,0
253,2,2,0
254,2,2,0
255,2,2,0
256,2,2,0
257,2,2,0
258,2,2,0
259,2,2,0
260,2,2,0
261,2,2,0
262,2,2,0
263,2,2,0
264,2,2,0
265,2,2,0
266,2,2,0
267,2,2,0
268,2,2,0
269,2,2,0
270,2,2,0
271,2,2,0
272,2,2,0
273,2,2,0
274,2,2,0
275,2,2,0
276,2,2,0
277,2,2,0
278,2,2,0
279,2,2,0
280,2,2,0
281,2,2,0
282,2,2,0
283,2,2,0
284,2,2,0
285,2,2,0
286,2,2,0
287,2,2,0
288,2,2,0
289,2,2,0
290,2,2,0
291,2,2,0
292,2,2,0
293,2,2,0
294,2,2,0
295,2,2,0
296,2,2,0
297,2,2,0
298,2,2,0
299,2,2,0
300,2,2,0
301,2,2,0
302,2,2,0
303,2,2,0
304,2,2,0
305,2,2,0
306,2,2,0
307,2,2,0
308,2,2,0
309,2,2,0
310,2,2,0
311,2,2,0
312,2,2,0
313,2,2,0
314,2,2,0
315,2,2,0
316,2,2,0
317,2,2,0
318,2,2,0
319,2,2,0
320,2,2,0
321,2,2,0
322,2,2,0
323,2,2,0
324,2,2,0
325,2,2,0
326,2,2,0
327,2,2,0
328,2,2,0
329,2,2,0
330,2,2,0
331,2,2,0
332,2,2,0
333,2,2,0
334,2,2,0
335,2,2,0
336,2,2,0
337,2,2,0
338,2,2,0
339,2,2,0
340,2,2,0
341,2,2,0
342,2,2,0
343,2,2,0
344,2,2,0
345,2,2,0
346,2,2,0
347,2,2,0
348,2,2,0
349,2,2,0
350,2,2,0
351,2,2,0
352,2,2,0
353,2,2,0
354,2,2,0
355,2,2,0
356,2,2,0
357,2,2,0
358,2,2,0
359,2,2,0
360,2,2,0
361,2,2,0
362,2,2,0
363,2,2,0
364,2,2,0
365,2,2,0
366,2,2,0
367,2,2,0
368,2,2,0
369,2,2,0
370,2,2,0
371,2,2,0
372,2,2,0
373,2,2,0
374,2,2,0
375,2,2,0
376,2,2,0
377,2,2,0
378,2,2,0
379,2,2,0
380,2,2,0
381,2,2,0
382,2,2,0
383,2,2,0
384,2,2,0
385,2,2,0
386,2,2,0
387,2,2,0
388,2,2,0
389,2,2,0
390,2,2,0
391,2,2,0
392,2,2,0
393,2,2,0
394,2,2,0
395,2,2,0
396,2,2,0
397,2,2,0
398,2,2,0
399,2,2,0
400,2,2,0
401,2,2,0
402,2,2,0
403,2,2,0
404,2,2,0
405,2,2,0
406,2,2,0
407,2,2,0
408,2,2,0
409,2,2,0
410,2,2,0
411,2,2,0
412,2,2,0
413,2,2,0
414,2,2,0
415,2,2,0
416,2,2,0
417,2,2,0
418,2,2,0
419,2,2,0
420,2,2,0
421,2,2,0
422,2,2,0
423,2,2,0
424,2,2,0
425,2,2,0
426,2,2,0
427,2,2,0
428,2,2,0
429,2,2,0
430,2,2,0
431,2,2,0
432,2,2,0
433,2,2,0
434,2,2,0
435,2,2,0
436,2,2,0
437,2,2,0
438,2,2,0
439,2,2,0
440,2,2,0
441,2,2,0
442,2,2,0
443,2,2,0
444,2,2,0
445,2,2,0
446,2,2,0
447,2,2,0
448,2,2,0
449,2,2,0
450,2,2,0
451,2,2,0
452,2,2,0
453,2,2,0
454,2,2,0
455,2,2,0
456,2,2,0
457,2,2,0
458,2,2,0
459,2,2,0
460,2,2,0
461,2,2,0
462,2,2,0
463,2,2,0
464,2,2,0
465,2,2,0
466,2,2,0
467,2,2,0
468,2,2,0
469,2,2,0
470,2,2,0
471,2,2,0
472,2,2,0
473,2,2,0
474,2,2,0
475,2,2,0
476,2,2,0
477,2,2,0
478,2,2,0
479,2,2,0
480,2,2,0
481,2,2,0
482,2,2,0
483,2,2,0
484,2,2,0
485,2,2,0
486,2,2,0
487,2,2,0
488,2,2,0
489,2,2,0
490,2,2,0
491,2,2,0
492,2,2,0
493,2,2,0
494,2,2,0
495,2,2,0
496,2,2,0
497,2,2,0
498,2,2,0
499,2,2,0
500,2,2,0
501,2,2,0
502,2,2,0
503,2,2,0
504,2,2,0
505,2,2,0
506,2,2,0
507,2,2,0
508,2,2,0
509,2,2,0
510,2,2,0
511,2,2,0
512,2,2,0
*Output,field,frequency=1
*Node Output,nset=UPPERNODES
U,RF
*Contact Output
CDISP,CFORCE
*End Step
*Step,name=CELL4,nlgeom=YES,inc=10
*Coupled Temperature-Displacement,steady state
1,1,1,1
*Boundary,op=NEW
FIELD,1,1,0
FIELD,11,11,300
UPPERNODES,2,2,-.0002
CONTROLS,3,5,0
1,2,2,0
2,2,2,0
3,2,2,0
4,2,2,0
5,2,2,0
6,2,2,0
7,2,2,0
8,2,2,0
9,2,2,0
10,2,2,0
11,2,2,0
12,2,2,0
13,2,2,0
14,2,2,0
15,2,2,0
16,2,2,0
17,2,2,0
18,2,2,0
19,2,2,0
20,2,2,0
21,2,2,0
22,2,2,0
23,2,2,0
24,2,2,0
25,2,2,1e-07
26,2,2,1e-07
27,2,2,1e-07
28,2,2,1e-07
29,2,2,1e-07
30,2,2,1e-07
31,2,2,1e-07
32,2,2,1e-07
33,2,2,0
34,2,2,0
35,2,2,0
36,2,2,0
37,2,2,0
38,2,2,0
39,2,2,0
40,2,2,0
41,2,2,0
42,2,2,0
43,2,2,0
44,2,2,0
45,2,2,0
46,2,2,0
47,2,2,0
48,2,2,0
49,2,2,0
50,2,2,0
51,2,2,0
52,2,2,0
53,2,2,0
54,2,2,0
55,2,2,0
56,2,2,0
57,2,2,0
58,2,2,0
59,2,2,0
60,2,2,0
61,2,2,0
62,2,2,0
63,2,2,0
64,2,2,0
65,2,2,0
66,2,2,0
67,2,2,0
68,2,2,0
69,2,2,0
70,2,2,0
71,2,2,0
72,2,2,0
73,2,2,0
74,2,2,0
75,2,2,0
76,2,2,0
77,2,2,0
78,2,2,0
79,2,2,0
80,2,2,0
81,2,2,0
82,2,2,0
83,2,2,0
84,2,2,0
85,2,2,0
86,2,2,0
87,2,2,0
88,2,2,0
89,2,2,0
90,2,2,0
91,2,2,0
92,2,2,0
93,2,2,0
94,2,2,0
95,2,2,0
96,2,2,0
97,2,2,0
98,2,2,0
99,2,2,0
100,2,2,0
101,2,2,0
102,2,2,0
103,2,2,0
104,2,2,0
105,2,2,0
106,2,2,0
107,2,2,0
108,2,2,0
109,2,2,0
110,2,2,0
111,2,2,0
112,2,2,0
113,2,2,0
114,2,2,0
115,2,2,0
116,2,2,0
117,2,2,0
118,2,2,0
119,2,2,0
120,2,2,0
121,2,2,0
122,2,2,0
123,2,2,0
124,2,2,0
125,2,2,0
126,2,2,0
127,2,2,0
128,2,2,0
129,2,2,0
130,2,2,0
131,2,2,0
132,2,2,0
133,2,2,0
134,2,2,0
135,2,2,0
136,2,2,0
137,2,2,0
138,2,2,0
139,2,2,0
140,2,2,0
141,2,2,0
142,2,2,0
143,2,2,0
144,2,2,0
145,2,2,0
146,2,2,0
147,2,2,0
148,2,2,0
149,2,2,0
150,2,2,0
151,2,2,0
152,2,2,0
153,2,2,0
154,2,2,0
155,2,2,0
156,2,2,0
157,2,2,0
158,2,2,0
159,2,2,0
160,2,2,0
161,2,2,0
162,2,2,0
163,2,2,0
164,2,2,0
165,2,2,0
166,2,2,0
167,2,2,0
168,2,2,0
169,2,2,0
170,2,2,0
171,2,2,0
172,2,2,0
173,2,2,0
174,2,2,0
175,2,2,0
176,2,2,0
177,2,2,0
178,2,2,0
179,2,2,0
180,2,2,0
181,2,2,0
182,2,2,0
183,2,2,0
184,2,2,0
185,2,2,0
186,2,2,0
187,2,2,0
188,2,2,0
189,2,2,0
190,2,2,0
191,2,2,0
192,2,2,0
193,2,2,0
194,2,2,0
195,2,2,0
196,2,2,0
197,2,2,0
198,2,2,0
199,2,2,0
200,2,2,0
201,2,2,0
202,2,2,0
203,2,2,0
204,2,2,0
205,2,2,0
206,2,2,0
207,2,2,0
208,2,2,0
209,2,2,0
210,2,2,0
211,2,2,0
212,2,2,0
213,2,2,0
214,2,2,0
215,2,2,0
216,2,2,0
217,2,2,0
218,2,2,0
219,2,2,0
220,2,2,0
221,2,2,0
222,2,2,0
223,2,2,0
224,2,2,0
225,2,2,0
226,2,2,0
227,2,2,0
228,2,2,0
229,2,2,0
230,2,2,0
231,2,2,0
232,2,2,0
233,2,2,0
234,2,2,0
235,2,2,0
236,2,2,0
237,2,2,0
238,2,2,0
239,2,2,0
240,2,2,0
241,2,2,0
242,2,2,0
243,2,2,0
244,2,2,0
245,2,2,0
246,2,2,0
247,2,2,0
248,2,2,0
249,2,2,0
250,2,2,0
251,2,2,0
252,2,2,0
253,2,2,0
254,2,2,0
255,2,2,0
256,2,2,0
257,2,2,0
258,2,2,0
259,2,2,0
260,2,2,0
261,2,2,0
262,2,2,0
263,2,2,0
264,2,2,0
265,2,2,0
266,2,2,0
267,2,2,0
268,2,2,0
269,2,2,0
270,2,2,0
271,2,2,0
272,2,2,0
273,2,2,0
274,2,2,0
275,2,2,0
276,2,2,0
277,2,2,0
278,2,2,0
279,2,2,0
280,2,2,0
281,2,2,0
282,2,2,0
283,2,2,0
284,2,2,0
285,2,2,0
286,2,2,0
287,2,2,0
288,2,2,0
289,2,2,0
290,2,2,0
291,2,2,0
292,2,2,0
293,2,2,0
294,2,2,0
295,2,2,0
296,2,2,0
297,2,2,0
298,2,2,0
299,2,2,0
300,2,2,0
301,2,2,0
302,2,2,0
303,2,2,0
304,2,2,0
305,2,2,0
306,2,2,0
307,2,2,0
308,2,2,0
309,2,2,0
310,2,2,0
311,2,2,0
312,2,2,0
313,2,2,0
314,2,2,0
315,2,2,0
316,2,2,0
317,2,2,0
318,2,2,0
319,2,2,0
320,2,2,0
321,2,2,0
322,2,2,0
323,2,2,0
324,2,2,0
325,2,2,0
326,2,2,0
327,2,2,0
328,2,2,0
329,2,2,0
330,2,2,0
331,2,2,0
332,2,2,0
333,2,2,0
334,2,2,0
335,2,2,0
336,2,2,0
337,2,2,0
338,2,2,0
339,2,2,0
340,2,2,0
341,2,2,0
342,2,2,0
343,2,2,0
344,2,2,0
345,2,2,0
346,2,2,0
347,2,2,0
348,2,2,0
349,2,2,0
350,2,2,0
351,2,2,0
352,2,2,0
353,2,2,0
354,2,2,0
355,2,2,0
356,2,2,0
357,2,2,0
358,2,2,0
359,2,2,0
360,2,2,0
361,2,2,0
362,2,2,0
363,2,2,0
364,2,2,0
365,2,2,0
366,2,2,0
367,2,2,0
368,2,2,0
369,2,2,0
370,2,2,0
371,2,2,0
372,2,2,0
373,2,2,0
374,2,2,0
375,2,2,0
376,2,2,0
377,2,2,0
378,2,2,0
379,2,2,0
380,2,2,0
381,2,2,0
382,2,2,0
383,2,2,0
384,2,2,0
385,2,2,0
386,2,2,0
387,2,2,0
388,2,2,0
389,2,2,0
390,2,2,0
391,2,2,0
392,2,2,0
393,2,2,0
394,2,2,0
395,2,2,0
396,2,2,0
397,2,2,0
398,2,2,0
399,2,2,0
400,2,2,0
401,2,2,0
402,2,2,0
403,2,2,0
404,2,2,0
405,2,2,0
406,2,2,0
407,2,2,0
408,2,2,0
409,2,2,0
410,2,2,0
411,2,2,0
412,2,2,0
413,2,2,0
414,2,2,0
415,2,2,0
416,2,2,0
417,2,2,0
418,2,2,0
419,2,2,0
420,2,2,0
421,2,2,0
422,2,2,0
423,2,2,0
424,2,2,0
425,2,2,0
426,2,2,0
427,2,2,0
428,2,2,0
429,2,2,0
430,2,2,0
431,2,2,0
432,2,2,0
433,2,2,0
434,2,2,0
435,2,2,0
436,2,2,0
437,2,2,0
438,2,2,0
439,2,2,0
440,2,2,0
441,2,2,0
442,2,2,0
443,2,2,0
444,2,2,0
445,2,2,0
446,2,2,0
447,2,2,0
448,2,2,0
449,2,2,0
450,2,2,0
451,2,2,0
452,2,2,0
453,2,2,0
454,2,2,0
455,2,2,0
456,2,2,0
457,2,2,0
458,2,2,0
459,2,2,0
460,2,2,0
461,2,2,0
462,2,2,0
463,2,2,0
464,2,2,0
465,2,2,0
466,2,2,0
467,2,2,0
468,2,2,0
469,2,2,0
470,2,2,0
471,2,2,0
472,2,2,0
473,2,2,0
474,2,2,0
475,2,2,0
476,2,2,0
477,2,2,0
478,2,2,0
479,2,2,0
480,2,2,0
481,2,2,0
482,2,2,0
483,2,2,0
484,2,2,0
485,2,2,0
486,2,2,0
487,2,2,0
488,2,2,0
489,2,2,0
490,2,2,0
491,2,2,0
492,2,2,0
493,2,2,0
494,2,2,0
495,2,2,0
496,2,2,0
497,2,2,0
498,2,2,0
499,2,2,0
500,2,2,0
501,2,2,0
502,2,2,0
503,2,2,0
504,2,2,0
505,2,2,0
506,2,2,0
507,2,2,0
508,2,2,0
509,2,2,0
510,2,2,0
511,2,2,0
512,2,2,0
*Output,field,frequency=1
*Node Output,nset=UPPERNODES
U,RF
*Contact Output
CDISP,CFORCE
*End Step
*Step,name=CELL5,nlgeom=YES,inc=10
*Coupled Temperature-Displacement,steady state
1,1,1,1
*Boundary,op=NEW
FIELD,1,1,0
FIELD,11,11,300
UPPERNODES,2,2,-.0002
CONTROLS,3,5,0
1,2,2,0
2,2,2,0
3,2,2,0
4,2,2,0
5,2,2,0
6,2,2,0
7,2,2,0
8,2,2,0
9,2,2,0
10,2,2,0
11,2,2,0
12,2,2,0
13,2,2,0
14,2,2,0
15,2,2,0
16,2,2,0
17,2,2,0
18,2,2,0
19,2,2,0
20,2,2,0
21,2,2,0
22,2,2,0
23,2,2,0
24,2,2,0
25,2,2,0
26,2,2,0
27,2,2,0
28,2,2,0
29,2,2,0
30,2,2,0
31,2,2,0
32,2,2,0
33,2,2,1e-07
34,2,2,1e-07
35,2,2,1e-07
36,2,2,1e-07
37,2,2,1e-07
38,2,2,1e-07
39,2,2,1e-07
40,2,2,1e-07
41,2,2,0
42,2,2,0
43,2,2,0
44,2,2,0
45,2,2,0
46,2,2,0
47,2,2,0
48,2,2,0
49,2,2,0
50,2,2,0
51,2,2,0
52,2,2,0
53,2,2,0
54,2,2,0
55,2,2,0
56,2,2,0
57,2,2,0
58,2,2,0
59,2,2,0
60,2,2,0
61,2,2,0
62,2,2,0
63,2,2,0
64,2,2,0
65,2,2,0
66,2,2,0
67,2,2,0
68,2,2,0
69,2,2,0
70,2,2,0
71,2,2,0
72,2,2,0
73,2,2,0
74,2,2,0
75,2,2,0
76,2,2,0
77,2,2,0
78,2,2,0
79,2,2,0
80,2,2,0
81,2,2,0
82,2,2,0
83,2,2,0
84,2,2,0
85,2,2,0
86,2,2,0
87,2,2,0
88,2,2,0
89,2,2,0
90,2,2,0
91,2,2,0
92,2,2,0
93,2,2,0
94,2,2,0
95,2,2,0
96,2,2,0
97,2,2,0
98,2,2,0
99,2,2,0
100,2,2,0
101,2,2,0
102,2,2,0
103,2,2,0
104,2,2,0
105,2,2,0
106,2,2,0
107,2,2,0
108,2,2,0
109,2,2,0
110,2,2,0
111,2,2,0
112,2,2,0
113,2,2,0
114,2,2,0
115,2,2,0
116,2,2,0
117,2,2,0
118,2,2,0
119,2,2,0
120,2,2,0
121,2,2,0
122,2,2,0
123,2,2,0
124,2,2,0
125,2,2,0
126,2,2,0
127,2,2,0
128,2,2,0
129,2,2,0
130,2,2,0
131,2,2,0
132,2,2,0
133,2,2,0
134,2,2,0
135,2,2,0
136,2,2,0
137,2,2,0
138,2,2,0
139,2,2,0
140,2,2,0
141,2,2,0
142,2,2,0
143,2,2,0
144,2,2,0
145,2,2,0
146,2,2,0
147,2,2,0
148,2,2,0
149,2,2,0
150,2,2,0
151,2,2,0
152,2,2,0
153,2,2,0
154,2,2,0
155,2,2,0
156,2,2,0
157,2,2,0
158,2,2,0
159,2,2,0
160,2,2,0
161,2,2,0
162,2,2,0
163,2,2,0
164,2,2,0
165,2,2,0
166,2,2,0
167,2,2,0
168,2,2,0
169,2,2,0
170,2,2,0
171,2,2,0
172,2,2,0
173,2,2,0
174,2,2,0
175,2,2,0
176,2,2,0
177,2,2,0
178,2,2,0
179,2,2,0
180,2,2,0
181,2,2,0
182,2,2,0
183,2,2,0
184,2,2,0
185,2,2,0
186,2,2,0
187,2,2,0
188,2,2,0
189,2,2,0
190,2,2,0
191,2,2,0
192,2,2,0
193,2,2,0
194,2,2,0
195,2,2,0
196,2,2,0
197,2,2,0
198,2,2,0
199,2,2,0
200,2,2,0
201,2,2,0
202,2,2,0
203,2,2,0
204,2,2,0
205,2,2,0
206,2,2,0
207,2,2,0
208,2,2,0
209,2,2,0
210,2,2,0
211,2,2,0
212,2,2,0
213,2,2,0
214,2,2,0
215,2,2,0
216,2,2,0
217,2,2,0
218,2,2,0
219,2,2,0
220,2,2,0
221,2,2,0
222,2,2,0
223,2,2,0
224,2,2,0
225,2,2,0
226,2,2,0
227,2,2,0
228,2,2,0
229,2,2,0
230,2,2,0
231,2,2,0
232,2,2,0
233,2,2,0
234,2,2,0
235,2,2,0
236,2,2,0
237,2,2,0
238,2,2,0
239,2,2,0
240,2,2,0
241,2,2,0
242,2,2,0
243,2,2,0
244,2,2,0
245,2,2,0
246,2,2,0
247,2,2,0
248,2,2,0
249,2,2,0
250,2,2,0
251,2,2,0
252,2,2,0
253,2,2,0
254,2,2,0
255,2,2,0
256,2,2,0
257,2,2,0
258,2,2,0
259,2,2,0
260,2,2,0
261,2,2,0
262,2,2,0
263,2,2,0
264,2,2,0
265,2,2,0
266,2,2,0
267,2,2,0
268,2,2,0
269,2,2,0
270,2,2,0
271,2,2,0
272,2,2,0
273,2,2,0
274,2,2,0
275,2,2,0
276,2,2,0
277,2,2,0
278,2,2,0
279,2,2,0
280,2,2,0
281,2,2,0
282,2,2,0
283,2,2,0
284,2,2,0
285,2,2,0
286,2,2,0
287,2,2,0
288,2,2,0
289,2,2,0
290,2,2,0
291,2,2,0
292,2,2,0
293,2,2,0
294,2,2,0
295,2,2,0
296,2,2,0
297,2,2,0
298,2,2,0
299,2,2,0
300,2,2,0
301,2,2,0
302,2,2,0
303,2,2,0
304,2,2,0
305,2,2,0
306,2,2,0
307,2,2,0
308,2,2,0
309,2,2,0
310,2,2,0
311,2,2,0
312,2,2,0
313,2,2,0
314,2,2,0
315,2,2,0
316,2,2,0
317,2,2,0
318,2,2,0
319,2,2,0
320,2,2,0
321,2,2,0
322,2,2,0
323,2,2,0
324,2,2,0
325,2,2,0
326,2,2,0
327,2,2,0
328,2,2,0
329,2,2,0
330,2,2,0
331,2,2,0
332,2,2,0
333,2,2,0
334,2,2,0
335,2,2,0
336,2,2,0
337,2,2,0
338,2,2,0
339,2,2,0
340,2,2,0
341,2,2,0
342,2,2,0
343,2,2,0
344,2,2,0
345,2,2,0
346,2,2,0
347,2,2,0
348,2,2,0
349,2,2,0
350,2,2,0
351,2,2,0
352,2,2,0
353,2,2,0
354,2,2,0
355,2,2,0
356,2,2,0
357,2,2,0
358,2,2,0
359,2,2,0
360,2,2,0
361,2,2,0
362,2,2,0
363,2,2,0
364,2,2,0
365,2,2,0
366,2,2,0
367,2,2,0
368,2,2,0
369,2,2,0
370,2,2,0
371,2,2,0
372,2,2,0
373,2,2,0
374,2,2,0
375,2,2,0
376,2,2,0
377,2,2,0
378,2,2,0
379,2,2,0
380,2,2,0
381,2,2,0
382,2,2,0
383,2,2,0
384,2,2,0
385,2,2,0
386,2,2,0
387,2,2,0
388,2,2,0
389,2,2,0
390,2,2,0
391,2,2,0
392,2,2,0
393,2,2,0
394,2,2,0
395,2,2,0
396,2,2,0
397,2,2,0
398,2,2,0
399,2,2,0
400,2,2,0
401,2,2,0
402,2,2,0
403,2,2,0
404,2,2,0
405,2,2,0
406,2,2,0
407,2,2,0
408,2,2,0
409,2,2,0
410,2,2,0
411,2,2,0
412,2,2,0
413,2,2,0
414,2,2,0
415,2,2,0
416,2,2,0
417,2,2,0
418,2,2,0
419,2,2,0
420,2,2,0
421,2,2,0
422,2,2,0
423,2,2,0
424,2,2,0
425,2,2,0
426,2,2,0
427,2,2,0
428,2,2,0
429,2,2,0
430,2,2,0
431,2,2,0
432,2,2,0
433,2,2,0
434,2,2,0
435,2,2,0
436,2,2,0
437,2,2,0
438,2,2,0
439,2,2,0
440,2,2,0
441,2,2,0
442,2,2,0
443,2,2,0
444,2,2,0
445,2,2,0
446,2,2,0
447,2,2,0
448,2,2,0
449,2,2,0
450,2,2,0
451,2,2,0
452,2,2,0
453,2,2,0
454,2,2,0
455,2,2,0
456,2,2,0
457,2,2,0
458,2,2,0
459,2,2,0
460,2,2,0
461,2,2,0
462,2,2,0
463,2,2,0
464,2,2,0
465,2,2,0
466,2,2,0
467,2,2,0
468,2,2,0
469,2,2,0
470,2,2,0
471,2,2,0
472,2,2,0
473,2,2,0
474,2,2,0
475,2,2,0
476,2,2,0
477,2,2,0
478,2,2,0
479,2,2,0
480,2,2,0
481,2,2,0
482,2,2,0
483,2,2,0
484,2,2,0
485,2,2,0
486,2,2,0
487,2,2,0
488,2,2,0
489,2,2,0
490,2,2,0
491,2,2,0
492,2,2,0
493,2,2,0
494,2,2,0
495,2,2,0
496,2,2,0
497,2,2,0
498,2,2,0
499,2,2,0
500,2,2,0
501,2,2,0
502,2,2,0
503,2,2,0
504,2,2,0
505,2,2,0
506,2,2,0
507,2,2,0
508,2,2,0
509,2,2,0
510,2,2,0
511,2,2,0
512,2,2,0
*Output,field,frequency=1
*Node Output,nset=UPPERNODES
U,RF
*Contact Output
CDISP,CFORCE
*End Step
*Step,name=CELL6,nlgeom=YES,inc=10
*Coupled Temperature-Displacement,steady state
1,1,1,1
*Boundary,op=NEW
FIELD,1,1,0
FIELD,11,11,300
UPPERNODES,2,2,-.0002
CONTROLS,3,5,0
1,2,2,0
2,2,2,0
3,2,2,0
4,2,2,0
5,2,2,0
6,2,2,0
7,2,2,0
8,2,2,0
9,2,2,0
10,2,2,0
11,2,2,0
12,2,2,0
13,2,2,0
14,2,2,0
15,2,2,0
16,2,2,0
17,2,2,0
18,2,2,0
19,2,2,0
20,2,2,0
21,2,2,0
22,2,2,0
23,2,2,0
24,2,2,0
25,2,2,0
26,2,2,0
27,2,2,0
28,2,2,0
29,2,2,0
30,2,2,0
31,2,2,0
32,2,2,0
33,2,2,0
34,2,2,0
35,2,2,0
36,2,2,0
37,2,2,0
38,2,2,0
39,2,2,0
40,2,2,0
41,2,2,1e-07
42,2,2,1e-07
43,2,2,1e-07
44,2,2,1e-07
45,2,2,1e-07
46,2,2,1e-07
47,2,2,1e-07
48,2,2,1e-07
49,2,2,0
50,2,2,0
51,2,2,0
52,2,2,0
53,2,2,0
54,2,2,0
55,2,2,0
56,2,2,0
57,2,2,0
58,2,2,0
59,2,2,0
60,2,2,0
61,2,2,0
62,2,2,0
63,2,2,0
64,2,2,0
65,2,2,0
66,2,2,0
67,2,2,0
68,2,2,0
69,2,2,0
70,2,2,0
71,2,2,0
72,2,2,0
73,2,2,0
74,2,2,0
75,2,2,0
76,2,2,0
77,2,2,0
78,2,2,0
79,2,2,0
80,2,2,0
81,2,2,0
82,2,2,0
83,2,2,0
84,2,2,0
85,2,2,0
86,2,2,0
87,2,2,0
88,2,2,0
89,2,2,0
90,2,2,0
91,2,2,0
92,2,2,0
93,2,2,0
94,2,2,0
95,2,2,0
96,2,2,0
97,2,2,0
98,2,2,0
99,2,2,0
100,2,2,0
101,2,2,0
102,2,2,0
103,2,2,0
104,2,2,0
105,2,2,0
106,2,2,0
107,2,2,0
108,2,2,0
109,2,2,0
110,2,2,0
111,2,2,0
112,2,2,0
113,2,2,0
114,2,2,0
115,2,2,0
116,2,2,0
117,2,2,0
118,2,2,0
119,2,2,0
120,2,2,0
121,2,2,0
122,2,2,0
123,2,2,0
124,2,2,0
125,2,2,0
126,2,2,0
127,2,2,0
128,2,2,0
129,2,2,0
130,2,2,0
131,2,2,0
132,2,2,0
133,2,2,0
134,2,2,0
135,2,2,0
136,2,2,0
137,2,2,0
138,2,2,0
139,2,2,0
140,2,2,0
141,2,2,0
142,2,2,0
143,2,2,0
144,2,2,0
145,2,2,0
146,2,2,0
147,2,2,0
148,2,2,0
149,2,2,0
150,2,2,0
151,2,2,0
152,2,2,0
153,2,2,0
154,2,2,0
155,2,2,0
156,2,2,0
157,2,2,0
158,2,2,0
159,2,2,0
160,2,2,0
161,2,2,0
162,2,2,0
163,2,2,0
164,2,2,0
165,2,2,0
166,2,2,0
167,2,2,0
168,2,2,0
169,2,2,0
170,2,2,0
171,2,2,0
172,2,2,0
173,2,2,0
174,2,2,0
175,2,2,0
176,2,2,0
177,2,2,0
178,2,2,0
179,2,2,0
180,2,2,0
181,2,2,0
182,2,2,0
183,2,2,0
184,2,2,0
185,2,2,0
186,2,2,0
187,2,2,0
188,2,2,0
189,2,2,0
190,2,2,0
191,2,2,0
192,2,2,0
193,2,2,0
194,2,2,0
195,2,2,0
196,2,2,0
197,2,2,0
198,2,2,0
199,2,2,0
200,2,2,0
201,2,2,0
202,2,2,0
203,2,2,0
204,2,2,0
205,2,2,0
206,2,2,0
207,2,2,0
208,2,2,0
209,2,2,0
210,2,2,0
211,2,2,0
212,2,2,0
213,2,2,0
214,2,2,0
215,2,2,0
216,2,2,0
217,2,2,0
218,2,2,0
219,2,2,0
220,2,2,0
221,2,2,0
222,2,2,0
223,2,2,0
224,2,2,0
225,2,2,0
226,2,2,0
227,2,2,0
228,2,2,0
229,2,2,0
230,2,2,0
231,2,2,0
232,2,2,0
233,2,2,0
234,2,2,0
235,2,2,0
236,2,2,0
237,2,2,0
238,2,2,0
239,2,2,0
240,2,2,0
241,2,2,0
242,2,2,0
243,2,2,0
244,2,2,0
245,2,2,0
246,2,2,0
247,2,2,0
248,2,2,0
249,2,2,0
250,2,2,0
251,2,2,0
252,2,2,0
253,2,2,0
254,2,2,0
255,2,2,0
256,2,2,0
257,2,2,0
258,2,2,0
259,2,2,0
260,2,2,0
261,2,2,0
262,2,2,0
263,2,2,0
264,2,2,0
265,2,2,0
266,2,2,0
267,2,2,0
268,2,2,0
269,2,2,0
270,2,2,0
271,2,2,0
272,2,2,0
273,2,2,0
274,2,2,0
275,2,2,0
276,2,2,0
277,2,2,0
278,2,2,0
279,2,2,0
280,2,2,0
281,2,2,0
282,2,2,0
283,2,2,0
284,2,2,0
285,2,2,0
286,2,2,0
287,2,2,0
288,2,2,0
289,2,2,0
290,2,2,0
291,2,2,0
292,2,2,0
293,2,2,0
294,2,2,0
295,2,2,0
296,2,2,0
297,2,2,0
298,2,2,0
299,2,2,0
300,2,2,0
301,2,2,0
302,2,2,0
303,2,2,0
304,2,2,0
305,2,2,0
306,2,2,0
307,2,2,0
308,2,2,0
309,2,2,0
310,2,2,0
311,2,2,0
312,2,2,0
313,2,2,0
314,2,2,0
315,2,2,0
316,2,2,0
317,2,2,0
318,2,2,0
319,2,2,0
320,2,2,0
321,2,2,0
322,2,2,0
323,2,2,0
324,2,2,0
325,2,2,0
326,2,2,0
327,2,2,0
328,2,2,0
329,2,2,0
330,2,2,0
331,2,2,0
332,2,2,0
333,2,2,0
334,2,2,0
335,2,2,0
336,2,2,0
337,2,2,0
338,2,2,0
339,2,2,0
340,2,2,0
341,2,2,0
342,2,2,0
343,2,2,0
344,2,2,0
345,2,2,0
346,2,2,0
347,2,2,0
348,2,2,0
349,2,2,0
350,2,2,0
351,2,2,0
352,2,2,0
353,2,2,0
354,2,2,0
355,2,2,0
356,2,2,0
357,2,2,0
358,2,2,0
359,2,2,0
360,2,2,0
361,2,2,0
362,2,2,0
363,2,2,0
364,2,2,0
365,2,2,0
366,2,2,0
367,2,2,0
368,2,2,0
369,2,2,0
370,2,2,0
371,2,2,0
372,2,2,0
373,2,2,0
374,2,2,0
375,2,2,0
376,2,2,0
377,2,2,0
378,2,2,0
379,2,2,0
380,2,2,0
381,2,2,0
382,2,2,0
383,2,2,0
384,2,2,0
385,2,2,0
386,2,2,0
387,2,2,0
388,2,2,0
389,2,2,0
390,2,2,0
391,2,2,0
392,2,2,0
393,2,2,0
394,2,2,0
395,2,2,0
396,2,2,0
397,2,2,0
398,2,2,0
399,2,2,0
400,2,2,0
401,2,2,0
402,2,2,0
403,2,2,0
404,2,2,0
405,2,2,0
406,2,2,0
407,2,2,0
408,2,2,0
409,2,2,0
410,2,2,0
411,2,2,0
412,2,2,0
413,2,2,0
414,2,2,0
415,2,2,0
416,2,2,0
417,2,2,0
418,2,2,0
419,2,2,0
420,2,2,0
421,2,2,0
422,2,2,0
423,2,2,0
424,2,2,0
425,2,2,0
426,2,2,0
427,2,2,0
428,2,2,0
429,2,2,0
430,2,2,0
431,2,2,0
432,2,2,0
433,2,2,0
434,2,2,0
435,2,2,0
436,2,2,0
437,2,2,0
438,2,2,0
439,2,2,0
440,2,2,0
441,2,2,0
442,2,2,0
443,2,2,0
444,2,2,0
445,2,2,0
446,2,2,0
447,2,2,0
448,2,2,0
449,2,2,0
450,2,2,0
451,2,2,0
452,2,2,0
453,2,2,0
454,2,2,0
455,2,2,0
456,2,2,0
457,2,2,0
458,2,2,0
459,2,2,0
460,2,2,0
461,2,2,0
462,2,2,0
463,2,2,0
464,2,2,0
465,2,2,0
466,2,2,0
467,2,2,0
468,2,2,0
469,2,2,0
470,2,2,0
471,2,2,0
472,2,2,0
473,2,2,0
474,2,2,0
475,2,2,0
476,2,2,0
477,2,2,0
478,2,2,0
479,2,2,0
480,2,2,0
481,2,2,0
482,2,2,0
483,2,2,0
484,2,2,0
485,2,2,0
486,2,2,0
487,2,2,0
488,2,2,0
489,2,2,0
490,2,2,0
491,2,2,0
492,2,2,0
493,2,2,0
494,2,2,0
495,2,2,0
496,2,2,0
497,2,2,0
498,2,2,0
499,2,2,0
500,2,2,0
501,2,2,0
502,2,2,0
503,2,2,0
504,2,2,0
505,2,2,0
506,2,2,0
507,2,2,0
508,2,2,0
509,2,2,0
510,2,2,0
511,2,2,0
512,2,2,0
*Output,field,frequency=1
*Node Output,nset=UPPERNODES
U,RF
*Contact Output
CDISP,CFORCE
*End Step
*Step,name=CELL7,nlgeom=YES,inc=10
*Coupled Temperature-Displacement,steady state
1,1,1,1
*Boundary,op=NEW
FIELD,1,1,0
FIELD,11,11,300
UPPERNODES,2,2,-.0002
CONTROLS,3,5,0
1,2,2,0
2,2,2,0
3,2,2,0
4,2,2,0
5,2,2,0
6,2,2,0
7,2,2,0
8,2,2,0
9,2,2,0
10,2,2,0
11,2,2,0
12,2,2,0
13,2,2,0
14,2,2,0
15,2,2,0
16,2,2,0
17,2,2,0
18,2,2,0
19,2,2,0
20,2,2,0
21,2,2,0
22,2,2,0
23,2,2,0
24,2,2,0
25,2,2,0
26,2,2,0
27,2,2,0
28,2,2,0
29,2,2,0
30,2,2,0
31,2,2,0
32,2,2,0
33,2,2,0
34,2,2,0
35,2,2,0
36,2,2,0
37,2,2,0
38,2,2,0
39,2,2,0
40,2,2,0
41,2,2,0
42,2,2,0
43,2,2,0
44,2,2,0
45,2,2,0
46,2,2,0
47,2,2,0
48,2,2,0
49,2,2,1e-07
50,2,2,1e-07
51,2,2,1e-07
52,2,2,1e-07
53,2,2,1e-07
54,2,2,1e-07
55,2,2,1e-07
56,2,2,1e-07
57,2,2,0
58,2,2,0
59,2,2,0
60,2,2,0
61,2,2,0
62,2,2,0
63,2,2,0
64,2,2,0
65,2,2,0
66,2,2,0
67,2,2,0
68,2,2,0
69,2,2,0
70,2,2,0
71,2,2,0
72,2,2,0
73,2,2,0
74,2,2,0
75,2,2,0
76,2,2,0
77,2,2,0
78,2,2,0
79,2,2,0
80,2,2,0
81,2,2,0
82,2,2,0
83,2,2,0
84,2,2,0
85,2,2,0
86,2,2,0
87,2,2,0
88,2,2,0
89,2,2,0
90,2,2,0
91,2,2,0
92,2,2,0
93,2,2,0
94,2,2,0
95,2,2,0
96,2,2,0
97,2,2,0
98,2,2,0
99,2,2,0
100,2,2,0
101,2,2,0
102,2,2,0
103,2,2,0
104,2,2,0
105,2,2,0
106,2,2,0
107,2,2,0
108,2,2,0
109,2,2,0
110,2,2,0
111,2,2,0
112,2,2,0
113,2,2,0
114,2,2,0
115,2,2,0
116,2,2,0
117,2,2,0
118,2,2,0
119,2,2,0
120,2,2,0
121,2,2,0
122,2,2,0
123,2,2,0
124,2,2,0
125,2,2,0
126,2,2,0
127,2,2,0
128,2,2,0
129,2,2,0
130,2,2,0
131,2,2,0
132,2,2,0
133,2,2,0
134,2,2,0
135,2,2,0
136,2,2,0
137,2,2,0
138,2,2,0
139,2,2,0
140,2,2,0
141,2,2,0
142,2,2,0
143,2,2,0
144,2,2,0
145,2,2,0
146,2,2,0
147,2,2,0
148,2,2,0
149,2,2,0
150,2,2,0
151,2,2,0
152,2,2,0
153,2,2,0
154,2,2,0
155,2,2,0
156,2,2,0
157,2,2,0
158,2,2,0
159,2,2,0
160,2,2,0
161,2,2,0
162,2,2,0
163,2,2,0
164,2,2,0
165,2,2,0
166,2,2,0
167,2,2,0
168,2,2,0
169,2,2,0
170,2,2,0
171,2,2,0
172,2,2,0
173,2,2,0
174,2,2,0
175,2,2,0
176,2,2,0
177,2,2,0
178,2,2,0
179,2,2,0
180,2,2,0
181,2,2,0
182,2,2,0
183,2,2,0
184,2,2,0
185,2,2,0
186,2,2,0
187,2,2,0
188,2,2,0
189,2,2,0
190,2,2,0
191,2,2,0
192,2,2,0
193,2,2,0
194,2,2,0
195,2,2,0
196,2,2,0
197,2,2,0
198,2,2,0
199,2,2,0
200,2,2,0
201,2,2,0
202,2,2,0
203,2,2,0
204,2,2,0
205,2,2,0
206,2,2,0
207,2,2,0
208,2,2,0
209,2,2,0
210,2,2,0
211,2,2,0
212,2,2,0
213,2,2,0
214,2,2,0
215,2,2,0
216,2,2,0
217,2,2,0
218,2,2,0
219,2,2,0
220,2,2,0
221,2,2,0
222,2,2,0
223,2,2,0
224,2,2,0
225,2,2,0
226,2,2,0
227,2,2,0
228,2,2,0
229,2,2,0
230,2,2,0
231,2,2,0
232,2,2,0
233,2,2,0
234,2,2,0
235,2,2,0
236,2,2,0
237,2,2,0
238,2,2,0
239,2,2,0
240,2,2,0
241,2,2,0
242,2,2,0
243,2,2,0
244,2,2,0
245,2,2,0
246,2,2,0
247,2,2,0
248,2,2,0
249,2,2,0
250,2,2,0
251,2,2,0
252,2,2,0
253,2,2,0
254,2,2,0
255,2,2,0
256,2,2,0
257,2,2,0
258,2,2,0
259,2,2,0
260,2,2,0
261,2,2,0
262,2,2,0
263,2,2,0
264,2,2,0
265,2,2,0
266,2,2,0
267,2,2,0
268,2,2,0
269,2,2,0
270,2,2,0
271,2,2,0
272,2,2,0
273,2,2,0
274,2,2,0
275,2,2,0
276,2,2,0
277,2,2,0
278,2,2,0
279,2,2,0
280,2,2,0
281,2,2,0
282,2,2,0
283,2,2,0
284,2,2,0
285,2,2,0
286,2,2,0
287,2,2,0
288,2,2,0
289,2,2,0
290,2,2,0
291,2,2,0
292,2,2,0
293,2,2,0
294,2,2,0
295,2,2,0
296,2,2,0
297,2,2,0
298,2,2,0
299,2,2,0
300,2,2,0
301,2,2,0
302,2,2,0
303,2,2,0
304,2,2,0
305,2,2,0
306,2,2,0
307,2,2,0
308,2,2,0
309,2,2,0
310,2,2,0
311,2,2,0
312,2,2,0
313,2,2,0
314,2,2,0
315,2,2,0
316,2,2,0
317,2,2,0
318,2,2,0
319,2,2,0
320,2,2,0
321,2,2,0
322,2,2,0
323,2,2,0
324,2,2,0
325,2,2,0
326,2,2,0
327,2,2,0
328,2,2,0
329,2,2,0
330,2,2,0
331,2,2,0
332,2,2,0
333,2,2,0
334,2,2,0
335,2,2,0
336,2,2,0
337,2,2,0
338,2,2,0
339,2,2,0
340,2,2,0
341,2,2,0
342,2,2,0
343,2,2,0
344,2,2,0
345,2,2,0
346,2,2,0
347,2,2,0
348,2,2,0
349,2,2,0
350,2,2,0
351,2,2,0
352,2,2,0
353,2,2,0
354,2,2,0
355,2,2,0
356,2,2,0
357,2,2,0
358,2,2,0
359,2,2,0
360,2,2,0
361,2,2,0
362,2,2,0
363,2,2,0
364,2,2,0
365,2,2,0
366,2,2,0
367,2,2,0
368,2,2,0
369,2,2,0
370,2,2,0
371,2,2,0
372,2,2,0
373,2,2,0
374,2,2,0
375,2,2,0
376,2,2,0
377,2,2,0
378,2,2,0
379,2,2,0
380,2,2,0
381,2,2,0
382,2,2,0
383,2,2,0
384,2,2,0
385,2,2,0
386,2,2,0
387,2,2,0
388,2,2,0
389,2,2,0
390,2,2,0
391,2,2,0
392,2,2,0
393,2,2,0
394,2,2,0
395,2,2,0
396,2,2,0
397,2,2,0
398,2,2,0
399,2,2,0
400,2,2,0
401,2,2,0
402,2,2,0
403,2,2,0
404,2,2,0
405,2,2,0
406,2,2,0
407,2,2,0
408,2,2,0
409,2,2,0
410,2,2,0
411,2,2,0
412,2,2,0
413,2,2,0
414,2,2,0
415,2,2,0
416,2,2,0
417,2,2,0
418,2,2,0
419,2,2,0
420,2,2,0
421,2,2,0
422,2,2,0
423,2,2,0
424,2,2,0
425,2,2,0
426,2,2,0
427,2,2,0
428,2,2,0
429,2,2,0
430,2,2,0
431,2,2,0
432,2,2,0
433,2,2,0
434,2,2,0
435,2,2,0
436,2,2,0
437,2,2,0
438,2,2,0
439,2,2,0
440,2,2,0
441,2,2,0
442,2,2,0
443,2,2,0
444,2,2,0
445,2,2,0
446,2,2,0
447,2,2,0
448,2,2,0
449,2,2,0
450,2,2,0
451,2,2,0
452,2,2,0
453,2,2,0
454,2,2,0
455,2,2,0
456,2,2,0
457,2,2,0
458,2,2,0
459,2,2,0
460,2,2,0
461,2,2,0
462,2,2,0
463,2,2,0
464,2,2,0
465,2,2,0
466,2,2,0
467,2,2,0
468,2,2,0
469,2,2,0
470,2,2,0
471,2,2,0
472,2,2,0
473,2,2,0
474,2,2,0
475,2,2,0
476,2,2,0
477,2,2,0
478,2,2,0
479,2,2,0
480,2,2,0
481,2,2,0
482,2,2,0
483,2,2,0
484,2,2,0
485,2,2,0
486,2,2,0
487,2,2,0
488,2,2,0
489,2,2,0
490,2,2,0
491,2,2,0
492,2,2,0
493,2,2,0
494,2,2,0
495,2,2,0
496,2,2,0
497,2,2,0
498,2,2,0
499,2,2,0
500,2,2,0
501,2,2,0
502,2,2,0
503,2,2,0
504,2,2,0
505,2,2,0
506,2,2,0
507,2,2,0
508,2,2,0
509,2,2,0
510,2,2,0
511,2,2,0
512,2,2,0
*Output,field,frequency=1
*Node Output,nset=UPPERNODES
U,RF
*Contact Output
CDISP,CFORCE
*End Step
*Step,name=CELL8,nlgeom=YES,inc=10
*Coupled Temperature-Displacement,steady state
1,1,1,1
*Boundary,op=NEW
FIELD,1,1,0
FIELD,11,11,300
UPPERNODES,2,2,-.0002
CONTROLS,3,5,0
1,2,2,0
2,2,2,0
3,2,2,0
4,2,2,0
5,2,2,0
6,2,2,0
7,2,2,0
8,2,2,0
9,2,2,0
10,2,2,0
11,2,2,0
12,2,2,0
13,2,2,0
14,2,2,0
15,2,2,0
16,2,2,0
17,2,2,0
18,2,2,0
19,2,2,0
20,2,2,0
21,2,2,0
22,2,2,0
23,2,2,0
24,2,2,0
25,2,2,0
26,2,2,0
27,2,2,0
28,2,2,0
29,2,2,0
30,2,2,0
31,2,2,0
32,2,2,0
33,2,2,0
34,2,2,0
35,2,2,0
36,2,2,0
37,2,2,0
38,2,2,0
39,2,2,0
40,2,2,0
41,2,2,0
42,2,2,0
43,2,2,0
44,2,2,0
45,2,2,0
46,2,2,0
47,2,2,0
48,2,2,0
49,2,2,0
50,2,2,0
51,2,2,0
52,2,2,0
53,2,2,0
54,2,2,0
55,2,2,0
56,2,2,0
57,2,2,1e-07
58,2,2,1e-07
59,2,2,1e-07
60,2,2,1e-07
61,2,2,1e-07
62,2,2,1e-07
63,2,2,1e-07
64,2,2,1e-07
65,2,2,0
66,2,2,0
67,2,2,0
68,2,2,0
69,2,2,0
70,2,2,0
71,2,2,0
72,2,2,0
73,2,2,0
74,2,2,0
75,2,2,0
76,2,2,0
77,2,2,0
78,2,2,0
79,2,2,0
80,2,2,0
81,2,2,0
82,2,2,0
83,2,2,0
84,2,2,0
85,2,2,0
86,2,2,0
87,2,2,0
88,2,2,0
89,2,2,0
90,2,2,0
91,2,2,0
92,2,2,0
93,2,2,0
94,2,2,0
95,2,2,0
96,2,2,0
97,2,2,0
98,2,2,0
99,2,2,0
100,2,2,0
101,2,2,0
102,2,2,0
103,2,2,0
104,2,2,0
105,2,2,0
106,2,2,0
107,2,2,0
108,2,2,0
109,2,2,0
110,2,2,0
111,2,2,0
112,2,2,0
113,2,2,0
114,2,2,0
115,2,2,0
116,2,2,0
117,2,2,0
118,2,2,0
119,2,2,0
120,2,2,0
121,2,2,0
122,2,2,0
123,2,2,0
124,2,2,0
125,2,2,0
126,2,2,0
127,2,2,0
128,2,2,0
129,2,2,0
130,2,2,0
131,2,2,0
132,2,2,0
133,2,2,0
134,2,2,0
135,2,2,0
136,2,2,0
137,2,2,0
138,2,2,0
139,2,2,0
140,2,2,0
141,2,2,0
142,2,2,0
143,2,2,0
144,2,2,0
145,2,2,0
146,2,2,0
147,2,2,0
148,2,2,0
149,2,2,0
150,2,2,0
151,2,2,0
152,2,2,0
153,2,2,0
154,2,2,0
155,2,2,0
156,2,2,0
157,2,2,0
158,2,2,0
159,2,2,0
160,2,2,0
161,2,2,0
162,2,2,0
163,2,2,0
164,2,2,0
165,2,2,0
166,2,2,0
167,2,2,0
168,2,2,0
169,2,2,0
170,2,2,0
171,2,2,0
172,2,2,0
173,2,2,0
174,2,2,0
175,2,2,0
176,2,2,0
177,2,2,0
178,2,2,0
179,2,2,0
180,2,2,0
181,2,2,0
182,2,2,0
183,2,2,0
184,2,2,0
185,2,2,0
186,2,2,0
187,2,2,0
188,2,2,0
189,2,2,0
190,2,2,0
191,2,2,0
192,2,2,0
193,2,2,0
194,2,2,0
195,2,2,0
196,2,2,0
197,2,2,0
198,2,2,0
199,2,2,0
200,2,2,0
201,2,2,0
202,2,2,0
203,2,2,0
204,2,2,0
205,2,2,0
206,2,2,0
207,2,2,0
208,2,2,0
209,2,2,0
210,2,2,0
211,2,2,0
212,2,2,0
213,2,2,0
214,2,2,0
215,2,2,0
216,2,2,0
217,2,2,0
218,2,2,0
219,2,2,0
220,2,2,0
221,2,2,0
222,2,2,0
223,2,2,0
224,2,2,0
225,2,2,0
226,2,2,0
227,2,2,0
228,2,2,0
229,2,2,0
230,2,2,0
231,2,2,0
232,2,2,0
233,2,2,0
234,2,2,0
235,2,2,0
236,2,2,0
237,2,2,0
238,2,2,0
239,2,2,0
240,2,2,0
241,2,2,0
242,2,2,0
243,2,2,0
244,2,2,0
245,2,2,0
246,2,2,0
247,2,2,0
248,2,2,0
249,2,2,0
250,2,2,0
251,2,2,0
252,2,2,0
253,2,2,0
254,2,2,0
255,2,2,0
256,2,2,0
257,2,2,0
258,2,2,0
259,2,2,0
260,2,2,0
261,2,2,0
262,2,2,0
263,2,2,0
264,2,2,0
265,2,2,0
266,2,2,0
267,2,2,0
268,2,2,0
269,2,2,0
270,2,2,0
271,2,2,0
272,2,2,0
273,2,2,0
274,2,2,0
275,2,2,0
276,2,2,0
277,2,2,0
278,2,2,0
279,2,2,0
280,2,2,0
281,2,2,0
282,2,2,0
283,2,2,0
284,2,2,0
285,2,2,0
286,2,2,0
287,2,2,0
288,2,2,0
289,2,2,0
290,2,2,0
291,2,2,0
292,2,2,0
293,2,2,0
294,2,2,0
295,2,2,0
296,2,2,0
297,2,2,0
298,2,2,0
299,2,2,0
300,2,2,0
301,2,2,0
302,2,2,0
303,2,2,0
304,2,2,0
305,2,2,0
306,2,2,0
307,2,2,0
308,2,2,0
309,2,2,0
310,2,2,0
311,2,2,0
312,2,2,0
313,2,2,0
314,2,2,0
315,2,2,0
316,2,2,0
317,2,2,0
318,2,2,0
319,2,2,0
320,2,2,0
321,2,2,0
322,2,2,0
323,2,2,0
324,2,2,0
325,2,2,0
326,2,2,0
327,2,2,0
328,2,2,0
329,2,2,0
330,2,2,0
331,2,2,0
332,2,2,0
333,2,2,0
334,2,2,0
335,2,2,0
336,2,2,0
337,2,2,0
338,2,2,0
339,2,2,0
340,2,2,0
341,2,2,0
342,2,2,0
343,2,2,0
344,2,2,0
345,2,2,0
346,2,2,0
347,2,2,0
348,2,2,0
349,2,2,0
350,2,2,0
351,2,2,0
352,2,2,0
353,2,2,0
354,2,2,0
355,2,2,0
356,2,2,0
357,2,2,0
358,2,2,0
359,2,2,0
360,2,2,0
361,2,2,0
362,2,2,0
363,2,2,0
364,2,2,0
365,2,2,0
366,2,2,0
367,2,2,0
368,2,2,0
369,2,2,0
370,2,2,0
371,2,2,0
372,2,2,0
373,2,2,0
374,2,2,0
375,2,2,0
376,2,2,0
377,2,2,0
378,2,2,0
379,2,2,0
380,2,2,0
381,2,2,0
382,2,2,0
383,2,2,0
384,2,2,0
385,2,2,0
386,2,2,0
387,2,2,0
388,2,2,0
389,2,2,0
390,2,2,0
391,2,2,0
392,2,2,0
393,2,2,0
394,2,2,0
395,2,2,0
396,2,2,0
397,2,2,0
398,2,2,0
399,2,2,0
400,2,2,0
401,2,2,0
402,2,2,0
403,2,2,0
404,2,2,0
405,2,2,0
406,2,2,0
407,2,2,0
408,2,2,0
409,2,2,0
410,2,2,0
411,2,2,0
412,2,2,0
413,2,2,0
414,2,2,0
415,2,2,0
416,2,2,0
417,2,2,0
418,2,2,0
419,2,2,0
420,2,2,0
421,2,2,0
422,2,2,0
423,2,2,0
424,2,2,0
425,2,2,0
426,2,2,0
427,2,2,0
428,2,2,0
429,2,2,0
430,2,2,0
431,2,2,0
432,2,2,0
433,2,2,0
434,2,2,0
435,2,2,0
436,2,2,0
437,2,2,0
438,2,2,0
439,2,2,0
440,2,2,0
441,2,2,0
442,2,2,0
443,2,2,0
444,2,2,0
445,2,2,0
446,2,2,0
447,2,2,0
448,2,2,0
449,2,2,0
450,2,2,0
451,2,2,0
452,2,2,0
453,2,2,0
454,2,2,0
455,2,2,0
456,2,2,0
457,2,2,0
458,2,2,0
459,2,2,0
460,2,2,0
461,2,2,0
462,2,2,0
463,2,2,0
464,2,2,0
465,2,2,0
466,2,2,0
467,2,2,0
468,2,2,0
469,2,2,0
470,2,2,0
471,2,2,0
472,2,2,0
473,2,2,0
474,2,2,0
475,2,2,0
476,2,2,0
477,2,2,0
478,2,2,0
479,2,2,0
480,2,2,0
481,2,2,0
482,2,2,0
483,2,2,0
484,2,2,0
485,2,2,0
486,2,2,0
487,2,2,0
488,2,2,0
489,2,2,0
490,2,2,0
491,2,2,0
492,2,2,0
493,2,2,0
494,2,2,0
495,2,2,0
496,2,2,0
497,2,2,0
498,2,2,0
499,2,2,0
500,2,2,0
501,2,2,0
502,2,2,0
503,2,2,0
504,2,2,0
505,2,2,0
506,2,2,0
507,2,2,0
508,2,2,0
509,2,2,0
510,2,2,0
511,2,2,0
512,2,2,0
*Output,field,frequency=1
*Node Output,nset=UPPERNODES
U,RF
*Contact Output
CDISP,CFORCE
*End Step
*Step,name=CELL9,nlgeom=YES,inc=10
*Coupled Temperature-Displacement,steady state
1,1,1,1
*Boundary,op=NEW
FIELD,1,1,0
FIELD,11,11,300
UPPERNODES,2,2,-.0002
CONTROLS,3,5,0
1,2,2,0
2,2,2,0
3,2,2,0
4,2,2,0
5,2,2,0
6,2,2,0
7,2,2,0
8,2,2,0
9,2,2,0
10,2,2,0
11,2,2,0
12,2,2,0
13,2,2,0
14,2,2,0
15,2,2,0
16,2,2,0
17,2,2,0
18,2,2,0
19,2,2,0
20,2,2,0
21,2,2,0
22,2,2,0
23,2,2,0
24,2,2,0
25,2,2,0
26,2,2,0
27,2,2,0
28,2,2,0
29,2,2,0
30,2,2,0
31,2,2,0
32,2,2,0
33,2,2,0
34,2,2,0
35,2,2,0
36,2,2,0
37,2,2,0
38,2,2,0
39,2,2,0
40,2,2,0
41,2,2,0
42,2,2,0
43,2,2,0
44,2,2,0
45,2,2,0
46,2,2,0
47,2,2,0
48,2,2,0
49,2,2,0
50,2,2,0
51,2,2,0
52,2,2,0
53,2,2,0
54,2,2,0
55,2,2,0
56,2,2,0
57,2,2,0
58,2,2,0
59,2,2,0
60,2,2,0
61,2,2,0
62,2,2,0
63,2,2,0
64,2,2,0
65,2,2,1e-07
66,2,2,1e-07
67,2,2,1e-07
68,2,2,1e-07
69,2,2,1e-07
70,2,2,1e-07
71,2,2,1e-07
72,2,2,1e-07
73,2,2,0
74,2,2,0
75,2,2,0
76,2,2,0
77,2,2,0
78,2,2,0
79,2,2,0
80,2,2,0
81,2,2,0
82,2,2,0
83,2,2,0
84,2,2,0
85,2,2,0
86,2,2,0
87,2,2,0
88,2,2,0
89,2,2,0
90,2,2,0
91,2,2,0
92,2,2,0
93,2,2,0
94,2,2,0
95,2,2,0
96,2,2,0
97,2,2,0
98,2,2,0
99,2,2,0
100,2,2,0
101,2,2,0
102,2,2,0
103,2,2,0
104,2,2,0
105,2,2,0
106,2,2,0
107,2,2,0
108,2,2,0
109,2,2,0
110,2,2,0
111,2,2,0
112,2,2,0
113,2,2,0
114,2,2,0
115,2,2,0
116,2,2,0
117,2,2,0
118,2,2,0
119,2,2,0
120,2,2,0
121,2,2,0
122,2,2,0
123,2,2,0
124,2,2,0
125,2,2,0
126,2,2,0
127,2,2,0
128,2,2,0
129,2,2,0
130,2,2,0
131,2,2,0
132,2,2,0
133,2,2,0
134,2,2,0
135,2,2,0
136,2,2,0
137,2,2,0
138,2,2,0
139,2,2,0
140,2,2,0
141,2,2,0
142,2,2,0
143,2,2,0
144,2,2,0
145,2,2,0
146,2,2,0
147,2,2,0
148,2,2,0
149,2,2,0
150,2,2,0
151,2,2,0
152,2,2,0
153,2,2,0
154,2,2,0
155,2,2,0
156,2,2,0
157,2,2,0
158,2,2,0
159,2,2,0
160,2,2,0
161,2,2,0
162,2,2,0
163,2,2,0
164,2,2,0
165,2,2,0
166,2,2,0
167,2,2,0
168,2,2,0
169,2,2,0
170,2,2,0
171,2,2,0
172,2,2,0
173,2,2,0
174,2,2,0
175,2,2,0
176,2,2,0
177,2,2,0
178,2,2,0
179,2,2,0
180,2,2,0
181,2,2,0
182,2,2,0
183,2,2,0
184,2,2,0
185,2,2,0
186,2,2,0
187,2,2,0
188,2,2,0
189,2,2,0
190,2,2,0
191,2,2,0
192,2,2,0
193,2,2,0
194,2,2,0
195,2,2,0
196,2,2,0
197,2,2,0
198,2,2,0
199,2,2,0
200,2,2,0
201,2,2,0
202,2,2,0
203,2,2,0
204,2,2,0
205,2,2,0
206,2,2,0
207,2,2,0
208,2,2,0
209,2,2,0
210,2,2,0
211,2,2,0
212,2,2,0
213,2,2,0
214,2,2,0
215,2,2,0
216,2,2,0
217,2,2,0
218,2,2,0
219,2,2,0
220,2,2,0
221,2,2,0
222,2,2,0
223,2,2,0
224,2,2,0
225,2,2,0
226,2,2,0
227,2,2,0
228,2,2,0
229,2,2,0
230,2,2,0
231,2,2,0
232,2,2,0
233,2,2,0
234,2,2,0
235,2,2,0
236,2,2,0
237,2,2,0
238,2,2,0
239,2,2,0
240,2,2,0
241,2,2,0
242,2,2,0
243,2,2,0
244,2,2,0
245,2,2,0
246,2,2,0
247,2,2,0
248,2,2,0
249,2,2,0
250,2,2,0
251,2,2,0
252,2,2,0
253,2,2,0
254,2,2,0
255,2,2,0
256,2,2,0
257,2,2,0
258,2,2,0
259,2,2,0
260,2,2,0
261,2,2,0
262,2,2,0
263,2,2,0
264,2,2,0
265,2,2,0
266,2,2,0
267,2,2,0
268,2,2,0
269,2,2,0
270,2,2,0
271,2,2,0
272,2,2,0
273,2,2,0
274,2,2,0
275,2,2,0
276,2,2,0
277,2,2,0
278,2,2,0
279,2,2,0
280,2,2,0
281,2,2,0
282,2,2,0
283,2,2,0
284,2,2,0
285,2,2,0
286,2,2,0
287,2,2,0
288,2,2,0
289,2,2,0
290,2,2,0
291,2,2,0
292,2,2,0
293,2,2,0
294,2,2,0
295,2,2,0
296,2,2,0
297,2,2,0
298,2,2,0
299,2,2,0
300,2,2,0
301,2,2,0
302,2,2,0
303,2,2,0
304,2,2,0
305,2,2,0
306,2,2,0
307,2,2,0
308,2,2,0
309,2,2,0
310,2,2,0
311,2,2,0
312,2,2,0
313,2,2,0
314,2,2,0
315,2,2,0
316,2,2,0
317,2,2,0
318,2,2,0
319,2,2,0
320,2,2,0
321,2,2,0
322,2,2,0
323,2,2,0
324,2,2,0
325,2,2,0
326,2,2,0
327,2,2,0
328,2,2,0
329,2,2,0
330,2,2,0
331,2,2,0
332,2,2,0
333,2,2,0
334,2,2,0
335,2,2,0
336,2,2,0
337,2,2,0
338,2,2,0
339,2,2,0
340,2,2,0
341,2,2,0
342,2,2,0
343,2,2,0
344,2,2,0
345,2,2,0
346,2,2,0
347,2,2,0
348,2,2,0
349,2,2,0
350,2,2,0
351,2,2,0
352,2,2,0
353,2,2,0
354,2,2,0
355,2,2,0
356,2,2,0
357,2,2,0
358,2,2,0
359,2,2,0
360,2,2,0
361,2,2,0
362,2,2,0
363,2,2,0
364,2,2,0
365,2,2,0
366,2,2,0
367,2,2,0
368,2,2,0
369,2,2,0
370,2,2,0
371,2,2,0
372,2,2,0
373,2,2,0
374,2,2,0
375,2,2,0
376,2,2,0
377,2,2,0
378,2,2,0
379,2,2,0
380,2,2,0
381,2,2,0
382,2,2,0
383,2,2,0
384,2,2,0
385,2,2,0
386,2,2,0
387,2,2,0
388,2,2,0
389,2,2,0
390,2,2,0
391,2,2,0
392,2,2,0
393,2,2,0
394,2,2,0
395,2,2,0
396,2,2,0
397,2,2,0
398,2,2,0
399,2,2,0
400,2,2,0
401,2,2,0
402,2,2,0
403,2,2,0
404,2,2,0
405,2,2,0
406,2,2,0
407,2,2,0
408,2,2,0
409,2,2,0
410,2,2,0
411,2,2,0
412,2,2,0
413,2,2,0
414,2,2,0
415,2,2,0
416,2,2,0
417,2,2,0
418,2,2,0
419,2,2,0
420,2,2,0
421,2,2,0
422,2,2,0
423,2,2,0
424,2,2,0
425,2,2,0
426,2,2,0
427,2,2,0
428,2,2,0
429,2,2,0
430,2,2,0
431,2,2,0
432,2,2,0
433,2,2,0
434,2,2,0
435,2,2,0
436,2,2,0
437,2,2,0
438,2,2,0
439,2,2,0
440,2,2,0
441,2,2,0
442,2,2,0
443,2,2,0
444,2,2,0
445,2,2,0
446,2,2,0
447,2,2,0
448,2,2,0
449,2,2,0
450,2,2,0
451,2,2,0
452,2,2,0
453,2,2,0
454,2,2,0
455,2,2,0
456,2,2,0
457,2,2,0
458,2,2,0
459,2,2,0
460,2,2,0
461,2,2,0
462,2,2,0
463,2,2,0
464,2,2,0
465,2,2,0
466,2,2,0
467,2,2,0
468,2,2,0
469,2,2,0
470,2,2,0
471,2,2,0
472,2,2,0
473,2,2,0
474,2,2,0
475,2,2,0
476,2,2,0
477,2,2,0
478,2,2,0
479,2,2,0
480,2,2,0
481,2,2,0
482,2,2,0
483,2,2,0
484,2,2,0
485,2,2,0
486,2,2,0
487,2,2,0
488,2,2,0
489,2,2,0
490,2,2,0
491,2,2,0
492,2,2,0
493,2,2,0
494,2,2,0
495,2,2,0
496,2,2,0
497,2,2,0
498,2,2,0
499,2,2,0
500,2,2,0
501,2,2,0
502,2,2,0
503,2,2,0
504,2,2,0
505,2,2,0
506,2,2,0
507,2,2,0
508,2,2,0
509,2,2,0
510,2,2,0
511,2,2,0
512,2,2,0
*Output,field,frequency=1
*Node Output,nset=UPPERNODES
U,RF
*Contact Output
CDISP,CFORCE
*End Step
*Step,name=CELL10,nlgeom=YES,inc=10
*Coupled Temperature-Displacement,steady state
1,1,1,1
*Boundary,op=NEW
FIELD,1,1,0
FIELD,11,11,300
UPPERNODES,2,2,-.0002
CONTROLS,3,5,0
1,2,2,0
2,2,2,0
3,2,2,0
4,2,2,0
5,2,2,0
6,2,2,0
7,2,2,0
8,2,2,0
9,2,2,0
10,2,2,0
11,2,2,0
12,2,2,0
13,2,2,0
14,2,2,0
15,2,2,0
16,2,2,0
17,2,2,0
18,2,2,0
19,2,2,0
20,2,2,0
21,2,2,0
22,2,2,0
23,2,2,0
24,2,2,0
25,2,2,0
26,2,2,0
27,2,2,0
28,2,2,0
29,2,2,0
30,2,2,0
31,2,2,0
32,2,2,0
33,2,2,0
34,2,2,0
35,2,2,0
36,2,2,0
37,2,2,0
38,2,2,0
39,2,2,0
40,2,2,0
41,2,2,0
42,2,2,0
43,2,2,0
44,2,2,0
45,2,2,0
46,2,2,0
47,2,2,0
48,2,2,0
49,2,2,0
50,2,2,0
51,2,2,0
52,2,2,0
53,2,2,0
54,2,2,0
55,2,2,0
56,2,2,0
57,2,2,0
58,2,2,0
59,2,2,0
60,2,2,0
61,2,2,0
62,2,2,0
63,2,2,0
64,2,2,0
65,2,2,0
66,2,2,0
67,2,2,0
68,2,2,0
69,2,2,0
70,2,2,0
71,2,2,0
72,2,2,0
73,2,2,1e-07
74,2,2,1e-07
75,2,2,1e-07
76,2,2,1e-07
77,2,2,1e-07
78,2,2,1e-07
79,2,2,1e-07
80,2,2,1e-07
81,2,2,0
82,2,2,0
83,2,2,0
84,2,2,0
85,2,2,0
86,2,2,0
87,2,2,0
88,2,2,0
89,2,2,0
90,2,2,0
91,2,2,0
92,2,2,0
93,2,2,0
94,2,2,0
95,2,2,0
96,2,2,0
97,2,2,0
98,2,2,0
99,2,2,0
100,2,2,0
101,2,2,0
102,2,2,0
103,2,2,0
104,2,2,0
105,2,2,0
106,2,2,0
107,2,2,0
108,2,2,0
109,2,2,0
110,2,2,0
111,2,2,0
112,2,2,0
113,2,2,0
114,2,2,0
115,2,2,0
116,2,2,0
117,2,2,0
118,2,2,0
119,2,2,0
120,2,2,0
121,2,2,0
122,2,2,0
123,2,2,0
124,2,2,0
125,2,2,0
126,2,2,0
127,2,2,0
128,2,2,0
129,2,2,0
130,2,2,0
131,2,2,0
132,2,2,0
133,2,2,0
134,2,2,0
135,2,2,0
136,2,2,0
137,2,2,0
138,2,2,0
139,2,2,0
140,2,2,0
141,2,2,0
142,2,2,0
143,2,2,0
144,2,2,0
145,2,2,0
146,2,2,0
147,2,2,0
148,2,2,0
149,2,2,0
150,2,2,0
151,2,2,0
152,2,2,0
153,2,2,0
154,2,2,0
155,2,2,0
156,2,2,0
157,2,2,0
158,2,2,0
159,2,2,0
160,2,2,0
161,2,2,0
162,2,2,0
163,2,2,0
164,2,2,0
165,2,2,0
166,2,2,0
167,2,2,0
168,2,2,0
169,2,2,0
170,2,2,0
171,2,2,0
172,2,2,0
173,2,2,0
174,2,2,0
175,2,2,0
176,2,2,0
177,2,2,0
178,2,2,0
179,2,2,0
180,2,2,0
181,2,2,0
182,2,2,0
183,2,2,0
184,2,2,0
185,2,2,0
186,2,2,0
187,2,2,0
188,2,2,0
189,2,2,0
190,2,2,0
191,2,2,0
192,2,2,0
193,2,2,0
194,2,2,0
195,2,2,0
196,2,2,0
197,2,2,0
198,2,2,0
199,2,2,0
200,2,2,0
201,2,2,0
202,2,2,0
203,2,2,0
204,2,2,0
205,2,2,0
206,2,2,0
207,2,2,0
208,2,2,0
209,2,2,0
210,2,2,0
211,2,2,0
212,2,2,0
213,2,2,0
214,2,2,0
215,2,2,0
216,2,2,0
217,2,2,0
218,2,2,0
219,2,2,0
220,2,2,0
221,2,2,0
222,2,2,0
223,2,2,0
224,2,2,0
225,2,2,0
226,2,2,0
227,2,2,0
228,2,2,0
229,2,2,0
230,2,2,0
231,2,2,0
232,2,2,0
233,2,2,0
234,2,2,0
235,2,2,0
236,2,2,0
237,2,2,0
238,2,2,0
239,2,2,0
240,2,2,0
241,2,2,0
242,2,2,0
243,2,2,0
244,2,2,0
245,2,2,0
246,2,2,0
247,2,2,0
248,2,2,0
249,2,2,0
250,2,2,0
251,2,2,0
252,2,2,0
253,2,2,0
254,2,2,0
255,2,2,0
256,2,2,0
257,2,2,0
258,2,2,0
259,2,2,0
260,2,2,0
261,2,2,0
262,2,2,0
263,2,2,0
264,2,2,0
265,2,2,0
266,2,2,0
267,2,2,0
268,2,2,0
269,2,2,0
270,2,2,0
271,2,2,0
272,2,2,0
273,2,2,0
274,2,2,0
275,2,2,0
276,2,2,0
277,2,2,0
278,2,2,0
279,2,2,0
280,2,2,0
281,2,2,0
282,2,2,0
283,2,2,0
284,2,2,0
285,2,2,0
286,2,2,0
287,2,2,0
288,2,2,0
289,2,2,0
290,2,2,0
291,2,2,0
292,2,2,0
293,2,2,0
294,2,2,0
295,2,2,0
296,2,2,0
297,2,2,0
298,2,2,0
299,2,2,0
300,2,2,0
301,2,2,0
302,2,2,0
303,2,2,0
304,2,2,0
305,2,2,0
306,2,2,0
307,2,2,0
308,2,2,0
309,2,2,0
310,2,2,0
311,2,2,0
312,2,2,0
313,2,2,0
314,2,2,0
315,2,2,0
316,2,2,0
317,2,2,0
318,2,2,0
319,2,2,0
320,2,2,0
321,2,2,0
322,2,2,0
323,2,2,0
324,2,2,0
325,2,2,0
326,2,2,0
327,2,2,0
328,2,2,0
329,2,2,0
330,2,2,0
331,2,2,0
332,2,2,0
333,2,2,0
334,2,2,0
335,2,2,0
336,2,2,0
337,2,2,0
338,2,2,0
339,2,2,0
340,2,2,0
341,2,2,0
342,2,2,0
343,2,2,0
344,2,2,0
345,2,2,0
346,2,2,0
347,2,2,0
348,2,2,0
349,2,2,0
350,2,2,0
351,2,2,0
352,2,2,0
353,2,2,0
354,2,2,0
355,2,2,0
356,2,2,0
357,2,2,0
358,2,2,0
359,2,2,0
360,2,2,0
361,2,2,0
362,2,2,0
363,2,2,0
364,2,2,0
365,2,2,0
366,2,2,0
367,2,2,0
368,2,2,0
369,2,2,0
370,2,2,0
371,2,2,0
372,2,2,0
373,2,2,0
374,2,2,0
375,2,2,0
376,2,2,0
377,2,2,0
378,2,2,0
379,2,2,0
380,2,2,0
381,2,2,0
382,2,2,0
383,2,2,0
384,2,2,0
385,2,2,0
386,2,2,0
387,2,2,0
388,2,2,0
389,2,2,0
390,2,2,0
391,2,2,0
392,2,2,0
393,2,2,0
394,2,2,0
395,2,2,0
396,2,2,0
397,2,2,0
398,2,2,0
399,2,2,0
400,2,2,0
401,2,2,0
402,2,2,0
403,2,2,0
404,2,2,0
405,2,2,0
406,2,2,0
407,2,2,0
408,2,2,0
409,2,2,0
410,2,2,0
411,2,2,0
412,2,2,0
413,2,2,0
414,2,2,0
415,2,2,0
416,2,2,0
417,2,2,0
418,2,2,0
419,2,2,0
420,2,2,0
421,2,2,0
422,2,2,0
423,2,2,0
424,2,2,0
425,2,2,0
426,2,2,0
427,2,2,0
428,2,2,0
429,2,2,0
430,2,2,0
431,2,2,0
432,2,2,0
433,2,2,0
434,2,2,0
435,2,2,0
436,2,2,0
437,2,2,0
438,2,2,0
439,2,2,0
440,2,2,0
441,2,2,0
442,2,2,0
443,2,2,0
444,2,2,0
445,2,2,0
446,2,2,0
447,2,2,0
448,2,2,0
449,2,2,0
450,2,2,0
451,2,2,0
452,2,2,0
453,2,2,0
454,2,2,0
455,2,2,0
456,2,2,0
457,2,2,0
458,2,2,0
459,2,2,0
460,2,2,0
461,2,2,0
462,2,2,0
463,2,2,0
464,2,2,0
465,2,2,0
466,2,2,0
467,2,2,0
468,2,2,0
469,2,2,0
470,2,2,0
471,2,2,0
472,2,2,0
473,2,2,0
474,2,2,0
475,2,2,0
476,2,2,0
477,2,2,0
478,2,2,0
479,2,2,0
480,2,2,0
481,2,2,0
482,2,2,0
483,2,2,0
484,2,2,0
485,2,2,0
486,2,2,0
487,2,2,0
488,2,2,0
489,2,2,0
490,2,2,0
491,2,2,0
492,2,2,0
493,2,2,0
494,2,2,0
495,2,2,0
496,2,2,0
497,2,2,0
498,2,2,0
499,2,2,0
500,2,2,0
501,2,2,0
502,2,2,0
503,2,2,0
504,2,2,0
505,2,2,0
506,2,2,0
507,2,2,0
508,2,2,0
509,2,2,0
510,2,2,0
511,2,2,0
512,2,2,0
*Output,field,frequency=1
*Node Output,nset=UPPERNODES
U,RF
*Contact Output
CDISP,CFORCE
*End Step
*Step,name=CELL11,nlgeom=YES,inc=10
*Coupled Temperature-Displacement,steady state
1,1,1,1
*Boundary,op=NEW
FIELD,1,1,0
FIELD,11,11,300
UPPERNODES,2,2,-.0002
CONTROLS,3,5,0
1,2,2,0
2,2,2,0
3,2,2,0
4,2,2,0
5,2,2,0
6,2,2,0
7,2,2,0
8,2,2,0
9,2,2,0
10,2,2,0
11,2,2,0
12,2,2,0
13,2,2,0
14,2,2,0
15,2,2,0
16,2,2,0
17,2,2,0
18,2,2,0
19,2,2,0
20,2,2,0
21,2,2,0
22,2,2,0
23,2,2,0
24,2,2,0
25,2,2,0
26,2,2,0
27,2,2,0
28,2,2,0
29,2,2,0
30,2,2,0
31,2,2,0
32,2,2,0
33,2,2,0
34,2,2,0
35,2,2,0
36,2,2,0
37,2,2,0
38,2,2,0
39,2,2,0
40,2,2,0
41,2,2,0
42,2,2,0
43,2,2,0
44,2,2,0
45,2,2,0
46,2,2,0
47,2,2,0
48,2,2,0
49,2,2,0
50,2,2,0
51,2,2,0
52,2,2,0
53,2,2,0
54,2,2,0
55,2,2,0
56,2,2,0
57,2,2,0
58,2,2,0
59,2,2,0
60,2,2,0
61,2,2,0
62,2,2,0
63,2,2,0
64,2,2,0
65,2,2,0
66,2,2,0
67,2,2,0
68,2,2,0
69,2,2,0
70,2,2,0
71,2,2,0
72,2,2,0
73,2,2,0
74,2,2,0
75,2,2,0
76,2,2,0
77,2,2,0
78,2,2,0
79,2,2,0
80,2,2,0
81,2,2,1e-07
82,2,2,1e-07
83,2,2,1e-07
84,2,2,1e-07
85,2,2,1e-07
86,2,2,1e-07
87,2,2,1e-07
88,2,2,1e-07
89,2,2,0
90,2,2,0
91,2,2,0
92,2,2,0
93,2,2,0
94,2,2,0
95,2,2,0
96,2,2,0
97,2,2,0
98,2,2,0
99,2,2,0
100,2,2,0
101,2,2,0
102,2,2,0
103,2,2,0
104,2,2,0
105,2,2,0
106,2,2,0
107,2,2,0
108,2,2,0
109,2,2,0
110,2,2,0
111,2,2,0
112,2,2,0
113,2,2,0
114,2,2,0
115,2,2,0
116,2,2,0
117,2,2,0
118,2,2,0
119,2,2,0
120,2,2,0
121,2,2,0
122,2,2,0
123,2,2,0
124,2,2,0
125,2,2,0
126,2,2,0
127,2,2,0
128,2,2,0
129,2,2,0
130,2,2,0
131,2,2,0
132,2,2,0
133,2,2,0
134,2,2,0
135,2,2,0
136,2,2,0
137,2,2,0
138,2,2,0
139,2,2,0
140,2,2,0
141,2,2,0
142,2,2,0
143,2,2,0
144,2,2,0
145,2,2,0
146,2,2,0
147,2,2,0
148,2,2,0
149,2,2,0
150,2,2,0
151,2,2,0
152,2,2,0
153,2,2,0
154,2,2,0
155,2,2,0
156,2,2,0
157,2,2,0
158,2,2,0
159,2,2,0
160,2,2,0
161,2,2,0
162,2,2,0
163,2,2,0
164,2,2,0
165,2,2,0
166,2,2,0
167,2,2,0
168,2,2,0
169,2,2,0
170,2,2,0
171,2,2,0
172,2,2,0
173,2,2,0
174,2,2,0
175,2,2,0
176,2,2,0
177,2,2,0
178,2,2,0
179,2,2,0
180,2,2,0
181,2,2,0
182,2,2,0
183,2,2,0
184,2,2,0
185,2,2,0
186,2,2,0
187,2,2,0
188,2,2,0
189,2,2,0
190,2,2,0
191,2,2,0
192,2,2,0
193,2,2,0
194,2,2,0
195,2,2,0
196,2,2,0
197,2,2,0
198,2,2,0
199,2,2,0
200,2,2,0
201,2,2,0
202,2,2,0
203,2,2,0
204,2,2,0
205,2,2,0
206,2,2,0
207,2,2,0
208,2,2,0
209,2,2,0
210,2,2,0
211,2,2,0
212,2,2,0
213,2,2,0
214,2,2,0
215,2,2,0
216,2,2,0
217,2,2,0
218,2,2,0
219,2,2,0
220,2,2,0
221,2,2,0
222,2,2,0
223,2,2,0
224,2,2,0
225,2,2,0
226,2,2,0
227,2,2,0
228,2,2,0
229,2,2,0
230,2,2,0
231,2,2,0
232,2,2,0
233,2,2,0
234,2,2,0
235,2,2,0
236,2,2,0
237,2,2,0
238,2,2,0
239,2,2,0
240,2,2,0
241,2,2,0
242,2,2,0
243,2,2,0
244,2,2,0
245,2,2,0
246,2,2,0
247,2,2,0
248,2,2,0
249,2,2,0
250,2,2,0
251,2,2,0
252,2,2,0
253,2,2,0
254,2,2,0
255,2,2,0
256,2,2,0
257,2,2,0
258,2,2,0
259,2,2,0
260,2,2,0
261,2,2,0
262,2,2,0
263,2,2,0
264,2,2,0
265,2,2,0
266,2,2,0
267,2,2,0
268,2,2,0
269,2,2,0
270,2,2,0
271,2,2,0
272,2,2,0
273,2,2,0
274,2,2,0
275,2,2,0
276,2,2,0
277,2,2,0
278,2,2,0
279,2,2,0
280,2,2,0
281,2,2,0
282,2,2,0
283,2,2,0
284,2,2,0
285,2,2,0
286,2,2,0
287,2,2,0
288,2,2,0
289,2,2,0
290,2,2,0
291,2,2,0
292,2,2,0
293,2,2,0
294,2,2,0
295,2,2,0
296,2,2,0
297,2,2,0
298,2,2,0
299,2,2,0
300,2,2,0
301,2,2,0
302,2,2,0
303,2,2,0
304,2,2,0
305,2,2,0
306,2,2,0
307,2,2,0
308,2,2,0
309,2,2,0
310,2,2,0
311,2,2,0
312,2,2,0
313,2,2,0
314,2,2,0
315,2,2,0
316,2,2,0
317,2,2,0
318,2,2,0
319,2,2,0
320,2,2,0
321,2,2,0
322,2,2,0
323,2,2,0
324,2,2,0
325,2,2,0
326,2,2,0
327,2,2,0
328,2,2,0
329,2,2,0
330,2,2,0
331,2,2,0
332,2,2,0
333,2,2,0
334,2,2,0
335,2,2,0
336,2,2,0
337,2,2,0
338,2,2,0
339,2,2,0
340,2,2,0
341,2,2,0
342,2,2,0
343,2,2,0
344,2,2,0
345,2,2,0
346,2,2,0
347,2,2,0
348,2,2,0
349,2,2,0
350,2,2,0
351,2,2,0
352,2,2,0
353,2,2,0
354,2,2,0
355,2,2,0
356,2,2,0
357,2,2,0
358,2,2,0
359,2,2,0
360,2,2,0
361,2,2,0
362,2,2,0
363,2,2,0
364,2,2,0
365,2,2,0
366,2,2,0
367,2,2,0
368,2,2,0
369,2,2,0
370,2,2,0
371,2,2,0
372,2,2,0
373,2,2,0
374,2,2,0
375,2,2,0
376,2,2,0
377,2,2,0
378,2,2,0
379,2,2,0
380,2,2,0
381,2,2,0
382,2,2,0
383,2,2,0
384,2,2,0
385,2,2,0
386,2,2,0
387,2,2,0
388,2,2,0
389,2,2,0
390,2,2,0
391,2,2,0
392,2,2,0
393,2,2,0
394,2,2,0
395,2,2,0
396,2,2,0
397,2,2,0
398,2,2,0
399,2,2,0
400,2,2,0
401,2,2,0
402,2,2,0
403,2,2,0
404,2,2,0
405,2,2,0
406,2,2,0
407,2,2,0
408,2,2,0
409,2,2,0
410,2,2,0
411,2,2,0
412,2,2,0
413,2,2,0
414,2,2,0
415,2,2,0
416,2,2,0
417,2,2,0
418,2,2,0
419,2,2,0
420,2,2,0
421,2,2,0
422,2,2,0
423,2,2,0
424,2,2,0
425,2,2,0
426,2,2,0
427,2,2,0
428,2,2,0
429,2,2,0
430,2,2,0
431,2,2,0
432,2,2,0
433,2,2,0
434,2,2,0
435,2,2,0
436,2,2,0
437,2,2,0
438,2,2,0
439,2,2,0
440,2,2,0
441,2,2,0
442,2,2,0
443,2,2,0
444,2,2,0
445,2,2,0
446,2,2,0
447,2,2,0
448,2,2,0
449,2,2,0
450,2,2,0
451,2,2,0
452,2,2,0
453,2,2,0
454,2,2,0
455,2,2,0
456,2,2,0
457,2,2,0
458,2,2,0
459,2,2,0
460,2,2,0
461,2,2,0
462,2,2,0
463,2,2,0
464,2,2,0
465,2,2,0
466,2,2,0
467,2,2,0
468,2,2,0
469,2,2,0
470,2,2,0
471,2,2,0
472,2,2,0
473,2,2,0
474,2,2,0
475,2,2,0
476,2,2,0
477,2,2,0
478,2,2,0
479,2,2,0
480,2,2,0
481,2,2,0
482,2,2,0
483,2,2,0
484,2,2,0
485,2,2,0
486,2,2,0
487,2,2,0
488,2,2,0
489,2,2,0
490,2,2,0
491,2,2,0
492,2,2,0
493,2,2,0
494,2,2,0
495,2,2,0
496,2,2,0
497,2,2,0
498,2,2,0
499,2,2,0
500,2,2,0
501,2,2,0
502,2,2,0
503,2,2,0
504,2,2,0
505,2,2,0
506,2,2,0
507,2,2,0
508,2,2,0
509,2,2,0
510,2,2,0
511,2,2,0
512,2,2,0
*Output,field,frequency=1
*Node Output,nset=UPPERNODES
U,RF
*Contact Output
CDISP,CFORCE
*End Step
*Step,name=CELL12,nlgeom=YES,inc=10
*Coupled Temperature-Displacement,steady state
1,1,1,1
*Boundary,op=NEW
FIELD,1,1,0
FIELD,11,11,300
UPPERNODES,2,2,-.0002
CONTROLS,3,5,0
1,2,2,0
2,2,2,0
3,2,2,0
4,2,2,0
5,2,2,0
6,2,2,0
7,2,2,0
8,2,2,0
9,2,2,0
10,2,2,0
11,2,2,0
12,2,2,0
13,2,2,0
14,2,2,0
15,2,2,0
16,2,2,0
17,2,2,0
18,2,2,0
19,2,2,0
20,2,2,0
21,2,2,0
22,2,2,0
23,2,2,0
24,2,2,0
25,2,2,0
26,2,2,0
27,2,2,0
28,2,2,0
29,2,2,0
30,2,2,0
31,2,2,0
32,2,2,0
33,2,2,0
34,2,2,0
35,2,2,0
36,2,2,0
37,2,2,0
38,2,2,0
39,2,2,0
40,2,2,0
41,2,2,0
42,2,2,0
43,2,2,0
44,2,2,0
45,2,2,0
46,2,2,0
47,2,2,0
48,2,2,0
49,2,2,0
50,2,2,0
51,2,2,0
52,2,2,0
53,2,2,0
54,2,2,0
55,2,2,0
56,2,2,0
57,2,2,0
58,2,2,0
59,2,2,0
60,2,2,0
61,2,2,0
62,2,2,0
63,2,2,0
64,2,2,0
65,2,2,0
66,2,2,0
67,2,2,0
68,2,2,0
69,2,2,0
70,2,2,0
71,2,2,0
72,2,2,0
73,2,2,0
74,2,2,0
75,2,2,0
76,2,2,0
77,2,2,0
78,2,2,0
79,2,2,0
80,2,2,0
81,2,2,0
82,2,2,0
83,2,2,0
84,2,2,0
85,2,2,0
86,2,2,0
87,2,2,0
88,2,2,0
89,2,2,1e-07
90,2,2,1e-07
91,2,2,1e-07
92,2,2,1e-07
93,2,2,1e-07
94,2,2,1e-07
95,2,2,1e-07
96,2,2,1e-07
97,2,2,0
98,2,2,0
99,2,2,0
100,2,2,0
101,2,2,0
102,2,2,0
103,2,2,0
104,2,2,0
105,2,2,0
106,2,2,0
107,2,2,0
108,2,2,0
109,2,2,0
110,2,2,0
111,2,2,0
112,2,2,0
113,2,2,0
114,2,2,0
115,2,2,0
116,2,2,0
117,2,2,0
118,2,2,0
119,2,2,0
120,2,2,0
121,2,2,0
122,2,2,0
123,2,2,0
124,2,2,0
125,2,2,0
126,2,2,0
127,2,2,0
128,2,2,0
129,2,2,0
130,2,2,0
131,2,2,0
132,2,2,0
133,2,2,0
134,2,2,0
135,2,2,0
136,2,2,0
137,2,2,0
138,2,2,0
139,2,2,0
140,2,2,0
141,2,2,0
142,2,2,0
143,2,2,0
144,2,2,0
145,2,2,0
146,2,2,0
147,2,2,0
148,2,2,0
149,2,2,0
150,2,2,0
151,2,2,0
152,2,2,0
153,2,2,0
154,2,2,0
155,2,2,0
156,2,2,0
157,2,2,0
158,2,2,0
159,2,2,0
160,2,2,0
161,2,2,0
162,2,2,0
163,2,2,0
164,2,2,0
165,2,2,0
166,2,2,0
167,2,2,0
168,2,2,0
169,2,2,0
170,2,2,0
171,2,2,0
172,2,2,0
173,2,2,0
174,2,2,0
175,2,2,0
176,2,2,0
177,2,2,0
178,2,2,0
179,2,2,0
180,2,2,0
181,2,2,0
182,2,2,0
183,2,2,0
184,2,2,0
185,2,2,0
186,2,2,0
187,2,2,0
188,2,2,0
189,2,2,0
190,2,2,0
191,2,2,0
192,2,2,0
193,2,2,0
194,2,2,0
195,2,2,0
196,2,2,0
197,2,2,0
198,2,2,0
199,2,2,0
200,2,2,0
201,2,2,0
202,2,2,0
203,2,2,0
204,2,2,0
205,2,2,0
206,2,2,0
207,2,2,0
208,2,2,0
209,2,2,0
210,2,2,0
211,2,2,0
212,2,2,0
213,2,2,0
214,2,2,0
215,2,2,0
216,2,2,0
217,2,2,0
218,2,2,0
219,2,2,0
220,2,2,0
221,2,2,0
222,2,2,0
223,2,2,0
224,2,2,0
225,2,2,0
226,2,2,0
227,2,2,0
228,2,2,0
229,2,2,0
230,2,2,0
231,2,2,0
232,2,2,0
233,2,2,0
234,2,2,0
235,2,2,0
236,2,2,0
237,2,2,0
238,2,2,0
239,2,2,0
240,2,2,0
241,2,2,0
242,2,2,0
243,2,2,0
244,2,2,0
245,2,2,0
246,2,2,0
247,2,2,0
248,2,2,0
249,2,2,0
250,2,2,0
251,2,2,0
252,2,2,0
253,2,2,0
254,2,2,0
255,2,2,0
256,2,2,0
257,2,2,0
258,2,2,0
259,2,2,0
260,2,2,0
261,2,2,0
262,2,2,0
263,2,2,0
264,2,2,0
265,2,2,0
266,2,2,0
267,2,2,0
268,2,2,0
269,2,2,0
270,2,2,0
271,2,2,0
272,2,2,0
273,2,2,0
274,2,2,0
275,2,2,0
276,2,2,0
277,2,2,0
278,2,2,0
279,2,2,0
280,2,2,0
281,2,2,0
282,2,2,0
283,2,2,0
284,2,2,0
285,2,2,0
286,2,2,0
287,2,2,0
288,2,2,0
289,2,2,0
290,2,2,0
291,2,2,0
292,2,2,0
293,2,2,0
294,2,2,0
295,2,2,0
296,2,2,0
297,2,2,0
298,2,2,0
299,2,2,0
300,2,2,0
301,2,2,0
302,2,2,0
303,2,2,0
304,2,2,0
305,2,2,0
306,2,2,0
307,2,2,0
308,2,2,0
309,2,2,0
310,2,2,0
311,2,2,0
312,2,2,0
313,2,2,0
314,2,2,0
315,2,2,0
316,2,2,0
317,2,2,0
318,2,2,0
319,2,2,0
320,2,2,0
321,2,2,0
322,2,2,0
323,2,2,0
324,2,2,0
325,2,2,0
326,2,2,0
327,2,2,0
328,2,2,0
329,2,2,0
330,2,2,0
331,2,2,0
332,2,2,0
333,2,2,0
334,2,2,0
335,2,2,0
336,2,2,0
337,2,2,0
338,2,2,0
339,2,2,0
340,2,2,0
341,2,2,0
342,2,2,0
343,2,2,0
344,2,2,0
345,2,2,0
346,2,2,0
347,2,2,0
348,2,2,0
349,2,2,0
350,2,2,0
351,2,2,0
352,2,2,0
353,2,2,0
354,2,2,0
355,2,2,0
356,2,2,0
357,2,2,0
358,2,2,0
359,2,2,0
360,2,2,0
361,2,2,0
362,2,2,0
363,2,2,0
364,2,2,0
365,2,2,0
366,2,2,0
367,2,2,0
368,2,2,0
369,2,2,0
370,2,2,0
371,2,2,0
372,2,2,0
373,2,2,0
374,2,2,0
375,2,2,0
376,2,2,0
377,2,2,0
378,2,2,0
379,2,2,0
380,2,2,0
381,2,2,0
382,2,2,0
383,2,2,0
384,2,2,0
385,2,2,0
386,2,2,0
387,2,2,0
388,2,2,0
389,2,2,0
390,2,2,0
391,2,2,0
392,2,2,0
393,2,2,0
394,2,2,0
395,2,2,0
396,2,2,0
397,2,2,0
398,2,2,0
399,2,2,0
400,2,2,0
401,2,2,0
402,2,2,0
403,2,2,0
404,2,2,0
405,2,2,0
406,2,2,0
407,2,2,0
408,2,2,0
409,2,2,0
410,2,2,0
411,2,2,0
412,2,2,0
413,2,2,0
414,2,2,0
415,2,2,0
416,2,2,0
417,2,2,0
418,2,2,0
419,2,2,0
420,2,2,0
421,2,2,0
422,2,2,0
423,2,2,0
424,2,2,0
425,2,2,0
426,2,2,0
427,2,2,0
428,2,2,0
429,2,2,0
430,2,2,0
431,2,2,0
432,2,2,0
433,2,2,0
434,2,2,0
435,2,2,0
436,2,2,0
437,2,2,0
438,2,2,0
439,2,2,0
440,2,2,0
441,2,2,0
442,2,2,0
443,2,2,0
444,2,2,0
445,2,2,0
446,2,2,0
447,2,2,0
448,2,2,0
449,2,2,0
450,2,2,0
451,2,2,0
452,2,2,0
453,2,2,0
454,2,2,0
455,2,2,0
456,2,2,0
457,2,2,0
458,2,2,0
459,2,2,0
460,2,2,0
461,2,2,0
462,2,2,0
463,2,2,0
464,2,2,0
465,2,2,0
466,2,2,0
467,2,2,0
468,2,2,0
469,2,2,0
470,2,2,0
471,2,2,0
472,2,2,0
473,2,2,0
474,2,2,0
475,2,2,0
476,2,2,0
477,2,2,0
478,2,2,0
479,2,2,0
480,2,2,0
481,2,2,0
482,2,2,0
483,2,2,0
484,2,2,0
485,2,2,0
486,2,2,0
487,2,2,0
488,2,2,0
489,2,2,0
490,2,2,0
491,2,2,0
492,2,2,0
493,2,2,0
494,2,2,0
495,2,2,0
496,2,2,0
497,2,2,0
498,2,2,0
499,2,2,0
500,2,2,0
501,2,2,0
502,2,2,0
503,2,2,0
504,2,2,0
505,2,2,0
506,2,2,0
507,2,2,0
508,2,2,0
509,2,2,0
510,2,2,0
511,2,2,0
512,2,2,0
*Output,field,frequency=1
*Node Output,nset=UPPERNODES
U,RF
*Contact Output
CDISP,CFORCE
*End Step
*Step,name=CELL13,nlgeom=YES,inc=10
*Coupled Temperature-Displacement,steady state
1,1,1,1
*Boundary,op=NEW
FIELD,1,1,0
FIELD,11,11,300
UPPERNODES,2,2,-.0002
CONTROLS,3,5,0
1,2,2,0
2,2,2,0
3,2,2,0
4,2,2,0
5,2,2,0
6,2,2,0
7,2,2,0
8,2,2,0
9,2,2,0
10,2,2,0
11,2,2,0
12,2,2,0
13,2,2,0
14,2,2,0
15,2,2,0
16,2,2,0
17,2,2,0
18,2,2,0
19,2,2,0
20,2,2,0
21,2,2,0
22,2,2,0
23,2,2,0
24,2,2,0
25,2,2,0
26,2,2,0
27,2,2,0
28,2,2,0
29,2,2,0
30,2,2,0
31,2,2,0
32,2,2,0
33,2,2,0
34,2,2,0
35,2,2,0
36,2,2,0
37,2,2,0
38,2,2,0
39,2,2,0
40,2,2,0
41,2,2,0
42,2,2,0
43,2,2,0
44,2,2,0
45,2,2,0
46,2,2,0
47,2,2,0
48,2,2,0
49,2,2,0
50,2,2,0
51,2,2,0
52,2,2,0
53,2,2,0
54,2,2,0
55,2,2,0
56,2,2,0
57,2,2,0
58,2,2,0
59,2,2,0
60,2,2,0
61,2,2,0
62,2,2,0
63,2,2,0
64,2,2,0
65,2,2,0
66,2,2,0
67,2,2,0
68,2,2,0
69,2,2,0
70,2,2,0
71,2,2,0
72,2,2,0
73,2,2,0
74,2,2,0
75,2,2,0
76,2,2,0
77,2,2,0
78,2,2,0
79,2,2,0
80,2,2,0
81,2,2,0
82,2,2,0
83,2,2,0
84,2,2,0
85,2,2,0
86,2,2,0
87,2,2,0
88,2,2,0
89,2,2,0
90,2,2,0
91,2,2,0
92,2,2,0
93,2,2,0
94,2,2,0
95,2,2,0
96,2,2,0
97,2,2,1e-07
98,2,2,1e-07
99,2,2,1e-07
100,2,2,1e-07
101,2,2,1e-07
102,2,2,1e-07
103,2,2,1e-07
104,2,2,1e-07
105,2,2,0
106,2,2,0
107,2,2,0
108,2,2,0
109,2,2,0
110,2,2,0
111,2,2,0
112,2,2,0
113,2,2,0
114,2,2,0
115,2,2,0
116,2,2,0
117,2,2,0
118,2,2,0
119,2,2,0
120,2,2,0
121,2,2,0
122,2,2,0
123,2,2,0
124,2,2,0
125,2,2,0
126,2,2,0
127,2,2,0
128,2,2,0
129,2,2,0
130,2,2,0
131,2,2,0
132,2,2,0
133,2,2,0
134,2,2,0
135,2,2,0
136,2,2,0
137,2,2,0
138,2,2,0
139,2,2,0
140,2,2,0
141,2,2,0
142,2,2,0
143,2,2,0
144,2,2,0
145,2,2,0
146,2,2,0
147,2,2,0
148,2,2,0
149,2,2,0
150,2,2,0
151,2,2,0
152,2,2,0
153,2,2,0
154,2,2,0
155,2,2,0
156,2,2,0
157,2,2,0
158,2,2,0
159,2,2,0
160,2,2,0
161,2,2,0
162,2,2,0
163,2,2,0
164,2,2,0
165,2,2,0
166,2,2,0
167,2,2,0
168,2,2,0
169,2,2,0
170,2,2,0
171,2,2,0
172,2,2,0
173,2,2,0
174,2,2,0
175,2,2,0
176,2,2,0
177,2,2,0
178,2,2,0
179,2,2,0
180,2,2,0
181,2,2,0
182,2,2,0
183,2,2,0
184,2,2,0
185,2,2,0
186,2,2,0
187,2,2,0
188,2,2,0
189,2,2,0
190,2,2,0
191,2,2,0
192,2,2,0
193,2,2,0
194,2,2,0
195,2,2,0
196,2,2,0
197,2,2,0
198,2,2,0
199,2,2,0
200,2,2,0
201,2,2,0
202,2,2,0
203,2,2,0
204,2,2,0
205,2,2,0
206,2,2,0
207,2,2,0
208,2,2,0
209,2,2,0
210,2,2,0
211,2,2,0
212,2,2,0
213,2,2,0
214,2,2,0
215,2,2,0
216,2,2,0
217,2,2,0
218,2,2,0
219,2,2,0
220,2,2,0
221,2,2,0
222,2,2,0
223,2,2,0
224,2,2,0
225,2,2,0
226,2,2,0
227,2,2,0
228,2,2,0
229,2,2,0
230,2,2,0
231,2,2,0
232,2,2,0
233,2,2,0
234,2,2,0
235,2,2,0
236,2,2,0
237,2,2,0
238,2,2,0
239,2,2,0
240,2,2,0
241,2,2,0
242,2,2,0
243,2,2,0
244,2,2,0
245,2,2,0
246,2,2,0
247,2,2,0
248,2,2,0
249,2,2,0
250,2,2,0
251,2,2,0
252,2,2,0
253,2,2,0
254,2,2,0
255,2,2,0
256,2,2,0
257,2,2,0
258,2,2,0
259,2,2,0
260,2,2,0
261,2,2,0
262,2,2,0
263,2,2,0
264,2,2,0
265,2,2,0
266,2,2,0
267,2,2,0
268,2,2,0
269,2,2,0
270,2,2,0
271,2,2,0
272,2,2,0
273,2,2,0
274,2,2,0
275,2,2,0
276,2,2,0
277,2,2,0
278,2,2,0
279,2,2,0
280,2,2,0
281,2,2,0
282,2,2,0
283,2,2,0
284,2,2,0
285,2,2,0
286,2,2,0
287,2,2,0
288,2,2,0
289,2,2,0
290,2,2,0
291,2,2,0
292,2,2,0
293,2,2,0
294,2,2,0
295,2,2,0
296,2,2,0
297,2,2,0
298,2,2,0
299,2,2,0
300,2,2,0
301,2,2,0
302,2,2,0
303,2,2,0
304,2,2,0
305,2,2,0
306,2,2,0
307,2,2,0
308,2,2,0
309,2,2,0
310,2,2,0
311,2,2,0
312,2,2,0
313,2,2,0
314,2,2,0
315,2,2,0
316,2,2,0
317,2,2,0
318,2,2,0
319,2,2,0
320,2,2,0
321,2,2,0
322,2,2,0
323,2,2,0
324,2,2,0
325,2,2,0
326,2,2,0
327,2,2,0
328,2,2,0
329,2,2,0
330,2,2,0
331,2,2,0
332,2,2,0
333,2,2,0
334,2,2,0
335,2,2,0
336,2,2,0
337,2,2,0
338,2,2,0
339,2,2,0
340,2,2,0
341,2,2,0
342,2,2,0
343,2,2,0
344,2,2,0
345,2,2,0
346,2,2,0
347,2,2,0
348,2,2,0
349,2,2,0
350,2,2,0
351,2,2,0
352,2,2,0
353,2,2,0
354,2,2,0
355,2,2,0
356,2,2,0
357,2,2,0
358,2,2,0
359,2,2,0
360,2,2,0
361,2,2,0
362,2,2,0
363,2,2,0
364,2,2,0
365,2,2,0
366,2,2,0
367,2,2,0
368,2,2,0
369,2,2,0
370,2,2,0
371,2,2,0
372,2,2,0
373,2,2,0
374,2,2,0
375,2,2,0
376,2,2,0
377,2,2,0
378,2,2,0
379,2,2,0
380,2,2,0
381,2,2,0
382,2,2,0
383,2,2,0
384,2,2,0
385,2,2,0
386,2,2,0
387,2,2,0
388,2,2,0
389,2,2,0
390,2,2,0
391,2,2,0
392,2,2,0
393,2,2,0
394,2,2,0
395,2,2,0
396,2,2,0
397,2,2,0
398,2,2,0
399,2,2,0
400,2,2,0
401,2,2,0
402,2,2,0
403,2,2,0
404,2,2,0
405,2,2,0
406,2,2,0
407,2,2,0
408,2,2,0
409,2,2,0
410,2,2,0
411,2,2,0
412,2,2,0
413,2,2,0
414,2,2,0
415,2,2,0
416,2,2,0
417,2,2,0
418,2,2,0
419,2,2,0
420,2,2,0
421,2,2,0
422,2,2,0
423,2,2,0
424,2,2,0
425,2,2,0
426,2,2,0
427,2,2,0
428,2,2,0
429,2,2,0
430,2,2,0
431,2,2,0
432,2,2,0
433,2,2,0
434,2,2,0
435,2,2,0
436,2,2,0
437,2,2,0
438,2,2,0
439,2,2,0
440,2,2,0
441,2,2,0
442,2,2,0
443,2,2,0
444,2,2,0
445,2,2,0
446,2,2,0
447,2,2,0
448,2,2,0
449,2,2,0
450,2,2,0
451,2,2,0
452,2,2,0
453,2,2,0
454,2,2,0
455,2,2,0
456,2,2,0
457,2,2,0
458,2,2,0
459,2,2,0
460,2,2,0
461,2,2,0
462,2,2,0
463,2,2,0
464,2,2,0
465,2,2,0
466,2,2,0
467,2,2,0
468,2,2,0
469,2,2,0
470,2,2,0
471,2,2,0
472,2,2,0
473,2,2,0
474,2,2,0
475,2,2,0
476,2,2,0
477,2,2,0
478,2,2,0
479,2,2,0
480,2,2,0
481,2,2,0
482,2,2,0
483,2,2,0
484,2,2,0
485,2,2,0
486,2,2,0
487,2,2,0
488,2,2,0
489,2,2,0
490,2,2,0
491,2,2,0
492,2,2,0
493,2,2,0
494,2,2,0
495,2,2,0
496,2,2,0
497,2,2,0
498,2,2,0
499,2,2,0
500,2,2,0
501,2,2,0
502,2,2,0
503,2,2,0
504,2,2,0
505,2,2,0
506,2,2,0
507,2,2,0
508,2,2,0
509,2,2,0
510,2,2,0
511,2,2,0
512,2,2,0
*Output,field,frequency=1
*Node Output,nset=UPPERNODES
U,RF
*Contact Output
CDISP,CFORCE
*End Step
*Step,name=CELL14,nlgeom=YES,inc=10
*Coupled Temperature-Displacement,steady state
1,1,1,1
*Boundary,op=NEW
FIELD,1,1,0
FIELD,11,11,300
UPPERNODES,2,2,-.0002
CONTROLS,3,5,0
1,2,2,0
2,2,2,0
3,2,2,0
4,2,2,0
5,2,2,0
6,2,2,0
7,2,2,0
8,2,2,0
9,2,2,0
10,2,2,0
11,2,2,0
12,2,2,0
13,2,2,0
14,2,2,0
15,2,2,0
16,2,2,0
17,2,2,0
18,2,2,0
19,2,2,0
20,2,2,0
21,2,2,0
22,2,2,0
23,2,2,0
24,2,2,0
25,2,2,0
26,2,2,0
27,2,2,0
28,2,2,0
29,2,2,0
30,2,2,0
31,2,2,0
32,2,2,0
33,2,2,0
34,2,2,0
35,2,2,0
36,2,2,0
37,2,2,0
38,2,2,0
39,2,2,0
40,2,2,0
41,2,2,0
42,2,2,0
43,2,2,0
44,2,2,0
45,2,2,0
46,2,2,0
47,2,2,0
48,2,2,0
49,2,2,0
50,2,2,0
51,2,2,0
52,2,2,0
53,2,2,0
54,2,2,0
55,2,2,0
56,2,2,0
57,2,2,0
58,2,2,0
59,2,2,0
60,2,2,0
61,2,2,0
62,2,2,0
63,2,2,0
64,2,2,0
65,2,2,0
66,2,2,0
67,2,2,0
68,2,2,0
69,2,2,0
70,2,2,0
71,2,2,0
72,2,2,0
73,2,2,0
74,2,2,0
75,2,2,0
76,2,2,0
77,2,2,0
78,2,2,0
79,2,2,0
80,2,2,0
81,2,2,0
82,2,2,0
83,2,2,0
84,2,2,0
85,2,2,0
86,2,2,0
87,2,2,0
88,2,2,0
89,2,2,0
90,2,2,0
91,2,2,0
92,2,2,0
93,2,2,0
94,2,2,0
95,2,2,0
96,2,2,0
97,2,2,0
98,2,2,0
99,2,2,0
100,2,2,0
101,2,2,0
102,2,2,0
103,2,2,0
104,2,2,0
105,2,2,1e-07
106,2,2,1e-07
107,2,2,1e-07
108,2,2,1e-07
109,2,2,1e-07
110,2,2,1e-07
111,2,2,1e-07
112,2,2,1e-07
113,2,2,0
114,2,2,0
115,2,2,0
116,2,2,0
117,2,2,0
118,2,2,0
119,2,2,0
120,2,2,0
121,2,2,0
122,2,2,0
123,2,2,0
124,2,2,0
125,2,2,0
126,2,2,0
127,2,2,0
128,2,2,0
129,2,2,0
130,2,2,0
131,2,2,0
132,2,2,0
133,2,2,0
134,2,2,0
135,2,2,0
136,2,2,0
137,2,2,0
138,2,2,0
139,2,2,0
140,2,2,0
141,2,2,0
142,2,2,0
143,2,2,0
144,2,2,0
145,2,2,0
146,2,2,0
147,2,2,0
148,2,2,0
149,2,2,0
150,2,2,0
151,2,2,0
152,2,2,0
153,2,2,0
154,2,2,0
155,2,2,0
156,2,2,0
157,2,2,0
158,2,2,0
159,2,2,0
160,2,2,0
161,2,2,0
162,2,2,0
163,2,2,0
164,2,2,0
165,2,2,0
166,2,2,0
167,2,2,0
168,2,2,0
169,2,2,0
170,2,2,0
171,2,2,0
172,2,2,0
173,2,2,0
174,2,2,0
175,2,2,0
176,2,2,0
177,2,2,0
178,2,2,0
179,2,2,0
180,2,2,0
181,2,2,0
182,2,2,0
183,2,2,0
184,2,2,0
185,2,2,0
186,2,2,0
187,2,2,0
188,2,2,0
189,2,2,0
190,2,2,0
191,2,2,0
192,2,2,0
193,2,2,0
194,2,2,0
195,2,2,0
196,2,2,0
197,2,2,0
198,2,2,0
199,2,2,0
200,2,2,0
201,2,2,0
202,2,2,0
203,2,2,0
204,2,2,0
205,2,2,0
206,2,2,0
207,2,2,0
208,2,2,0
209,2,2,0
210,2,2,0
211,2,2,0
212,2,2,0
213,2,2,0
214,2,2,0
215,2,2,0
216,2,2,0
217,2,2,0
218,2,2,0
219,2,2,0
220,2,2,0
221,2,2,0
222,2,2,0
223,2,2,0
224,2,2,0
225,2,2,0
226,2,2,0
227,2,2,0
228,2,2,0
229,2,2,0
230,2,2,0
231,2,2,0
232,2,2,0
233,2,2,0
234,2,2,0
235,2,2,0
236,2,2,0
237,2,2,0
238,2,2,0
239,2,2,0
240,2,2,0
241,2,2,0
242,2,2,0
243,2,2,0
244,2,2,0
245,2,2,0
246,2,2,0
247,2,2,0
248,2,2,0
249,2,2,0
250,2,2,0
251,2,2,0
252,2,2,0
253,2,2,0
254,2,2,0
255,2,2,0
256,2,2,0
257,2,2,0
258,2,2,0
259,2,2,0
260,2,2,0
261,2,2,0
262,2,2,0
263,2,2,0
264,2,2,0
265,2,2,0
266,2,2,0
267,2,2,0
268,2,2,0
269,2,2,0
270,2,2,0
271,2,2,0
272,2,2,0
273,2,2,0
274,2,2,0
275,2,2,0
276,2,2,0
277,2,2,0
278,2,2,0
279,2,2,0
280,2,2,0
281,2,2,0
282,2,2,0
283,2,2,0
284,2,2,0
285,2,2,0
286,2,2,0
287,2,2,0
288,2,2,0
289,2,2,0
290,2,2,0
291,2,2,0
292,2,2,0
293,2,2,0
294,2,2,0
295,2,2,0
296,2,2,0
297,2,2,0
298,2,2,0
299,2,2,0
300,2,2,0
301,2,2,0
302,2,2,0
303,2,2,0
304,2,2,0
305,2,2,0
306,2,2,0
307,2,2,0
308,2,2,0
309,2,2,0
310,2,2,0
311,2,2,0
312,2,2,0
313,2,2,0
314,2,2,0
315,2,2,0
316,2,2,0
317,2,2,0
318,2,2,0
319,2,2,0
320,2,2,0
321,2,2,0
322,2,2,0
323,2,2,0
324,2,2,0
325,2,2,0
326,2,2,0
327,2,2,0
328,2,2,0
329,2,2,0
330,2,2,0
331,2,2,0
332,2,2,0
333,2,2,0
334,2,2,0
335,2,2,0
336,2,2,0
337,2,2,0
338,2,2,0
339,2,2,0
340,2,2,0
341,2,2,0
342,2,2,0
343,2,2,0
344,2,2,0
345,2,2,0
346,2,2,0
347,2,2,0
348,2,2,0
349,2,2,0
350,2,2,0
351,2,2,0
352,2,2,0
353,2,2,0
354,2,2,0
355,2,2,0
356,2,2,0
357,2,2,0
358,2,2,0
359,2,2,0
360,2,2,0
361,2,2,0
362,2,2,0
363,2,2,0
364,2,2,0
365,2,2,0
366,2,2,0
367,2,2,0
368,2,2,0
369,2,2,0
370,2,2,0
371,2,2,0
372,2,2,0
373,2,2,0
374,2,2,0
375,2,2,0
376,2,2,0
377,2,2,0
378,2,2,0
379,2,2,0
380,2,2,0
381,2,2,0
382,2,2,0
383,2,2,0
384,2,2,0
385,2,2,0
386,2,2,0
387,2,2,0
388,2,2,0
389,2,2,0
390,2,2,0
391,2,2,0
392,2,2,0
393,2,2,0
394,2,2,0
395,2,2,0
396,2,2,0
397,2,2,0
398,2,2,0
399,2,2,0
400,2,2,0
401,2,2,0
402,2,2,0
403,2,2,0
404,2,2,0
405,2,2,0
406,2,2,0
407,2,2,0
408,2,2,0
409,2,2,0
410,2,2,0
411,2,2,0
412,2,2,0
413,2,2,0
414,2,2,0
415,2,2,0
416,2,2,0
417,2,2,0
418,2,2,0
419,2,2,0
420,2,2,0
421,2,2,0
422,2,2,0
423,2,2,0
424,2,2,0
425,2,2,0
426,2,2,0
427,2,2,0
428,2,2,0
429,2,2,0
430,2,2,0
431,2,2,0
432,2,2,0
433,2,2,0
434,2,2,0
435,2,2,0
436,2,2,0
437,2,2,0
438,2,2,0
439,2,2,0
440,2,2,0
441,2,2,0
442,2,2,0
443,2,2,0
444,2,2,0
445,2,2,0
446,2,2,0
447,2,2,0
448,2,2,0
449,2,2,0
450,2,2,0
451,2,2,0
452,2,2,0
453,2,2,0
454,2,2,0
455,2,2,0
456,2,2,0
457,2,2,0
458,2,2,0
459,2,2,0
460,2,2,0
461,2,2,0
462,2,2,0
463,2,2,0
464,2,2,0
465,2,2,0
466,2,2,0
467,2,2,0
468,2,2,0
469,2,2,0
470,2,2,0
471,2,2,0
472,2,2,0
473,2,2,0
474,2,2,0
475,2,2,0
476,2,2,0
477,2,2,0
478,2,2,0
479,2,2,0
480,2,2,0
481,2,2,0
482,2,2,0
483,2,2,0
484,2,2,0
485,2,2,0
486,2,2,0
487,2,2,0
488,2,2,0
489,2,2,0
490,2,2,0
491,2,2,0
492,2,2,0
493,2,2,0
494,2,2,0
495,2,2,0
496,2,2,0
497,2,2,0
498,2,2,0
499,2,2,0
500,2,2,0
501,2,2,0
502,2,2,0
503,2,2,0
504,2,2,0
505,2,2,0
506,2,2,0
507,2,2,0
508,2,2,0
509,2,2,0
510,2,2,0
511,2,2,0
512,2,2,0
*Output,field,frequency=1
*Node Output,nset=UPPERNODES
U,RF
*Contact Output
CDISP,CFORCE
*End Step
*Step,name=CELL15,nlgeom=YES,inc=10
*Coupled Temperature-Displacement,steady state
1,1,1,1
*Boundary,op=NEW
FIELD,1,1,0
FIELD,11,11,300
UPPERNODES,2,2,-.0002
CONTROLS,3,5,0
1,2,2,0
2,2,2,0
3,2,2,0
4,2,2,0
5,2,2,0
6,2,2,0
7,2,2,0
8,2,2,0
9,2,2,0
10,2,2,0
11,2,2,0
12,2,2,0
13,2,2,0
14,2,2,0
15,2,2,0
16,2,2,0
17,2,2,0
18,2,2,0
19,2,2,0
20,2,2,0
21,2,2,0
22,2,2,0
23,2,2,0
24,2,2,0
25,2,2,0
26,2,2,0
27,2,2,0
28,2,2,0
29,2,2,0
30,2,2,0
31,2,2,0
32,2,2,0
33,2,2,0
34,2,2,0
35,2,2,0
36,2,2,0
37,2,2,0
38,2,2,0
39,2,2,0
40,2,2,0
41,2,2,0
42,2,2,0
43,2,2,0
44,2,2,0
45,2,2,0
46,2,2,0
47,2,2,0
48,2,2,0
49,2,2,0
50,2,2,0
51,2,2,0
52,2,2,0
53,2,2,0
54,2,2,0
55,2,2,0
56,2,2,0
57,2,2,0
58,2,2,0
59,2,2,0
60,2,2,0
61,2,2,0
62,2,2,0
63,2,2,0
64,2,2,0
65,2,2,0
66,2,2,0
67,2,2,0
68,2,2,0
69,2,2,0
70,2,2,0
71,2,2,0
72,2,2,0
73,2,2,0
74,2,2,0
75,2,2,0
76,2,2,0
77,2,2,0
78,2,2,0
79,2,2,0
80,2,2,0
81,2,2,0
82,2,2,0
83,2,2,0
84,2,2,0
85,2,2,0
86,2,2,0
87,2,2,0
88,2,2,0
89,2,2,0
90,2,2,0
91,2,2,0
92,2,2,0
93,2,2,0
94,2,2,0
95,2,2,0
96,2,2,0
97,2,2,0
98,2,2,0
99,2,2,0
100,2,2,0
101,2,2,0
102,2,2,0
103,2,2,0
104,2,2,0
105,2,2,0
106,2,2,0
107,2,2,0
108,2,2,0
109,2,2,0
110,2,2,0
111,2,2,0
112,2,2,0
113,2,2,1e-07
114,2,2,1e-07
115,2,2,1e-07
116,2,2,1e-07
117,2,2,1e-07
118,2,2,1e-07
119,2,2,1e-07
120,2,2,1e-07
121,2,2,0
122,2,2,0
123,2,2,0
124,2,2,0
125,2,2,0
126,2,2,0
127,2,2,0
128,2,2,0
129,2,2,0
130,2,2,0
131,2,2,0
132,2,2,0
133,2,2,0
134,2,2,0
135,2,2,0
136,2,2,0
137,2,2,0
138,2,2,0
139,2,2,0
140,2,2,0
141,2,2,0
142,2,2,0
143,2,2,0
144,2,2,0
145,2,2,0
146,2,2,0
147,2,2,0
148,2,2,0
149,2,2,0
150,2,2,0
151,2,2,0
152,2,2,0
153,2,2,0
154,2,2,0
155,2,2,0
156,2,2,0
157,2,2,0
158,2,2,0
159,2,2,0
160,2,2,0
161,2,2,0
162,2,2,0
163,2,2,0
164,2,2,0
165,2,2,0
166,2,2,0
167,2,2,0
168,2,2,0
169,2,2,0
170,2,2,0
171,2,2,0
172,2,2,0
173,2,2,0
174,2,2,0
175,2,2,0
176,2,2,0
177,2,2,0
178,2,2,0
179,2,2,0
180,2,2,0
181,2,2,0
182,2,2,0
183,2,2,0
184,2,2,0
185,2,2,0
186,2,2,0
187,2,2,0
188,2,2,0
189,2,2,0
190,2,2,0
191,2,2,0
192,2,2,0
193,2,2,0
194,2,2,0
195,2,2,0
196,2,2,0
197,2,2,0
198,2,2,0
199,2,2,0
200,2,2,0
201,2,2,0
202,2,2,0
203,2,2,0
204,2,2,0
205,2,2,0
206,2,2,0
207,2,2,0
208,2,2,0
209,2,2,0
210,2,2,0
211,2,2,0
212,2,2,0
213,2,2,0
214,2,2,0
215,2,2,0
216,2,2,0
217,2,2,0
218,2,2,0
219,2,2,0
220,2,2,0
221,2,2,0
222,2,2,0
223,2,2,0
224,2,2,0
225,2,2,0
226,2,2,0
227,2,2,0
228,2,2,0
229,2,2,0
230,2,2,0
231,2,2,0
232,2,2,0
233,2,2,0
234,2,2,0
235,2,2,0
236,2,2,0
237,2,2,0
238,2,2,0
239,2,2,0
240,2,2,0
241,2,2,0
242,2,2,0
243,2,2,0
244,2,2,0
245,2,2,0
246,2,2,0
247,2,2,0
248,2,2,0
249,2,2,0
250,2,2,0
251,2,2,0
252,2,2,0
253,2,2,0
254,2,2,0
255,2,2,0
256,2,2,0
257,2,2,0
258,2,2,0
259,2,2,0
260,2,2,0
261,2,2,0
262,2,2,0
263,2,2,0
264,2,2,0
265,2,2,0
266,2,2,0
267,2,2,0
268,2,2,0
269,2,2,0
270,2,2,0
271,2,2,0
272,2,2,0
273,2,2,0
274,2,2,0
275,2,2,0
276,2,2,0
277,2,2,0
278,2,2,0
279,2,2,0
280,2,2,0
281,2,2,0
282,2,2,0
283,2,2,0
284,2,2,0
285,2,2,0
286,2,2,0
287,2,2,0
288,2,2,0
289,2,2,0
290,2,2,0
291,2,2,0
292,2,2,0
293,2,2,0
294,2,2,0
295,2,2,0
296,2,2,0
297,2,2,0
298,2,2,0
299,2,2,0
300,2,2,0
301,2,2,0
302,2,2,0
303,2,2,0
304,2,2,0
305,2,2,0
306,2,2,0
307,2,2,0
308,2,2,0
309,2,2,0
310,2,2,0
311,2,2,0
312,2,2,0
313,2,2,0
314,2,2,0
315,2,2,0
316,2,2,0
317,2,2,0
318,2,2,0
319,2,2,0
320,2,2,0
321,2,2,0
322,2,2,0
323,2,2,0
324,2,2,0
325,2,2,0
326,2,2,0
327,2,2,0
328,2,2,0
329,2,2,0
330,2,2,0
331,2,2,0
332,2,2,0
333,2,2,0
334,2,2,0
335,2,2,0
336,2,2,0
337,2,2,0
338,2,2,0
339,2,2,0
340,2,2,0
341,2,2,0
342,2,2,0
343,2,2,0
344,2,2,0
345,2,2,0
346,2,2,0
347,2,2,0
348,2,2,0
349,2,2,0
350,2,2,0
351,2,2,0
352,2,2,0
353,2,2,0
354,2,2,0
355,2,2,0
356,2,2,0
357,2,2,0
358,2,2,0
359,2,2,0
360,2,2,0
361,2,2,0
362,2,2,0
363,2,2,0
364,2,2,0
365,2,2,0
366,2,2,0
367,2,2,0
368,2,2,0
369,2,2,0
370,2,2,0
371,2,2,0
372,2,2,0
373,2,2,0
374,2,2,0
375,2,2,0
376,2,2,0
377,2,2,0
378,2,2,0
379,2,2,0
380,2,2,0
381,2,2,0
382,2,2,0
383,2,2,0
384,2,2,0
385,2,2,0
386,2,2,0
387,2,2,0
388,2,2,0
389,2,2,0
390,2,2,0
391,2,2,0
392,2,2,0
393,2,2,0
394,2,2,0
395,2,2,0
396,2,2,0
397,2,2,0
398,2,2,0
399,2,2,0
400,2,2,0
401,2,2,0
402,2,2,0
403,2,2,0
404,2,2,0
405,2,2,0
406,2,2,0
407,2,2,0
408,2,2,0
409,2,2,0
410,2,2,0
411,2,2,0
412,2,2,0
413,2,2,0
414,2,2,0
415,2,2,0
416,2,2,0
417,2,2,0
418,2,2,0
419,2,2,0
420,2,2,0
421,2,2,0
422,2,2,0
423,2,2,0
424,2,2,0
425,2,2,0
426,2,2,0
427,2,2,0
428,2,2,0
429,2,2,0
430,2,2,0
431,2,2,0
432,2,2,0
433,2,2,0
434,2,2,0
435,2,2,0
436,2,2,0
437,2,2,0
438,2,2,0
439,2,2,0
440,2,2,0
441,2,2,0
442,2,2,0
443,2,2,0
444,2,2,0
445,2,2,0
446,2,2,0
447,2,2,0
448,2,2,0
449,2,2,0
450,2,2,0
451,2,2,0
452,2,2,0
453,2,2,0
454,2,2,0
455,2,2,0
456,2,2,0
457,2,2,0
458,2,2,0
459,2,2,0
460,2,2,0
461,2,2,0
462,2,2,0
463,2,2,0
464,2,2,0
465,2,2,0
466,2,2,0
467,2,2,0
468,2,2,0
469,2,2,0
470,2,2,0
471,2,2,0
472,2,2,0
473,2,2,0
474,2,2,0
475,2,2,0
476,2,2,0
477,2,2,0
478,2,2,0
479,2,2,0
480,2,2,0
481,2,2,0
482,2,2,0
483,2,2,0
484,2,2,0
485,2,2,0
486,2,2,0
487,2,2,0
488,2,2,0
489,2,2,0
490,2,2,0
491,2,2,0
492,2,2,0
493,2,2,0
494,2,2,0
495,2,2,0
496,2,2,0
497,2,2,0
498,2,2,0
499,2,2,0
500,2,2,0
501,2,2,0
502,2,2,0
503,2,2,0
504,2,2,0
505,2,2,0
506,2,2,0
507,2,2,0
508,2,2,0
509,2,2,0
510,2,2,0
511,2,2,0
512,2,2,0
*Output,field,frequency=1
*Node Output,nset=UPPERNODES
U,RF
*Contact Output
CDISP,CFORCE
*End Step
*Step,name=CELL16,nlgeom=YES,inc=10
*Coupled Temperature-Displacement,steady state
1,1,1,1
*Boundary,op=NEW
FIELD,1,1,0
FIELD,11,11,300
UPPERNODES,2,2,-.0002
CONTROLS,3,5,0
1,2,2,0
2,2,2,0
3,2,2,0
4,2,2,0
5,2,2,0
6,2,2,0
7,2,2,0
8,2,2,0
9,2,2,0
10,2,2,0
11,2,2,0
12,2,2,0
13,2,2,0
14,2,2,0
15,2,2,0
16,2,2,0
17,2,2,0
18,2,2,0
19,2,2,0
20,2,2,0
21,2,2,0
22,2,2,0
23,2,2,0
24,2,2,0
25,2,2,0
26,2,2,0
27,2,2,0
28,2,2,0
29,2,2,0
30,2,2,0
31,2,2,0
32,2,2,0
33,2,2,0
34,2,2,0
35,2,2,0
36,2,2,0
37,2,2,0
38,2,2,0
39,2,2,0
40,2,2,0
41,2,2,0
42,2,2,0
43,2,2,0
44,2,2,0
45,2,2,0
46,2,2,0
47,2,2,0
48,2,2,0
49,2,2,0
50,2,2,0
51,2,2,0
52,2,2,0
53,2,2,0
54,2,2,0
55,2,2,0
56,2,2,0
57,2,2,0
58,2,2,0
59,2,2,0
60,2,2,0
61,2,2,0
62,2,2,0
63,2,2,0
64,2,2,0
65,2,2,0
66,2,2,0
67,2,2,0
68,2,2,0
69,2,2,0
70,2,2,0
71,2,2,0
72,2,2,0
73,2,2,0
74,2,2,0
75,2,2,0
76,2,2,0
77,2,2,0
78,2,2,0
79,2,2,0
80,2,2,0
81,2,2,0
82,2,2,0
83,2,2,0
84,2,2,0
85,2,2,0
86,2,2,0
87,2,2,0
88,2,2,0
89,2,2,0
90,2,2,0
91,2,2,0
92,2,2,0
93,2,2,0
94,2,2,0
95,2,2,0
96,2,2,0
97,2,2,0
98,2,2,0
99,2,2,0
100,2,2,0
101,2,2,0
102,2,2,0
103,2,2,0
104,2,2,0
105,2,2,0
106,2,2,0
107,2,2,0
108,2,2,0
109,2,2,0
110,2,2,0
111,2,2,0
112,2,2,0
113,2,2,0
114,2,2,0
115,2,2,0
116,2,2,0
117,2,2,0
118,2,2,0
119,2,2,0
120,2,2,0
121,2,2,1e-07
122,2,2,1e-07
123,2,2,1e-07
124,2,2,1e-07
125,2,2,1e-07
126,2,2,1e-07
127,2,2,1e-07
128,2,2,1e-07
129,2,2,0
130,2,2,0
131,2,2,0
132,2,2,0
133,2,2,0
134,2,2,0
135,2,2,0
136,2,2,0
137,2,2,0
138,2,2,0
139,2,2,0
140,2,2,0
141,2,2,0
142,2,2,0
143,2,2,0
144,2,2,0
145,2,2,0
146,2,2,0
147,2,2,0
148,2,2,0
149,2,2,0
150,2,2,0
151,2,2,0
152,2,2,0
153,2,2,0
154,2,2,0
155,2,2,0
156,2,2,0
157,2,2,0
158,2,2,0
159,2,2,0
160,2,2,0
161,2,2,0
162,2,2,0
163,2,2,0
164,2,2,0
165,2,2,0
166,2,2,0
167,2,2,0
168,2,2,0
169,2,2,0
170,2,2,0
171,2,2,0
172,2,2,0
173,2,2,0
174,2,2,0
175,2,2,0
176,2,2,0
177,2,2,0
178,2,2,0
179,2,2,0
180,2,2,0
181,2,2,0
182,2,2,0
183,2,2,0
184,2,2,0
185,2,2,0
186,2,2,0
187,2,2,0
188,2,2,0
189,2,2,0
190,2,2,0
191,2,2,0
192,2,2,0
193,2,2,0
194,2,2,0
195,2,2,0
196,2,2,0
197,2,2,0
198,2,2,0
199,2,2,0
200,2,2,0
201,2,2,0
202,2,2,0
203,2,2,0
204,2,2,0
205,2,2,0
206,2,2,0
207,2,2,0
208,2,2,0
209,2,2,0
210,2,2,0
211,2,2,0
212,2,2,0
213,2,2,0
214,2,2,0
215,2,2,0
216,2,2,0
217,2,2,0
218,2,2,0
219,2,2,0
220,2,2,0
221,2,2,0
222,2,2,0
223,2,2,0
224,2,2,0
225,2,2,0
226,2,2,0
227,2,2,0
228,2,2,0
229,2,2,0
230,2,2,0
231,2,2,0
232,2,2,0
233,2,2,0
234,2,2,0
235,2,2,0
236,2,2,0
237,2,2,0
238,2,2,0
239,2,2,0
240,2,2,0
241,2,2,0
242,2,2,0
243,2,2,0
244,2,2,0
245,2,2,0
246,2,2,0
247,2,2,0
248,2,2,0
249,2,2,0
250,2,2,0
251,2,2,0
252,2,2,0
253,2,2,0
254,2,2,0
255,2,2,0
256,2,2,0
257,2,2,0
258,2,2,0
259,2,2,0
260,2,2,0
261,2,2,0
262,2,2,0
263,2,2,0
264,2,2,0
265,2,2,0
266,2,2,0
267,2,2,0
268,2,2,0
269,2,2,0
270,2,2,0
271,2,2,0
272,2,2,0
273,2,2,0
274,2,2,0
275,2,2,0
276,2,2,0
277,2,2,0
278,2,2,0
279,2,2,0
280,2,2,0
281,2,2,0
282,2,2,0
283,2,2,0
284,2,2,0
285,2,2,0
286,2,2,0
287,2,2,0
288,2,2,0
289,2,2,0
290,2,2,0
291,2,2,0
292,2,2,0
293,2,2,0
294,2,2,0
295,2,2,0
296,2,2,0
297,2,2,0
298,2,2,0
299,2,2,0
300,2,2,0
301,2,2,0
302,2,2,0
303,2,2,0
304,2,2,0
305,2,2,0
306,2,2,0
307,2,2,0
308,2,2,0
309,2,2,0
310,2,2,0
311,2,2,0
312,2,2,0
313,2,2,0
314,2,2,0
315,2,2,0
316,2,2,0
317,2,2,0
318,2,2,0
319,2,2,0
320,2,2,0
321,2,2,0
322,2,2,0
323,2,2,0
324,2,2,0
325,2,2,0
326,2,2,0
327,2,2,0
328,2,2,0
329,2,2,0
330,2,2,0
331,2,2,0
332,2,2,0
333,2,2,0
334,2,2,0
335,2,2,0
336,2,2,0
337,2,2,0
338,2,2,0
339,2,2,0
340,2,2,0
341,2,2,0
342,2,2,0
343,2,2,0
344,2,2,0
345,2,2,0
346,2,2,0
347,2,2,0
348,2,2,0
349,2,2,0
350,2,2,0
351,2,2,0
352,2,2,0
353,2,2,0
354,2,2,0
355,2,2,0
356,2,2,0
357,2,2,0
358,2,2,0
359,2,2,0
360,2,2,0
361,2,2,0
362,2,2,0
363,2,2,0
364,2,2,0
365,2,2,0
366,2,2,0
367,2,2,0
368,2,2,0
369,2,2,0
370,2,2,0
371,2,2,0
372,2,2,0
373,2,2,0
374,2,2,0
375,2,2,0
376,2,2,0
377,2,2,0
378,2,2,0
379,2,2,0
380,2,2,0
381,2,2,0
382,2,2,0
383,2,2,0
384,2,2,0
385,2,2,0
386,2,2,0
387,2,2,0
388,2,2,0
389,2,2,0
390,2,2,0
391,2,2,0
392,2,2,0
393,2,2,0
394,2,2,0
395,2,2,0
396,2,2,0
397,2,2,0
398,2,2,0
399,2,2,0
400,2,2,0
401,2,2,0
402,2,2,0
403,2,2,0
404,2,2,0
405,2,2,0
406,2,2,0
407,2,2,0
408,2,2,0
409,2,2,0
410,2,2,0
411,2,2,0
412,2,2,0
413,2,2,0
414,2,2,0
415,2,2,0
416,2,2,0
417,2,2,0
418,2,2,0
419,2,2,0
420,2,2,0
421,2,2,0
422,2,2,0
423,2,2,0
424,2,2,0
425,2,2,0
426,2,2,0
427,2,2,0
428,2,2,0
429,2,2,0
430,2,2,0
431,2,2,0
432,2,2,0
433,2,2,0
434,2,2,0
435,2,2,0
436,2,2,0
437,2,2,0
438,2,2,0
439,2,2,0
440,2,2,0
441,2,2,0
442,2,2,0
443,2,2,0
444,2,2,0
445,2,2,0
446,2,2,0
447,2,2,0
448,2,2,0
449,2,2,0
450,2,2,0
451,2,2,0
452,2,2,0
453,2,2,0
454,2,2,0
455,2,2,0
456,2,2,0
457,2,2,0
458,2,2,0
459,2,2,0
460,2,2,0
461,2,2,0
462,2,2,0
463,2,2,0
464,2,2,0
465,2,2,0
466,2,2,0
467,2,2,0
468,2,2,0
469,2,2,0
470,2,2,0
471,2,2,0
472,2,2,0
473,2,2,0
474,2,2,0
475,2,2,0
476,2,2,0
477,2,2,0
478,2,2,0
479,2,2,0
480,2,2,0
481,2,2,0
482,2,2,0
483,2,2,0
484,2,2,0
485,2,2,0
486,2,2,0
487,2,2,0
488,2,2,0
489,2,2,0
490,2,2,0
491,2,2,0
492,2,2,0
493,2,2,0
494,2,2,0
495,2,2,0
496,2,2,0
497,2,2,0
498,2,2,0
499,2,2,0
500,2,2,0
501,2,2,0
502,2,2,0
503,2,2,0
504,2,2,0
505,2,2,0
506,2,2,0
507,2,2,0
508,2,2,0
509,2,2,0
510,2,2,0
511,2,2,0
512,2,2,0
*Output,field,frequency=1
*Node Output,nset=UPPERNODES
U,RF
*Contact Output
CDISP,CFORCE
*End Step
*Step,name=CELL17,nlgeom=YES,inc=10
*Coupled Temperature-Displacement,steady state
1,1,1,1
*Boundary,op=NEW
FIELD,1,1,0
FIELD,11,11,300
UPPERNODES,2,2,-.0002
CONTROLS,3,5,0
1,2,2,0
2,2,2,0
3,2,2,0
4,2,2,0
5,2,2,0
6,2,2,0
7,2,2,0
8,2,2,0
9,2,2,0
10,2,2,0
11,2,2,0
12,2,2,0
13,2,2,0
14,2,2,0
15,2,2,0
16,2,2,0
17,2,2,0
18,2,2,0
19,2,2,0
20,2,2,0
21,2,2,0
22,2,2,0
23,2,2,0
24,2,2,0
25,2,2,0
26,2,2,0
27,2,2,0
28,2,2,0
29,2,2,0
30,2,2,0
31,2,2,0
32,2,2,0
33,2,2,0
34,2,2,0
35,2,2,0
36,2,2,0
37,2,2,0
38,2,2,0
39,2,2,0
40,2,2,0
41,2,2,0
42,2,2,0
43,2,2,0
44,2,2,0
45,2,2,0
46,2,2,0
47,2,2,0
48,2,2,0
49,2,2,0
50,2,2,0
51,2,2,0
52,2,2,0
53,2,2,0
54,2,2,0
55,2,2,0
56,2,2,0
57,2,2,0
58,2,2,0
59,2,2,0
60,2,2,0
61,2,2,0
62,2,2,0
63,2,2,0
64,2,2,0
65,2,2,0
66,2,2,0
67,2,2,0
68,2,2,0
69,2,2,0
70,2,2,0
71,2,2,0
72,2,2,0
73,2,2,0
74,2,2,0
75,2,2,0
76,2,2,0
77,2,2,0
78,2,2,0
79,2,2,0
80,2,2,0
81,2,2,0
82,2,2,0
83,2,2,0
84,2,2,0
85,2,2,0
86,2,2,0
87,2,2,0
88,2,2,0
89,2,2,0
90,2,2,0
91,2,2,0
92,2,2,0
93,2,2,0
94,2,2,0
95,2,2,0
96,2,2,0
97,2,2,0
98,2,2,0
99,2,2,0
100,2,2,0
101,2,2,0
102,2,2,0
103,2,2,0
104,2,2,0
105,2,2,0
106,2,2,0
107,2,2,0
108,2,2,0
109,2,2,0
110,2,2,0
111,2,2,0
112,2,2,0
113,2,2,0
114,2,2,0
115,2,2,0
116,2,2,0
117,2,2,0
118,2,2,0
119,2,2,0
120,2,2,0
121,2,2,0
122,2,2,0
123,2,2,0
124,2,2,0
125,2,2,0
126,2,2,0
127,2,2,0
128,2,2,0
129,2,2,1e-07
130,2,2,1e-07
131,2,2,1e-07
132,2,2,1e-07
133,2,2,1e-07
134,2,2,1e-07
135,2,2,1e-07
136,2,2,1e-07
137,2,2,0
138,2,2,0
139,2,2,0
140,2,2,0
141,2,2,0
142,2,2,0
143,2,2,0
144,2,2,0
145,2,2,0
146,2,2,0
147,2,2,0
148,2,2,0
149,2,2,0
150,2,2,0
151,2,2,0
152,2,2,0
153,2,2,0
154,2,2,0
155,2,2,0
156,2,2,0
157,2,2,0
158,2,2,0
159,2,2,0
160,2,2,0
161,2,2,0
162,2,2,0
163,2,2,0
164,2,2,0
165,2,2,0
166,2,2,0
167,2,2,0
168,2,2,0
169,2,2,0
170,2,2,0
171,2,2,0
172,2,2,0
173,2,2,0
174,2,2,0
175,2,2,0
176,2,2,0
177,2,2,0
178,2,2,0
179,2,2,0
180,2,2,0
181,2,2,0
182,2,2,0
183,2,2,0
184,2,2,0
185,2,2,0
186,2,2,0
187,2,2,0
188,2,2,0
189,2,2,0
190,2,2,0
191,2,2,0
192,2,2,0
193,2,2,0
194,2,2,0
195,2,2,0
196,2,2,0
197,2,2,0
198,2,2,0
199,2,2,0
200,2,2,0
201,2,2,0
202,2,2,0
203,2,2,0
204,2,2,0
205,2,2,0
206,2,2,0
207,2,2,0
208,2,2,0
209,2,2,0
210,2,2,0
211,2,2,0
212,2,2,0
213,2,2,0
214,2,2,0
215,2,2,0
216,2,2,0
217,2,2,0
218,2,2,0
219,2,2,0
220,2,2,0
221,2,2,0
222,2,2,0
223,2,2,0
224,2,2,0
225,2,2,0
226,2,2,0
227,2,2,0
228,2,2,0
229,2,2,0
230,2,2,0
231,2,2,0
232,2,2,0
233,2,2,0
234,2,2,0
235,2,2,0
236,2,2,0
237,2,2,0
238,2,2,0
239,2,2,0
240,2,2,0
241,2,2,0
242,2,2,0
243,2,2,0
244,2,2,0
245,2,2,0
246,2,2,0
247,2,2,0
248,2,2,0
249,2,2,0
250,2,2,0
251,2,2,0
252,2,2,0
253,2,2,0
254,2,2,0
255,2,2,0
256,2,2,0
257,2,2,0
258,2,2,0
259,2,2,0
260,2,2,0
261,2,2,0
262,2,2,0
263,2,2,0
264,2,2,0
265,2,2,0
266,2,2,0
267,2,2,0
268,2,2,0
269,2,2,0
270,2,2,0
271,2,2,0
272,2,2,0
273,2,2,0
274,2,2,0
275,2,2,0
276,2,2,0
277,2,2,0
278,2,2,0
279,2,2,0
280,2,2,0
281,2,2,0
282,2,2,0
283,2,2,0
284,2,2,0
285,2,2,0
286,2,2,0
287,2,2,0
288,2,2,0
289,2,2,0
290,2,2,0
291,2,2,0
292,2,2,0
293,2,2,0
294,2,2,0
295,2,2,0
296,2,2,0
297,2,2,0
298,2,2,0
299,2,2,0
300,2,2,0
301,2,2,0
302,2,2,0
303,2,2,0
304,2,2,0
305,2,2,0
306,2,2,0
307,2,2,0
308,2,2,0
309,2,2,0
310,2,2,0
311,2,2,0
312,2,2,0
313,2,2,0
314,2,2,0
315,2,2,0
316,2,2,0
317,2,2,0
318,2,2,0
319,2,2,0
320,2,2,0
321,2,2,0
322,2,2,0
323,2,2,0
324,2,2,0
325,2,2,0
326,2,2,0
327,2,2,0
328,2,2,0
329,2,2,0
330,2,2,0
331,2,2,0
332,2,2,0
333,2,2,0
334,2,2,0
335,2,2,0
336,2,2,0
337,2,2,0
338,2,2,0
339,2,2,0
340,2,2,0
341,2,2,0
342,2,2,0
343,2,2,0
344,2,2,0
345,2,2,0
346,2,2,0
347,2,2,0
348,2,2,0
349,2,2,0
350,2,2,0
351,2,2,0
352,2,2,0
353,2,2,0
354,2,2,0
355,2,2,0
356,2,2,0
357,2,2,0
358,2,2,0
359,2,2,0
360,2,2,0
361,2,2,0
362,2,2,0
363,2,2,0
364,2,2,0
365,2,2,0
366,2,2,0
367,2,2,0
368,2,2,0
369,2,2,0
370,2,2,0
371,2,2,0
372,2,2,0
373,2,2,0
374,2,2,0
375,2,2,0
376,2,2,0
377,2,2,0
378,2,2,0
379,2,2,0
380,2,2,0
381,2,2,0
382,2,2,0
383,2,2,0
384,2,2,0
385,2,2,0
386,2,2,0
387,2,2,0
388,2,2,0
389,2,2,0
390,2,2,0
391,2,2,0
392,2,2,0
393,2,2,0
394,2,2,0
395,2,2,0
396,2,2,0
397,2,2,0
398,2,2,0
399,2,2,0
400,2,2,0
401,2,2,0
402,2,2,0
403,2,2,0
404,2,2,0
405,2,2,0
406,2,2,0
407,2,2,0
408,2,2,0
409,2,2,0
410,2,2,0
411,2,2,0
412,2,2,0
413,2,2,0
414,2,2,0
415,2,2,0
416,2,2,0
417,2,2,0
418,2,2,0
419,2,2,0
420,2,2,0
421,2,2,0
422,2,2,0
423,2,2,0
424,2,2,0
425,2,2,0
426,2,2,0
427,2,2,0
428,2,2,0
429,2,2,0
430,2,2,0
431,2,2,0
432,2,2,0
433,2,2,0
434,2,2,0
435,2,2,0
436,2,2,0
437,2,2,0
438,2,2,0
439,2,2,0
440,2,2,0
441,2,2,0
442,2,2,0
443,2,2,0
444,2,2,0
445,2,2,0
446,2,2,0
447,2,2,0
448,2,2,0
449,2,2,0
450,2,2,0
451,2,2,0
452,2,2,0
453,2,2,0
454,2,2,0
455,2,2,0
456,2,2,0
457,2,2,0
458,2,2,0
459,2,2,0
460,2,2,0
461,2,2,0
462,2,2,0
463,2,2,0
464,2,2,0
465,2,2,0
466,2,2,0
467,2,2,0
468,2,2,0
469,2,2,0
470,2,2,0
471,2,2,0
472,2,2,0
473,2,2,0
474,2,2,0
475,2,2,0
476,2,2,0
477,2,2,0
478,2,2,0
479,2,2,0
480,2,2,0
481,2,2,0
482,2,2,0
483,2,2,0
484,2,2,0
485,2,2,0
486,2,2,0
487,2,2,0
488,2,2,0
489,2,2,0
490,2,2,0
491,2,2,0
492,2,2,0
493,2,2,0
494,2,2,0
495,2,2,0
496,2,2,0
497,2,2,0
498,2,2,0
499,2,2,0
500,2,2,0
501,2,2,0
502,2,2,0
503,2,2,0
504,2,2,0
505,2,2,0
506,2,2,0
507,2,2,0
508,2,2,0
509,2,2,0
510,2,2,0
511,2,2,0
512,2,2,0
*Output,field,frequency=1
*Node Output,nset=UPPERNODES
U,RF
*Contact Output
CDISP,CFORCE
*End Step
*Step,name=CELL18,nlgeom=YES,inc=10
*Coupled Temperature-Displacement,steady state
1,1,1,1
*Boundary,op=NEW
FIELD,1,1,0
FIELD,11,11,300
UPPERNODES,2,2,-.0002
CONTROLS,3,5,0
1,2,2,0
2,2,2,0
3,2,2,0
4,2,2,0
5,2,2,0
6,2,2,0
7,2,2,0
8,2,2,0
9,2,2,0
10,2,2,0
11,2,2,0
12,2,2,0
13,2,2,0
14,2,2,0
15,2,2,0
16,2,2,0
17,2,2,0
18,2,2,0
19,2,2,0
20,2,2,0
21,2,2,0
22,2,2,0
23,2,2,0
24,2,2,0
25,2,2,0
26,2,2,0
27,2,2,0
28,2,2,0
29,2,2,0
30,2,2,0
31,2,2,0
32,2,2,0
33,2,2,0
34,2,2,0
35,2,2,0
36,2,2,0
37,2,2,0
38,2,2,0
39,2,2,0
40,2,2,0
41,2,2,0
42,2,2,0
43,2,2,0
44,2,2,0
45,2,2,0
46,2,2,0
47,2,2,0
48,2,2,0
49,2,2,0
50,2,2,0
51,2,2,0
52,2,2,0
53,2,2,0
54,2,2,0
55,2,2,0
56,2,2,0
57,2,2,0
58,2,2,0
59,2,2,0
60,2,2,0
61,2,2,0
62,2,2,0
63,2,2,0
64,2,2,0
65,2,2,0
66,2,2,0
67,2,2,0
68,2,2,0
69,2,2,0
70,2,2,0
71,2,2,0
72,2,2,0
73,2,2,0
74,2,2,0
75,2,2,0
76,2,2,0
77,2,2,0
78,2,2,0
79,2,2,0
80,2,2,0
81,2,2,0
82,2,2,0
83,2,2,0
84,2,2,0
85,2,2,0
86,2,2,0
87,2,2,0
88,2,2,0
89,2,2,0
90,2,2,0
91,2,2,0
92,2,2,0
93,2,2,0
94,2,2,0
95,2,2,0
96,2,2,0
97,2,2,0
98,2,2,0
99,2,2,0
100,2,2,0
101,2,2,0
102,2,2,0
103,2,2,0
104,2,2,0
105,2,2,0
106,2,2,0
107,2,2,0
108,2,2,0
109,2,2,0
110,2,2,0
111,2,2,0
112,2,2,0
113,2,2,0
114,2,2,0
115,2,2,0
116,2,2,0
117,2,2,0
118,2,2,0
119,2,2,0
120,2,2,0
121,2,2,0
122,2,2,0
123,2,2,0
124,2,2,0
125,2,2,0
126,2,2,0
127,2,2,0
128,2,2,0
129,2,2,0
130,2,2,0
131,2,2,0
132,2,2,0
133,2,2,0
134,2,2,0
135,2,2,0
136,2,2,0
137,2,2,1e-07
138,2,2,1e-07
139,2,2,1e-07
140,2,2,1e-07
141,2,2,1e-07
142,2,2,1e-07
143,2,2,1e-07
144,2,2,1e-07
145,2,2,0
146,2,2,0
147,2,2,0
148,2,2,0
149,2,2,0
150,2,2,0
151,2,2,0
152,2,2,0
153,2,2,0
154,2,2,0
155,2,2,0
156,2,2,0
157,2,2,0
158,2,2,0
159,2,2,0
160,2,2,0
161,2,2,0
162,2,2,0
163,2,2,0
164,2,2,0
165,2,2,0
166,2,2,0
167,2,2,0
168,2,2,0
169,2,2,0
170,2,2,0
171,2,2,0
172,2,2,0
173,2,2,0
174,2,2,0
175,2,2,0
176,2,2,0
177,2,2,0
178,2,2,0
179,2,2,0
180,2,2,0
181,2,2,0
182,2,2,0
183,2,2,0
184,2,2,0
185,2,2,0
186,2,2,0
187,2,2,0
188,2,2,0
189,2,2,0
190,2,2,0
191,2,2,0
192,2,2,0
193,2,2,0
194,2,2,0
195,2,2,0
196,2,2,0
197,2,2,0
198,2,2,0
199,2,2,0
200,2,2,0
201,2,2,0
202,2,2,0
203,2,2,0
204,2,2,0
205,2,2,0
206,2,2,0
207,2,2,0
208,2,2,0
209,2,2,0
210,2,2,0
211,2,2,0
212,2,2,0
213,2,2,0
214,2,2,0
215,2,2,0
216,2,2,0
217,2,2,0
218,2,2,0
219,2,2,0
220,2,2,0
221,2,2,0
222,2,2,0
223,2,2,0
224,2,2,0
225,2,2,0
226,2,2,0
227,2,2,0
228,2,2,0
229,2,2,0
230,2,2,0
231,2,2,0
232,2,2,0
233,2,2,0
234,2,2,0
235,2,2,0
236,2,2,0
237,2,2,0
238,2,2,0
239,2,2,0
240,2,2,0
241,2,2,0
242,2,2,0
243,2,2,0
244,2,2,0
245,2,2,0
246,2,2,0
247,2,2,0
248,2,2,0
249,2,2,0
250,2,2,0
251,2,2,0
252,2,2,0
253,2,2,0
254,2,2,0
255,2,2,0
256,2,2,0
257,2,2,0
258,2,2,0
259,2,2,0
260,2,2,0
261,2,2,0
262,2,2,0
263,2,2,0
264,2,2,0
265,2,2,0
266,2,2,0
267,2,2,0
268,2,2,0
269,2,2,0
270,2,2,0
271,2,2,0
272,2,2,0
273,2,2,0
274,2,2,0
275,2,2,0
276,2,2,0
277,2,2,0
278,2,2,0
279,2,2,0
280,2,2,0
281,2,2,0
282,2,2,0
283,2,2,0
284,2,2,0
285,2,2,0
286,2,2,0
287,2,2,0
288,2,2,0
289,2,2,0
290,2,2,0
291,2,2,0
292,2,2,0
293,2,2,0
294,2,2,0
295,2,2,0
296,2,2,0
297,2,2,0
298,2,2,0
299,2,2,0
300,2,2,0
301,2,2,0
302,2,2,0
303,2,2,0
304,2,2,0
305,2,2,0
306,2,2,0
307,2,2,0
308,2,2,0
309,2,2,0
310,2,2,0
311,2,2,0
312,2,2,0
313,2,2,0
314,2,2,0
315,2,2,0
316,2,2,0
317,2,2,0
318,2,2,0
319,2,2,0
320,2,2,0
321,2,2,0
322,2,2,0
323,2,2,0
324,2,2,0
325,2,2,0
326,2,2,0
327,2,2,0
328,2,2,0
329,2,2,0
330,2,2,0
331,2,2,0
332,2,2,0
333,2,2,0
334,2,2,0
335,2,2,0
336,2,2,0
337,2,2,0
338,2,2,0
339,2,2,0
340,2,2,0
341,2,2,0
342,2,2,0
343,2,2,0
344,2,2,0
345,2,2,0
346,2,2,0
347,2,2,0
348,2,2,0
349,2,2,0
350,2,2,0
351,2,2,0
352,2,2,0
353,2,2,0
354,2,2,0
355,2,2,0
356,2,2,0
357,2,2,0
358,2,2,0
359,2,2,0
360,2,2,0
361,2,2,0
362,2,2,0
363,2,2,0
364,2,2,0
365,2,2,0
366,2,2,0
367,2,2,0
368,2,2,0
369,2,2,0
370,2,2,0
371,2,2,0
372,2,2,0
373,2,2,0
374,2,2,0
375,2,2,0
376,2,2,0
377,2,2,0
378,2,2,0
379,2,2,0
380,2,2,0
381,2,2,0
382,2,2,0
383,2,2,0
384,2,2,0
385,2,2,0
386,2,2,0
387,2,2,0
388,2,2,0
389,2,2,0
390,2,2,0
391,2,2,0
392,2,2,0
393,2,2,0
394,2,2,0
395,2,2,0
396,2,2,0
397,2,2,0
398,2,2,0
399,2,2,0
400,2,2,0
401,2,2,0
402,2,2,0
403,2,2,0
404,2,2,0
405,2,2,0
406,2,2,0
407,2,2,0
408,2,2,0
409,2,2,0
410,2,2,0
411,2,2,0
412,2,2,0
413,2,2,0
414,2,2,0
415,2,2,0
416,2,2,0
417,2,2,0
418,2,2,0
419,2,2,0
420,2,2,0
421,2,2,0
422,2,2,0
423,2,2,0
424,2,2,0
425,2,2,0
426,2,2,0
427,2,2,0
428,2,2,0
429,2,2,0
430,2,2,0
431,2,2,0
432,2,2,0
433,2,2,0
434,2,2,0
435,2,2,0
436,2,2,0
437,2,2,0
438,2,2,0
439,2,2,0
440,2,2,0
441,2,2,0
442,2,2,0
443,2,2,0
444,2,2,0
445,2,2,0
446,2,2,0
447,2,2,0
448,2,2,0
449,2,2,0
450,2,2,0
451,2,2,0
452,2,2,0
453,2,2,0
454,2,2,0
455,2,2,0
456,2,2,0
457,2,2,0
458,2,2,0
459,2,2,0
460,2,2,0
461,2,2,0
462,2,2,0
463,2,2,0
464,2,2,0
465,2,2,0
466,2,2,0
467,2,2,0
468,2,2,0
469,2,2,0
470,2,2,0
471,2,2,0
472,2,2,0
473,2,2,0
474,2,2,0
475,2,2,0
476,2,2,0
477,2,2,0
478,2,2,0
479,2,2,0
480,2,2,0
481,2,2,0
482,2,2,0
483,2,2,0
484,2,2,0
485,2,2,0
486,2,2,0
487,2,2,0
488,2,2,0
489,2,2,0
490,2,2,0
491,2,2,0
492,2,2,0
493,2,2,0
494,2,2,0
495,2,2,0
496,2,2,0
497,2,2,0
498,2,2,0
499,2,2,0
500,2,2,0
501,2,2,0
502,2,2,0
503,2,2,0
504,2,2,0
505,2,2,0
506,2,2,0
507,2,2,0
508,2,2,0
509,2,2,0
510,2,2,0
511,2,2,0
512,2,2,0
*Output,field,frequency=1
*Node Output,nset=UPPERNODES
U,RF
*Contact Output
CDISP,CFORCE
*End Step
*Step,name=CELL19,nlgeom=YES,inc=10
*Coupled Temperature-Displacement,steady state
1,1,1,1
*Boundary,op=NEW
FIELD,1,1,0
FIELD,11,11,300
UPPERNODES,2,2,-.0002
CONTROLS,3,5,0
1,2,2,0
2,2,2,0
3,2,2,0
4,2,2,0
5,2,2,0
6,2,2,0
7,2,2,0
8,2,2,0
9,2,2,0
10,2,2,0
11,2,2,0
12,2,2,0
13,2,2,0
14,2,2,0
15,2,2,0
16,2,2,0
17,2,2,0
18,2,2,0
19,2,2,0
20,2,2,0
21,2,2,0
22,2,2,0
23,2,2,0
24,2,2,0
25,2,2,0
26,2,2,0
27,2,2,0
28,2,2,0
29,2,2,0
30,2,2,0
31,2,2,0
32,2,2,0
33,2,2,0
34,2,2,0
35,2,2,0
36,2,2,0
37,2,2,0
38,2,2,0
39,2,2,0
40,2,2,0
41,2,2,0
42,2,2,0
43,2,2,0
44,2,2,0
45,2,2,0
46,2,2,0
47,2,2,0
48,2,2,0
49,2,2,0
50,2,2,0
51,2,2,0
52,2,2,0
53,2,2,0
54,2,2,0
55,2,2,0
56,2,2,0
57,2,2,0
58,2,2,0
59,2,2,0
60,2,2,0
61,2,2,0
62,2,2,0
63,2,2,0
64,2,2,0
65,2,2,0
66,2,2,0
67,2,2,0
68,2,2,0
69,2,2,0
70,2,2,0
71,2,2,0
72,2,2,0
73,2,2,0
74,2,2,0
75,2,2,0
76,2,2,0
77,2,2,0
78,2,2,0
79,2,2,0
80,2,2,0
81,2,2,0
82,2,2,0
83,2,2,0
84,2,2,0
85,2,2,0
86,2,2,0
87,2,2,0
88,2,2,0
89,2,2,0
90,2,2,0
91,2,2,0
92,2,2,0
93,2,2,0
94,2,2,0
95,2,2,0
96,2,2,0
97,2,2,0
98,2,2,0
99,2,2,0
100,2,2,0
101,2,2,0
102,2,2,0
103,2,2,0
104,2,2,0
105,2,2,0
106,2,2,0
107,2,2,0
108,2,2,0
109,2,2,0
110,2,2,0
111,2,2,0
112,2,2,0
113,2,2,0
114,2,2,0
115,2,2,0
116,2,2,0
117,2,2,0
118,2,2,0
119,2,2,0
120,2,2,0
121,2,2,0
122,2,2,0
123,2,2,0
124,2,2,0
125,2,2,0
126,2,2,0
127,2,2,0
128,2,2,0
129,2,2,0
130,2,2,0
131,2,2,0
132,2,2,0
133,2,2,0
134,2,2,0
135,2,2,0
136,2,2,0
137,2,2,0
138,2,2,0
139,2,2,0
140,2,2,0
141,2,2,0
142,2,2,0
143,2,2,0
144,2,2,0
145,2,2,1e-07
146,2,2,1e-07
147,2,2,1e-07
148,2,2,1e-07
149,2,2,1e-07
150,2,2,1e-07
151,2,2,1e-07
152,2,2,1e-07
153,2,2,0
154,2,2,0
155,2,2,0
156,2,2,0
157,2,2,0
158,2,2,0
159,2,2,0
160,2,2,0
161,2,2,0
162,2,2,0
163,2,2,0
164,2,2,0
165,2,2,0
166,2,2,0
167,2,2,0
168,2,2,0
169,2,2,0
170,2,2,0
171,2,2,0
172,2,2,0
173,2,2,0
174,2,2,0
175,2,2,0
176,2,2,0
177,2,2,0
178,2,2,0
179,2,2,0
180,2,2,0
181,2,2,0
182,2,2,0
183,2,2,0
184,2,2,0
185,2,2,0
186,2,2,0
187,2,2,0
188,2,2,0
189,2,2,0
190,2,2,0
191,2,2,0
192,2,2,0
193,2,2,0
194,2,2,0
195,2,2,0
196,2,2,0
197,2,2,0
198,2,2,0
199,2,2,0
200,2,2,0
201,2,2,0
202,2,2,0
203,2,2,0
204,2,2,0
205,2,2,0
206,2,2,0
207,2,2,0
208,2,2,0
209,2,2,0
210,2,2,0
211,2,2,0
212,2,2,0
213,2,2,0
214,2,2,0
215,2,2,0
216,2,2,0
217,2,2,0
218,2,2,0
219,2,2,0
220,2,2,0
221,2,2,0
222,2,2,0
223,2,2,0
224,2,2,0
225,2,2,0
226,2,2,0
227,2,2,0
228,2,2,0
229,2,2,0
230,2,2,0
231,2,2,0
232,2,2,0
233,2,2,0
234,2,2,0
235,2,2,0
236,2,2,0
237,2,2,0
238,2,2,0
239,2,2,0
240,2,2,0
241,2,2,0
242,2,2,0
243,2,2,0
244,2,2,0
245,2,2,0
246,2,2,0
247,2,2,0
248,2,2,0
249,2,2,0
250,2,2,0
251,2,2,0
252,2,2,0
253,2,2,0
254,2,2,0
255,2,2,0
256,2,2,0
257,2,2,0
258,2,2,0
259,2,2,0
260,2,2,0
261,2,2,0
262,2,2,0
263,2,2,0
264,2,2,0
265,2,2,0
266,2,2,0
267,2,2,0
268,2,2,0
269,2,2,0
270,2,2,0
271,2,2,0
272,2,2,0
273,2,2,0
274,2,2,0
275,2,2,0
276,2,2,0
277,2,2,0
278,2,2,0
279,2,2,0
280,2,2,0
281,2,2,0
282,2,2,0
283,2,2,0
284,2,2,0
285,2,2,0
286,2,2,0
287,2,2,0
288,2,2,0
289,2,2,0
290,2,2,0
291,2,2,0
292,2,2,0
293,2,2,0
294,2,2,0
295,2,2,0
296,2,2,0
297,2,2,0
298,2,2,0
299,2,2,0
300,2,2,0
301,2,2,0
302,2,2,0
303,2,2,0
304,2,2,0
305,2,2,0
306,2,2,0
307,2,2,0
308,2,2,0
309,2,2,0
310,2,2,0
311,2,2,0
312,2,2,0
313,2,2,0
314,2,2,0
315,2,2,0
316,2,2,0
317,2,2,0
318,2,2,0
319,2,2,0
320,2,2,0
321,2,2,0
322,2,2,0
323,2,2,0
324,2,2,0
325,2,2,0
326,2,2,0
327,2,2,0
328,2,2,0
329,2,2,0
330,2,2,0
331,2,2,0
332,2,2,0
333,2,2,0
334,2,2,0
335,2,2,0
336,2,2,0
337,2,2,0
338,2,2,0
339,2,2,0
340,2,2,0
341,2,2,0
342,2,2,0
343,2,2,0
344,2,2,0
345,2,2,0
346,2,2,0
347,2,2,0
348,2,2,0
349,2,2,0
350,2,2,0
351,2,2,0
352,2,2,0
353,2,2,0
354,2,2,0
355,2,2,0
356,2,2,0
357,2,2,0
358,2,2,0
359,2,2,0
360,2,2,0
361,2,2,0
362,2,2,0
363,2,2,0
364,2,2,0
365,2,2,0
366,2,2,0
367,2,2,0
368,2,2,0
369,2,2,0
370,2,2,0
371,2,2,0
372,2,2,0
373,2,2,0
374,2,2,0
375,2,2,0
376,2,2,0
377,2,2,0
378,2,2,0
379,2,2,0
380,2,2,0
381,2,2,0
382,2,2,0
383,2,2,0
384,2,2,0
385,2,2,0
386,2,2,0
387,2,2,0
388,2,2,0
389,2,2,0
390,2,2,0
391,2,2,0
392,2,2,0
393,2,2,0
394,2,2,0
395,2,2,0
396,2,2,0
397,2,2,0
398,2,2,0
399,2,2,0
400,2,2,0
401,2,2,0
402,2,2,0
403,2,2,0
404,2,2,0
405,2,2,0
406,2,2,0
407,2,2,0
408,2,2,0
409,2,2,0
410,2,2,0
411,2,2,0
412,2,2,0
413,2,2,0
414,2,2,0
415,2,2,0
416,2,2,0
417,2,2,0
418,2,2,0
419,2,2,0
420,2,2,0
421,2,2,0
422,2,2,0
423,2,2,0
424,2,2,0
425,2,2,0
426,2,2,0
427,2,2,0
428,2,2,0
429,2,2,0
430,2,2,0
431,2,2,0
432,2,2,0
433,2,2,0
434,2,2,0
435,2,2,0
436,2,2,0
437,2,2,0
438,2,2,0
439,2,2,0
440,2,2,0
441,2,2,0
442,2,2,0
443,2,2,0
444,2,2,0
445,2,2,0
446,2,2,0
447,2,2,0
448,2,2,0
449,2,2,0
450,2,2,0
451,2,2,0
452,2,2,0
453,2,2,0
454,2,2,0
455,2,2,0
456,2,2,0
457,2,2,0
458,2,2,0
459,2,2,0
460,2,2,0
461,2,2,0
462,2,2,0
463,2,2,0
464,2,2,0
465,2,2,0
466,2,2,0
467,2,2,0
468,2,2,0
469,2,2,0
470,2,2,0
471,2,2,0
472,2,2,0
473,2,2,0
474,2,2,0
475,2,2,0
476,2,2,0
477,2,2,0
478,2,2,0
479,2,2,0
480,2,2,0
481,2,2,0
482,2,2,0
483,2,2,0
484,2,2,0
485,2,2,0
486,2,2,0
487,2,2,0
488,2,2,0
489,2,2,0
490,2,2,0
491,2,2,0
492,2,2,0
493,2,2,0
494,2,2,0
495,2,2,0
496,2,2,0
497,2,2,0
498,2,2,0
499,2,2,0
500,2,2,0
501,2,2,0
502,2,2,0
503,2,2,0
504,2,2,0
505,2,2,0
506,2,2,0
507,2,2,0
508,2,2,0
509,2,2,0
510,2,2,0
511,2,2,0
512,2,2,0
*Output,field,frequency=1
*Node Output,nset=UPPERNODES
U,RF
*Contact Output
CDISP,CFORCE
*End Step
*Step,name=CELL20,nlgeom=YES,inc=10
*Coupled Temperature-Displacement,steady state
1,1,1,1
*Boundary,op=NEW
FIELD,1,1,0
FIELD,11,11,300
UPPERNODES,2,2,-.0002
CONTROLS,3,5,0
1,2,2,0
2,2,2,0
3,2,2,0
4,2,2,0
5,2,2,0
6,2,2,0
7,2,2,0
8,2,2,0
9,2,2,0
10,2,2,0
11,2,2,0
12,2,2,0
13,2,2,0
14,2,2,0
15,2,2,0
16,2,2,0
17,2,2,0
18,2,2,0
19,2,2,0
20,2,2,0
21,2,2,0
22,2,2,0
23,2,2,0
24,2,2,0
25,2,2,0
26,2,2,0
27,2,2,0
28,2,2,0
29,2,2,0
30,2,2,0
31,2,2,0
32,2,2,0
33,2,2,0
34,2,2,0
35,2,2,0
36,2,2,0
37,2,2,0
38,2,2,0
39,2,2,0
40,2,2,0
41,2,2,0
42,2,2,0
43,2,2,0
44,2,2,0
45,2,2,0
46,2,2,0
47,2,2,0
48,2,2,0
49,2,2,0
50,2,2,0
51,2,2,0
52,2,2,0
53,2,2,0
54,2,2,0
55,2,2,0
56,2,2,0
57,2,2,0
58,2,2,0
59,2,2,0
60,2,2,0
61,2,2,0
62,2,2,0
63,2,2,0
64,2,2,0
65,2,2,0
66,2,2,0
67,2,2,0
68,2,2,0
69,2,2,0
70,2,2,0
71,2,2,0
72,2,2,0
73,2,2,0
74,2,2,0
75,2,2,0
76,2,2,0
77,2,2,0
78,2,2,0
79,2,2,0
80,2,2,0
81,2,2,0
82,2,2,0
83,2,2,0
84,2,2,0
85,2,2,0
86,2,2,0
87,2,2,0
88,2,2,0
89,2,2,0
90,2,2,0
91,2,2,0
92,2,2,0
93,2,2,0
94,2,2,0
95,2,2,0
96,2,2,0
97,2,2,0
98,2,2,0
99,2,2,0
100,2,2,0
101,2,2,0
102,2,2,0
103,2,2,0
104,2,2,0
105,2,2,0
106,2,2,0
107,2,2,0
108,2,2,0
109,2,2,0
110,2,2,0
111,2,2,0
112,2,2,0
113,2,2,0
114,2,2,0
115,2,2,0
116,2,2,0
117,2,2,0
118,2,2,0
119,2,2,0
120,2,2,0
121,2,2,0
122,2,2,0
123,2,2,0
124,2,2,0
125,2,2,0
126,2,2,0
127,2,2,0
128,2,2,0
129,2,2,0
130,2,2,0
131,2,2,0
132,2,2,0
133,2,2,0
134,2,2,0
135,2,2,0
136,2,2,0
137,2,2,0
138,2,2,0
139,2,2,0
140,2,2,0
141,2,2,0
142,2,2,0
143,2,2,0
144,2,2,0
145,2,2,0
146,2,2,0
147,2,2,0
148,2,2,0
149,2,2,0
150,2,2,0
151,2,2,0
152,2,2,0
153,2,2,1e-07
154,2,2,1e-07
155,2,2,1e-07
156,2,2,1e-07
157,2,2,1e-07
158,2,2,1e-07
159,2,2,1e-07
160,2,2,1e-07
161,2,2,0
162,2,2,0
163,2,2,0
164,2,2,0
165,2,2,0
166,2,2,0
167,2,2,0
168,2,2,0
169,2,2,0
170,2,2,0
171,2,2,0
172,2,2,0
173,2,2,0
174,2,2,0
175,2,2,0
176,2,2,0
177,2,2,0
178,2,2,0
179,2,2,0
180,2,2,0
181,2,2,0
182,2,2,0
183,2,2,0
184,2,2,0
185,2,2,0
186,2,2,0
187,2,2,0
188,2,2,0
189,2,2,0
190,2,2,0
191,2,2,0
192,2,2,0
193,2,2,0
194,2,2,0
195,2,2,0
196,2,2,0
197,2,2,0
198,2,2,0
199,2,2,0
200,2,2,0
201,2,2,0
202,2,2,0
203,2,2,0
204,2,2,0
205,2,2,0
206,2,2,0
207,2,2,0
208,2,2,0
209,2,2,0
210,2,2,0
211,2,2,0
212,2,2,0
213,2,2,0
214,2,2,0
215,2,2,0
216,2,2,0
217,2,2,0
218,2,2,0
219,2,2,0
220,2,2,0
221,2,2,0
222,2,2,0
223,2,2,0
224,2,2,0
225,2,2,0
226,2,2,0
227,2,2,0
228,2,2,0
229,2,2,0
230,2,2,0
231,2,2,0
232,2,2,0
233,2,2,0
234,2,2,0
235,2,2,0
236,2,2,0
237,2,2,0
238,2,2,0
239,2,2,0
240,2,2,0
241,2,2,0
242,2,2,0
243,2,2,0
244,2,2,0
245,2,2,0
246,2,2,0
247,2,2,0
248,2,2,0
249,2,2,0
250,2,2,0
251,2,2,0
252,2,2,0
253,2,2,0
254,2,2,0
255,2,2,0
256,2,2,0
257,2,2,0
258,2,2,0
259,2,2,0
260,2,2,0
261,2,2,0
262,2,2,0
263,2,2,0
264,2,2,0
265,2,2,0
266,2,2,0
267,2,2,0
268,2,2,0
269,2,2,0
270,2,2,0
271,2,2,0
272,2,2,0
273,2,2,0
274,2,2,0
275,2,2,0
276,2,2,0
277,2,2,0
278,2,2,0
279,2,2,0
280,2,2,0
281,2,2,0
282,2,2,0
283,2,2,0
284,2,2,0
285,2,2,0
286,2,2,0
287,2,2,0
288,2,2,0
289,2,2,0
290,2,2,0
291,2,2,0
292,2,2,0
293,2,2,0
294,2,2,0
295,2,2,0
296,2,2,0
297,2,2,0
298,2,2,0
299,2,2,0
300,2,2,0
301,2,2,0
302,2,2,0
303,2,2,0
304,2,2,0
305,2,2,0
306,2,2,0
307,2,2,0
308,2,2,0
309,2,2,0
310,2,2,0
311,2,2,0
312,2,2,0
313,2,2,0
314,2,2,0
315,2,2,0
316,2,2,0
317,2,2,0
318,2,2,0
319,2,2,0
320,2,2,0
321,2,2,0
322,2,2,0
323,2,2,0
324,2,2,0
325,2,2,0
326,2,2,0
327,2,2,0
328,2,2,0
329,2,2,0
330,2,2,0
331,2,2,0
332,2,2,0
333,2,2,0
334,2,2,0
335,2,2,0
336,2,2,0
337,2,2,0
338,2,2,0
339,2,2,0
340,2,2,0
341,2,2,0
342,2,2,0
343,2,2,0
344,2,2,0
345,2,2,0
346,2,2,0
347,2,2,0
348,2,2,0
349,2,2,0
350,2,2,0
351,2,2,0
352,2,2,0
353,2,2,0
354,2,2,0
355,2,2,0
356,2,2,0
357,2,2,0
358,2,2,0
359,2,2,0
360,2,2,0
361,2,2,0
362,2,2,0
363,2,2,0
364,2,2,0
365,2,2,0
366,2,2,0
367,2,2,0
368,2,2,0
369,2,2,0
370,2,2,0
371,2,2,0
372,2,2,0
373,2,2,0
374,2,2,0
375,2,2,0
376,2,2,0
377,2,2,0
378,2,2,0
379,2,2,0
380,2,2,0
381,2,2,0
382,2,2,0
383,2,2,0
384,2,2,0
385,2,2,0
386,2,2,0
387,2,2,0
388,2,2,0
389,2,2,0
390,2,2,0
391,2,2,0
392,2,2,0
393,2,2,0
394,2,2,0
395,2,2,0
396,2,2,0
397,2,2,0
398,2,2,0
399,2,2,0
400,2,2,0
401,2,2,0
402,2,2,0
403,2,2,0
404,2,2,0
405,2,2,0
406,2,2,0
407,2,2,0
408,2,2,0
409,2,2,0
410,2,2,0
411,2,2,0
412,2,2,0
413,2,2,0
414,2,2,0
415,2,2,0
416,2,2,0
417,2,2,0
418,2,2,0
419,2,2,0
420,2,2,0
421,2,2,0
422,2,2,0
423,2,2,0
424,2,2,0
425,2,2,0
426,2,2,0
427,2,2,0
428,2,2,0
429,2,2,0
430,2,2,0
431,2,2,0
432,2,2,0
433,2,2,0
434,2,2,0
435,2,2,0
436,2,2,0
437,2,2,0
438,2,2,0
439,2,2,0
440,2,2,0
441,2,2,0
442,2,2,0
443,2,2,0
444,2,2,0
445,2,2,0
446,2,2,0
447,2,2,0
448,2,2,0
449,2,2,0
450,2,2,0
451,2,2,0
452,2,2,0
453,2,2,0
454,2,2,0
455,2,2,0
456,2,2,0
457,2,2,0
458,2,2,0
459,2,2,0
460,2,2,0
461,2,2,0
462,2,2,0
463,2,2,0
464,2,2,0
465,2,2,0
466,2,2,0
467,2,2,0
468,2,2,0
469,2,2,0
470,2,2,0
471,2,2,0
472,2,2,0
473,2,2,0
474,2,2,0
475,2,2,0
476,2,2,0
477,2,2,0
478,2,2,0
479,2,2,0
480,2,2,0
481,2,2,0
482,2,2,0
483,2,2,0
484,2,2,0
485,2,2,0
486,2,2,0
487,2,2,0
488,2,2,0
489,2,2,0
490,2,2,0
491,2,2,0
492,2,2,0
493,2,2,0
494,2,2,0
495,2,2,0
496,2,2,0
497,2,2,0
498,2,2,0
499,2,2,0
500,2,2,0
501,2,2,0
502,2,2,0
503,2,2,0
504,2,2,0
505,2,2,0
506,2,2,0
507,2,2,0
508,2,2,0
509,2,2,0
510,2,2,0
511,2,2,0
512,2,2,0
*Output,field,frequency=1
*Node Output,nset=UPPERNODES
U,RF
*Contact Output
CDISP,CFORCE
*End Step
*Step,name=CELL21,nlgeom=YES,inc=10
*Coupled Temperature-Displacement,steady state
1,1,1,1
*Boundary,op=NEW
FIELD,1,1,0
FIELD,11,11,300
UPPERNODES,2,2,-.0002
CONTROLS,3,5,0
1,2,2,0
2,2,2,0
3,2,2,0
4,2,2,0
5,2,2,0
6,2,2,0
7,2,2,0
8,2,2,0
9,2,2,0
10,2,2,0
11,2,2,0
12,2,2,0
13,2,2,0
14,2,2,0
15,2,2,0
16,2,2,0
17,2,2,0
18,2,2,0
19,2,2,0
20,2,2,0
21,2,2,0
22,2,2,0
23,2,2,0
24,2,2,0
25,2,2,0
26,2,2,0
27,2,2,0
28,2,2,0
29,2,2,0
30,2,2,0
31,2,2,0
32,2,2,0
33,2,2,0
34,2,2,0
35,2,2,0
36,2,2,0
37,2,2,0
38,2,2,0
39,2,2,0
40,2,2,0
41,2,2,0
42,2,2,0
43,2,2,0
44,2,2,0
45,2,2,0
46,2,2,0
47,2,2,0
48,2,2,0
49,2,2,0
50,2,2,0
51,2,2,0
52,2,2,0
53,2,2,0
54,2,2,0
55,2,2,0
56,2,2,0
57,2,2,0
58,2,2,0
59,2,2,0
60,2,2,0
61,2,2,0
62,2,2,0
63,2,2,0
64,2,2,0
65,2,2,0
66,2,2,0
67,2,2,0
68,2,2,0
69,2,2,0
70,2,2,0
71,2,2,0
72,2,2,0
73,2,2,0
74,2,2,0
75,2,2,0
76,2,2,0
77,2,2,0
78,2,2,0
79,2,2,0
80,2,2,0
81,2,2,0
82,2,2,0
83,2,2,0
84,2,2,0
85,2,2,0
86,2,2,0
87,2,2,0
88,2,2,0
89,2,2,0
90,2,2,0
91,2,2,0
92,2,2,0
93,2,2,0
94,2,2,0
95,2,2,0
96,2,2,0
97,2,2,0
98,2,2,0
99,2,2,0
100,2,2,0
101,2,2,0
102,2,2,0
103,2,2,0
104,2,2,0
105,2,2,0
106,2,2,0
107,2,2,0
108,2,2,0
109,2,2,0
110,2,2,0
111,2,2,0
112,2,2,0
113,2,2,0
114,2,2,0
115,2,2,0
116,2,2,0
117,2,2,0
118,2,2,0
119,2,2,0
120,2,2,0
121,2,2,0
122,2,2,0
123,2,2,0
124,2,2,0
125,2,2,0
126,2,2,0
127,2,2,0
128,2,2,0
129,2,2,0
130,2,2,0
131,2,2,0
132,2,2,0
133,2,2,0
134,2,2,0
135,2,2,0
136,2,2,0
137,2,2,0
138,2,2,0
139,2,2,0
140,2,2,0
141,2,2,0
142,2,2,0
143,2,2,0
144,2,2,0
145,2,2,0
146,2,2,0
147,2,2,0
148,2,2,0
149,2,2,0
150,2,2,0
151,2,2,0
152,2,2,0
153,2,2,0
154,2,2,0
155,2,2,0
156,2,2,0
157,2,2,0
158,2,2,0
159,2,2,0
160,2,2,0
161,2,2,1e-07
162,2,2,1e-07
163,2,2,1e-07
164,2,2,1e-07
165,2,2,1e-07
166,2,2,1e-07
167,2,2,1e-07
168,2,2,1e-07
169,2,2,0
170,2,2,0
171,2,2,0
172,2,2,0
173,2,2,0
174,2,2,0
175,2,2,0
176,2,2,0
177,2,2,0
178,2,2,0
179,2,2,0
180,2,2,0
181,2,2,0
182,2,2,0
183,2,2,0
184,2,2,0
185,2,2,0
186,2,2,0
187,2,2,0
188,2,2,0
189,2,2,0
190,2,2,0
191,2,2,0
192,2,2,0
193,2,2,0
194,2,2,0
195,2,2,0
196,2,2,0
197,2,2,0
198,2,2,0
199,2,2,0
200,2,2,0
201,2,2,0
202,2,2,0
203,2,2,0
204,2,2,0
205,2,2,0
206,2,2,0
207,2,2,0
208,2,2,0
209,2,2,0
210,2,2,0
211,2,2,0
212,2,2,0
213,2,2,0
214,2,2,0
215,2,2,0
216,2,2,0
217,2,2,0
218,2,2,0
219,2,2,0
220,2,2,0
221,2,2,0
222,2,2,0
223,2,2,0
224,2,2,0
225,2,2,0
226,2,2,0
227,2,2,0
228,2,2,0
229,2,2,0
230,2,2,0
231,2,2,0
232,2,2,0
233,2,2,0
234,2,2,0
235,2,2,0
236,2,2,0
237,2,2,0
238,2,2,0
239,2,2,0
240,2,2,0
241,2,2,0
242,2,2,0
243,2,2,0
244,2,2,0
245,2,2,0
246,2,2,0
247,2,2,0
248,2,2,0
249,2,2,0
250,2,2,0
251,2,2,0
252,2,2,0
253,2,2,0
254,2,2,0
255,2,2,0
256,2,2,0
257,2,2,0
258,2,2,0
259,2,2,0
260,2,2,0
261,2,2,0
262,2,2,0
263,2,2,0
264,2,2,0
265,2,2,0
266,2,2,0
267,2,2,0
268,2,2,0
269,2,2,0
270,2,2,0
271,2,2,0
272,2,2,0
273,2,2,0
274,2,2,0
275,2,2,0
276,2,2,0
277,2,2,0
278,2,2,0
279,2,2,0
280,2,2,0
281,2,2,0
282,2,2,0
283,2,2,0
284,2,2,0
285,2,2,0
286,2,2,0
287,2,2,0
288,2,2,0
289,2,2,0
290,2,2,0
291,2,2,0
292,2,2,0
293,2,2,0
294,2,2,0
295,2,2,0
296,2,2,0
297,2,2,0
298,2,2,0
299,2,2,0
300,2,2,0
301,2,2,0
302,2,2,0
303,2,2,0
304,2,2,0
305,2,2,0
306,2,2,0
307,2,2,0
308,2,2,0
309,2,2,0
310,2,2,0
311,2,2,0
312,2,2,0
313,2,2,0
314,2,2,0
315,2,2,0
316,2,2,0
317,2,2,0
318,2,2,0
319,2,2,0
320,2,2,0
321,2,2,0
322,2,2,0
323,2,2,0
324,2,2,0
325,2,2,0
326,2,2,0
327,2,2,0
328,2,2,0
329,2,2,0
330,2,2,0
331,2,2,0
332,2,2,0
333,2,2,0
334,2,2,0
335,2,2,0
336,2,2,0
337,2,2,0
338,2,2,0
339,2,2,0
340,2,2,0
341,2,2,0
342,2,2,0
343,2,2,0
344,2,2,0
345,2,2,0
346,2,2,0
347,2,2,0
348,2,2,0
349,2,2,0
350,2,2,0
351,2,2,0
352,2,2,0
353,2,2,0
354,2,2,0
355,2,2,0
356,2,2,0
357,2,2,0
358,2,2,0
359,2,2,0
360,2,2,0
361,2,2,0
362,2,2,0
363,2,2,0
364,2,2,0
365,2,2,0
366,2,2,0
367,2,2,0
368,2,2,0
369,2,2,0
370,2,2,0
371,2,2,0
372,2,2,0
373,2,2,0
374,2,2,0
375,2,2,0
376,2,2,0
377,2,2,0
378,2,2,0
379,2,2,0
380,2,2,0
381,2,2,0
382,2,2,0
383,2,2,0
384,2,2,0
385,2,2,0
386,2,2,0
387,2,2,0
388,2,2,0
389,2,2,0
390,2,2,0
391,2,2,0
392,2,2,0
393,2,2,0
394,2,2,0
395,2,2,0
396,2,2,0
397,2,2,0
398,2,2,0
399,2,2,0
400,2,2,0
401,2,2,0
402,2,2,0
403,2,2,0
404,2,2,0
405,2,2,0
406,2,2,0
407,2,2,0
408,2,2,0
409,2,2,0
410,2,2,0
411,2,2,0
412,2,2,0
413,2,2,0
414,2,2,0
415,2,2,0
416,2,2,0
417,2,2,0
418,2,2,0
419,2,2,0
420,2,2,0
421,2,2,0
422,2,2,0
423,2,2,0
424,2,2,0
425,2,2,0
426,2,2,0
427,2,2,0
428,2,2,0
429,2,2,0
430,2,2,0
431,2,2,0
432,2,2,0
433,2,2,0
434,2,2,0
435,2,2,0
436,2,2,0
437,2,2,0
438,2,2,0
439,2,2,0
440,2,2,0
441,2,2,0
442,2,2,0
443,2,2,0
444,2,2,0
445,2,2,0
446,2,2,0
447,2,2,0
448,2,2,0
449,2,2,0
450,2,2,0
451,2,2,0
452,2,2,0
453,2,2,0
454,2,2,0
455,2,2,0
456,2,2,0
457,2,2,0
458,2,2,0
459,2,2,0
460,2,2,0
461,2,2,0
462,2,2,0
463,2,2,0
464,2,2,0
465,2,2,0
466,2,2,0
467,2,2,0
468,2,2,0
469,2,2,0
470,2,2,0
471,2,2,0
472,2,2,0
473,2,2,0
474,2,2,0
475,2,2,0
476,2,2,0
477,2,2,0
478,2,2,0
479,2,2,0
480,2,2,0
481,2,2,0
482,2,2,0
483,2,2,0
484,2,2,0
485,2,2,0
486,2,2,0
487,2,2,0
488,2,2,0
489,2,2,0
490,2,2,0
491,2,2,0
492,2,2,0
493,2,2,0
494,2,2,0
495,2,2,0
496,2,2,0
497,2,2,0
498,2,2,0
499,2,2,0
500,2,2,0
501,2,2,0
502,2,2,0
503,2,2,0
504,2,2,0
505,2,2,0
506,2,2,0
507,2,2,0
508,2,2,0
509,2,2,0
510,2,2,0
511,2,2,0
512,2,2,0
*Output,field,frequency=1
*Node Output,nset=UPPERNODES
U,RF
*Contact Output
CDISP,CFORCE
*End Step
*Step,name=CELL22,nlgeom=YES,inc=10
*Coupled Temperature-Displacement,steady state
1,1,1,1
*Boundary,op=NEW
FIELD,1,1,0
FIELD,11,11,300
UPPERNODES,2,2,-.0002
CONTROLS,3,5,0
1,2,2,0
2,2,2,0
3,2,2,0
4,2,2,0
5,2,2,0
6,2,2,0
7,2,2,0
8,2,2,0
9,2,2,0
10,2,2,0
11,2,2,0
12,2,2,0
13,2,2,0
14,2,2,0
15,2,2,0
16,2,2,0
17,2,2,0
18,2,2,0
19,2,2,0
20,2,2,0
21,2,2,0
22,2,2,0
23,2,2,0
24,2,2,0
25,2,2,0
26,2,2,0
27,2,2,0
28,2,2,0
29,2,2,0
30,2,2,0
31,2,2,0
32,2,2,0
33,2,2,0
34,2,2,0
35,2,2,0
36,2,2,0
37,2,2,0
38,2,2,0
39,2,2,0
40,2,2,0
41,2,2,0
42,2,2,0
43,2,2,0
44,2,2,0
45,2,2,0
46,2,2,0
47,2,2,0
48,2,2,0
49,2,2,0
50,2,2,0
51,2,2,0
52,2,2,0
53,2,2,0
54,2,2,0
55,2,2,0
56,2,2,0
57,2,2,0
58,2,2,0
59,2,2,0
60,2,2,0
61,2,2,0
62,2,2,0
63,2,2,0
64,2,2,0
65,2,2,0
66,2,2,0
67,2,2,0
68,2,2,0
69,2,2,0
70,2,2,0
71,2,2,0
72,2,2,0
73,2,2,0
74,2,2,0
75,2,2,0
76,2,2,0
77,2,2,0
78,2,2,0
79,2,2,0
80,2,2,0
81,2,2,0
82,2,2,0
83,2,2,0
84,2,2,0
85,2,2,0
86,2,2,0
87,2,2,0
88,2,2,0
89,2,2,0
90,2,2,0
91,2,2,0
92,2,2,0
93,2,2,0
94,2,2,0
95,2,2,0
96,2,2,0
97,2,2,0
98,2,2,0
99,2,2,0
100,2,2,0
101,2,2,0
102,2,2,0
103,2,2,0
104,2,2,0
105,2,2,0
106,2,2,0
107,2,2,0
108,2,2,0
109,2,2,0
110,2,2,0
111,2,2,0
112,2,2,0
113,2,2,0
114,2,2,0
115,2,2,0
116,2,2,0
117,2,2,0
118,2,2,0
119,2,2,0
120,2,2,0
121,2,2,0
122,2,2,0
123,2,2,0
124,2,2,0
125,2,2,0
126,2,2,0
127,2,2,0
128,2,2,0
129,2,2,0
130,2,2,0
131,2,2,0
132,2,2,0
133,2,2,0
134,2,2,0
135,2,2,0
136,2,2,0
137,2,2,0
138,2,2,0
139,2,2,0
140,2,2,0
141,2,2,0
142,2,2,0
143,2,2,0
144,2,2,0
145,2,2,0
146,2,2,0
147,2,2,0
148,2,2,0
149,2,2,0
150,2,2,0
151,2,2,0
152,2,2,0
153,2,2,0
154,2,2,0
155,2,2,0
156,2,2,0
157,2,2,0
158,2,2,0
159,2,2,0
160,2,2,0
161,2,2,0
162,2,2,0
163,2,2,0
164,2,2,0
165,2,2,0
166,2,2,0
167,2,2,0
168,2,2,0
169,2,2,1e-07
170,2,2,1e-07
171,2,2,1e-07
172,2,2,1e-07
173,2,2,1e-07
174,2,2,1e-07
175,2,2,1e-07
176,2,2,1e-07
177,2,2,0
178,2,2,0
179,2,2,0
180,2,2,0
181,2,2,0
182,2,2,0
183,2,2,0
184,2,2,0
185,2,2,0
186,2,2,0
187,2,2,0
188,2,2,0
189,2,2,0
190,2,2,0
191,2,2,0
192,2,2,0
193,2,2,0
194,2,2,0
195,2,2,0
196,2,2,0
197,2,2,0
198,2,2,0
199,2,2,0
200,2,2,0
201,2,2,0
202,2,2,0
203,2,2,0
204,2,2,0
205,2,2,0
206,2,2,0
207,2,2,0
208,2,2,0
209,2,2,0
210,2,2,0
211,2,2,0
212,2,2,0
213,2,2,0
214,2,2,0
215,2,2,0
216,2,2,0
217,2,2,0
218,2,2,0
219,2,2,0
220,2,2,0
221,2,2,0
222,2,2,0
223,2,2,0
224,2,2,0
225,2,2,0
226,2,2,0
227,2,2,0
228,2,2,0
229,2,2,0
230,2,2,0
231,2,2,0
232,2,2,0
233,2,2,0
234,2,2,0
235,2,2,0
236,2,2,0
237,2,2,0
238,2,2,0
239,2,2,0
240,2,2,0
241,2,2,0
242,2,2,0
243,2,2,0
244,2,2,0
245,2,2,0
246,2,2,0
247,2,2,0
248,2,2,0
249,2,2,0
250,2,2,0
251,2,2,0
252,2,2,0
253,2,2,0
254,2,2,0
255,2,2,0
256,2,2,0
257,2,2,0
258,2,2,0
259,2,2,0
260,2,2,0
261,2,2,0
262,2,2,0
263,2,2,0
264,2,2,0
265,2,2,0
266,2,2,0
267,2,2,0
268,2,2,0
269,2,2,0
270,2,2,0
271,2,2,0
272,2,2,0
273,2,2,0
274,2,2,0
275,2,2,0
276,2,2,0
277,2,2,0
278,2,2,0
279,2,2,0
280,2,2,0
281,2,2,0
282,2,2,0
283,2,2,0
284,2,2,0
285,2,2,0
286,2,2,0
287,2,2,0
288,2,2,0
289,2,2,0
290,2,2,0
291,2,2,0
292,2,2,0
293,2,2,0
294,2,2,0
295,2,2,0
296,2,2,0
297,2,2,0
298,2,2,0
299,2,2,0
300,2,2,0
301,2,2,0
302,2,2,0
303,2,2,0
304,2,2,0
305,2,2,0
306,2,2,0
307,2,2,0
308,2,2,0
309,2,2,0
310,2,2,0
311,2,2,0
312,2,2,0
313,2,2,0
314,2,2,0
315,2,2,0
316,2,2,0
317,2,2,0
318,2,2,0
319,2,2,0
320,2,2,0
321,2,2,0
322,2,2,0
323,2,2,0
324,2,2,0
325,2,2,0
326,2,2,0
327,2,2,0
328,2,2,0
329,2,2,0
330,2,2,0
331,2,2,0
332,2,2,0
333,2,2,0
334,2,2,0
335,2,2,0
336,2,2,0
337,2,2,0
338,2,2,0
339,2,2,0
340,2,2,0
341,2,2,0
342,2,2,0
343,2,2,0
344,2,2,0
345,2,2,0
346,2,2,0
347,2,2,0
348,2,2,0
349,2,2,0
350,2,2,0
351,2,2,0
352,2,2,0
353,2,2,0
354,2,2,0
355,2,2,0
356,2,2,0
357,2,2,0
358,2,2,0
359,2,2,0
360,2,2,0
361,2,2,0
362,2,2,0
363,2,2,0
364,2,2,0
365,2,2,0
366,2,2,0
367,2,2,0
368,2,2,0
369,2,2,0
370,2,2,0
371,2,2,0
372,2,2,0
373,2,2,0
374,2,2,0
375,2,2,0
376,2,2,0
377,2,2,0
378,2,2,0
379,2,2,0
380,2,2,0
381,2,2,0
382,2,2,0
383,2,2,0
384,2,2,0
385,2,2,0
386,2,2,0
387,2,2,0
388,2,2,0
389,2,2,0
390,2,2,0
391,2,2,0
392,2,2,0
393,2,2,0
394,2,2,0
395,2,2,0
396,2,2,0
397,2,2,0
398,2,2,0
399,2,2,0
400,2,2,0
401,2,2,0
402,2,2,0
403,2,2,0
404,2,2,0
405,2,2,0
406,2,2,0
407,2,2,0
408,2,2,0
409,2,2,0
410,2,2,0
411,2,2,0
412,2,2,0
413,2,2,0
414,2,2,0
415,2,2,0
416,2,2,0
417,2,2,0
418,2,2,0
419,2,2,0
420,2,2,0
421,2,2,0
422,2,2,0
423,2,2,0
424,2,2,0
425,2,2,0
426,2,2,0
427,2,2,0
428,2,2,0
429,2,2,0
430,2,2,0
431,2,2,0
432,2,2,0
433,2,2,0
434,2,2,0
435,2,2,0
436,2,2,0
437,2,2,0
438,2,2,0
439,2,2,0
440,2,2,0
441,2,2,0
442,2,2,0
443,2,2,0
444,2,2,0
445,2,2,0
446,2,2,0
447,2,2,0
448,2,2,0
449,2,2,0
450,2,2,0
451,2,2,0
452,2,2,0
453,2,2,0
454,2,2,0
455,2,2,0
456,2,2,0
457,2,2,0
458,2,2,0
459,2,2,0
460,2,2,0
461,2,2,0
462,2,2,0
463,2,2,0
464,2,2,0
465,2,2,0
466,2,2,0
467,2,2,0
468,2,2,0
469,2,2,0
470,2,2,0
471,2,2,0
472,2,2,0
473,2,2,0
474,2,2,0
475,2,2,0
476,2,2,0
477,2,2,0
478,2,2,0
479,2,2,0
480,2,2,0
481,2,2,0
482,2,2,0
483,2,2,0
484,2,2,0
485,2,2,0
486,2,2,0
487,2,2,0
488,2,2,0
489,2,2,0
490,2,2,0
491,2,2,0
492,2,2,0
493,2,2,0
494,2,2,0
495,2,2,0
496,2,2,0
497,2,2,0
498,2,2,0
499,2,2,0
500,2,2,0
501,2,2,0
502,2,2,0
503,2,2,0
504,2,2,0
505,2,2,0
506,2,2,0
507,2,2,0
508,2,2,0
509,2,2,0
510,2,2,0
511,2,2,0
512,2,2,0
*Output,field,frequency=1
*Node Output,nset=UPPERNODES
U,RF
*Contact Output
CDISP,CFORCE
*End Step
*Step,name=CELL23,nlgeom=YES,inc=10
*Coupled Temperature-Displacement,steady state
1,1,1,1
*Boundary,op=NEW
FIELD,1,1,0
FIELD,11,11,300
UPPERNODES,2,2,-.0002
CONTROLS,3,5,0
1,2,2,0
2,2,2,0
3,2,2,0
4,2,2,0
5,2,2,0
6,2,2,0
7,2,2,0
8,2,2,0
9,2,2,0
10,2,2,0
11,2,2,0
12,2,2,0
13,2,2,0
14,2,2,0
15,2,2,0
16,2,2,0
17,2,2,0
18,2,2,0
19,2,2,0
20,2,2,0
21,2,2,0
22,2,2,0
23,2,2,0
24,2,2,0
25,2,2,0
26,2,2,0
27,2,2,0
28,2,2,0
29,2,2,0
30,2,2,0
31,2,2,0
32,2,2,0
33,2,2,0
34,2,2,0
35,2,2,0
36,2,2,0
37,2,2,0
38,2,2,0
39,2,2,0
40,2,2,0
41,2,2,0
42,2,2,0
43,2,2,0
44,2,2,0
45,2,2,0
46,2,2,0
47,2,2,0
48,2,2,0
49,2,2,0
50,2,2,0
51,2,2,0
52,2,2,0
53,2,2,0
54,2,2,0
55,2,2,0
56,2,2,0
57,2,2,0
58,2,2,0
59,2,2,0
60,2,2,0
61,2,2,0
62,2,2,0
63,2,2,0
64,2,2,0
65,2,2,0
66,2,2,0
67,2,2,0
68,2,2,0
69,2,2,0
70,2,2,0
71,2,2,0
72,2,2,0
73,2,2,0
74,2,2,0
75,2,2,0
76,2,2,0
77,2,2,0
78,2,2,0
79,2,2,0
80,2,2,0
81,2,2,0
82,2,2,0
83,2,2,0
84,2,2,0
85,2,2,0
86,2,2,0
87,2,2,0
88,2,2,0
89,2,2,0
90,2,2,0
91,2,2,0
92,2,2,0
93,2,2,0
94,2,2,0
95,2,2,0
96,2,2,0
97,2,2,0
98,2,2,0
99,2,2,0
100,2,2,0
101,2,2,0
102,2,2,0
103,2,2,0
104,2,2,0
105,2,2,0
106,2,2,0
107,2,2,0
108,2,2,0
109,2,2,0
110,2,2,0
111,2,2,0
112,2,2,0
113,2,2,0
114,2,2,0
115,2,2,0
116,2,2,0
117,2,2,0
118,2,2,0
119,2,2,0
120,2,2,0
121,2,2,0
122,2,2,0
123,2,2,0
124,2,2,0
125,2,2,0
126,2,2,0
127,2,2,0
128,2,2,0
129,2,2,0
130,2,2,0
131,2,2,0
132,2,2,0
133,2,2,0
134,2,2,0
135,2,2,0
136,2,2,0
137,2,2,0
138,2,2,0
139,2,2,0
140,2,2,0
141,2,2,0
142,2,2,0
143,2,2,0
144,2,2,0
145,2,2,0
146,2,2,0
147,2,2,0
148,2,2,0
149,2,2,0
150,2,2,0
151,2,2,0
152,2,2,0
153,2,2,0
154,2,2,0
155,2,2,0
156,2,2,0
157,2,2,0
158,2,2,0
159,2,2,0
160,2,2,0
161,2,2,0
162,2,2,0
163,2,2,0
164,2,2,0
165,2,2,0
166,2,2,0
167,2,2,0
168,2,2,0
169,2,2,0
170,2,2,0
171,2,2,0
172,2,2,0
173,2,2,0
174,2,2,0
175,2,2,0
176,2,2,0
177,2,2,1e-07
178,2,2,1e-07
179,2,2,1e-07
180,2,2,1e-07
181,2,2,1e-07
182,2,2,1e-07
183,2,2,1e-07
184,2,2,1e-07
185,2,2,0
186,2,2,0
187,2,2,0
188,2,2,0
189,2,2,0
190,2,2,0
191,2,2,0
192,2,2,0
193,2,2,0
194,2,2,0
195,2,2,0
196,2,2,0
197,2,2,0
198,2,2,0
199,2,2,0
200,2,2,0
201,2,2,0
202,2,2,0
203,2,2,0
204,2,2,0
205,2,2,0
206,2,2,0
207,2,2,0
208,2,2,0
209,2,2,0
210,2,2,0
211,2,2,0
212,2,2,0
213,2,2,0
214,2,2,0
215,2,2,0
216,2,2,0
217,2,2,0
218,2,2,0
219,2,2,0
220,2,2,0
221,2,2,0
222,2,2,0
223,2,2,0
224,2,2,0
225,2,2,0
226,2,2,0
227,2,2,0
228,2,2,0
229,2,2,0
230,2,2,0
231,2,2,0
232,2,2,0
233,2,2,0
234,2,2,0
235,2,2,0
236,2,2,0
237,2,2,0
238,2,2,0
239,2,2,0
240,2,2,0
241,2,2,0
242,2,2,0
243,2,2,0
244,2,2,0
245,2,2,0
246,2,2,0
247,2,2,0
248,2,2,0
249,2,2,0
250,2,2,0
251,2,2,0
252,2,2,0
253,2,2,0
254,2,2,0
255,2,2,0
256,2,2,0
257,2,2,0
258,2,2,0
259,2,2,0
260,2,2,0
261,2,2,0
262,2,2,0
263,2,2,0
264,2,2,0
265,2,2,0
266,2,2,0
267,2,2,0
268,2,2,0
269,2,2,0
270,2,2,0
271,2,2,0
272,2,2,0
273,2,2,0
274,2,2,0
275,2,2,0
276,2,2,0
277,2,2,0
278,2,2,0
279,2,2,0
280,2,2,0
281,2,2,0
282,2,2,0
283,2,2,0
284,2,2,0
285,2,2,0
286,2,2,0
287,2,2,0
288,2,2,0
289,2,2,0
290,2,2,0
291,2,2,0
292,2,2,0
293,2,2,0
294,2,2,0
295,2,2,0
296,2,2,0
297,2,2,0
298,2,2,0
299,2,2,0
300,2,2,0
301,2,2,0
302,2,2,0
303,2,2,0
304,2,2,0
305,2,2,0
306,2,2,0
307,2,2,0
308,2,2,0
309,2,2,0
310,2,2,0
311,2,2,0
312,2,2,0
313,2,2,0
314,2,2,0
315,2,2,0
316,2,2,0
317,2,2,0
318,2,2,0
319,2,2,0
320,2,2,0
321,2,2,0
322,2,2,0
323,2,2,0
324,2,2,0
325,2,2,0
326,2,2,0
327,2,2,0
328,2,2,0
329,2,2,0
330,2,2,0
331,2,2,0
332,2,2,0
333,2,2,0
334,2,2,0
335,2,2,0
336,2,2,0
337,2,2,0
338,2,2,0
339,2,2,0
340,2,2,0
341,2,2,0
342,2,2,0
343,2,2,0
344,2,2,0
345,2,2,0
346,2,2,0
347,2,2,0
348,2,2,0
349,2,2,0
350,2,2,0
351,2,2,0
352,2,2,0
353,2,2,0
354,2,2,0
355,2,2,0
356,2,2,0
357,2,2,0
358,2,2,0
359,2,2,0
360,2,2,0
361,2,2,0
362,2,2,0
363,2,2,0
364,2,2,0
365,2,2,0
366,2,2,0
367,2,2,0
368,2,2,0
369,2,2,0
370,2,2,0
371,2,2,0
372,2,2,0
373,2,2,0
374,2,2,0
375,2,2,0
376,2,2,0
377,2,2,0
378,2,2,0
379,2,2,0
380,2,2,0
381,2,2,0
382,2,2,0
383,2,2,0
384,2,2,0
385,2,2,0
386,2,2,0
387,2,2,0
388,2,2,0
389,2,2,0
390,2,2,0
391,2,2,0
392,2,2,0
393,2,2,0
394,2,2,0
395,2,2,0
396,2,2,0
397,2,2,0
398,2,2,0
399,2,2,0
400,2,2,0
401,2,2,0
402,2,2,0
403,2,2,0
404,2,2,0
405,2,2,0
406,2,2,0
407,2,2,0
408,2,2,0
409,2,2,0
410,2,2,0
411,2,2,0
412,2,2,0
413,2,2,0
414,2,2,0
415,2,2,0
416,2,2,0
417,2,2,0
418,2,2,0
419,2,2,0
420,2,2,0
421,2,2,0
422,2,2,0
423,2,2,0
424,2,2,0
425,2,2,0
426,2,2,0
427,2,2,0
428,2,2,0
429,2,2,0
430,2,2,0
431,2,2,0
432,2,2,0
433,2,2,0
434,2,2,0
435,2,2,0
436,2,2,0
437,2,2,0
438,2,2,0
439,2,2,0
440,2,2,0
441,2,2,0
442,2,2,0
443,2,2,0
444,2,2,0
445,2,2,0
446,2,2,0
447,2,2,0
448,2,2,0
449,2,2,0
450,2,2,0
451,2,2,0
452,2,2,0
453,2,2,0
454,2,2,0
455,2,2,0
456,2,2,0
457,2,2,0
458,2,2,0
459,2,2,0
460,2,2,0
461,2,2,0
462,2,2,0
463,2,2,0
464,2,2,0
465,2,2,0
466,2,2,0
467,2,2,0
468,2,2,0
469,2,2,0
470,2,2,0
471,2,2,0
472,2,2,0
473,2,2,0
474,2,2,0
475,2,2,0
476,2,2,0
477,2,2,0
478,2,2,0
479,2,2,0
480,2,2,0
481,2,2,0
482,2,2,0
483,2,2,0
484,2,2,0
485,2,2,0
486,2,2,0
487,2,2,0
488,2,2,0
489,2,2,0
490,2,2,0
491,2,2,0
492,2,2,0
493,2,2,0
494,2,2,0
495,2,2,0
496,2,2,0
497,2,2,0
498,2,2,0
499,2,2,0
500,2,2,0
501,2,2,0
502,2,2,0
503,2,2,0
504,2,2,0
505,2,2,0
506,2,2,0
507,2,2,0
508,2,2,0
509,2,2,0
510,2,2,0
511,2,2,0
512,2,2,0
*Output,field,frequency=1
*Node Output,nset=UPPERNODES
U,RF
*Contact Output
CDISP,CFORCE
*End Step
*Step,name=CELL24,nlgeom=YES,inc=10
*Coupled Temperature-Displacement,steady state
1,1,1,1
*Boundary,op=NEW
FIELD,1,1,0
FIELD,11,11,300
UPPERNODES,2,2,-.0002
CONTROLS,3,5,0
1,2,2,0
2,2,2,0
3,2,2,0
4,2,2,0
5,2,2,0
6,2,2,0
7,2,2,0
8,2,2,0
9,2,2,0
10,2,2,0
11,2,2,0
12,2,2,0
13,2,2,0
14,2,2,0
15,2,2,0
16,2,2,0
17,2,2,0
18,2,2,0
19,2,2,0
20,2,2,0
21,2,2,0
22,2,2,0
23,2,2,0
24,2,2,0
25,2,2,0
26,2,2,0
27,2,2,0
28,2,2,0
29,2,2,0
30,2,2,0
31,2,2,0
32,2,2,0
33,2,2,0
34,2,2,0
35,2,2,0
36,2,2,0
37,2,2,0
38,2,2,0
39,2,2,0
40,2,2,0
41,2,2,0
42,2,2,0
43,2,2,0
44,2,2,0
45,2,2,0
46,2,2,0
47,2,2,0
48,2,2,0
49,2,2,0
50,2,2,0
51,2,2,0
52,2,2,0
53,2,2,0
54,2,2,0
55,2,2,0
56,2,2,0
57,2,2,0
58,2,2,0
59,2,2,0
60,2,2,0
61,2,2,0
62,2,2,0
63,2,2,0
64,2,2,0
65,2,2,0
66,2,2,0
67,2,2,0
68,2,2,0
69,2,2,0
70,2,2,0
71,2,2,0
72,2,2,0
73,2,2,0
74,2,2,0
75,2,2,0
76,2,2,0
77,2,2,0
78,2,2,0
79,2,2,0
80,2,2,0
81,2,2,0
82,2,2,0
83,2,2,0
84,2,2,0
85,2,2,0
86,2,2,0
87,2,2,0
88,2,2,0
89,2,2,0
90,2,2,0
91,2,2,0
92,2,2,0
93,2,2,0
94,2,2,0
95,2,2,0
96,2,2,0
97,2,2,0
98,2,2,0
99,2,2,0
100,2,2,0
101,2,2,0
102,2,2,0
103,2,2,0
104,2,2,0
105,2,2,0
106,2,2,0
107,2,2,0
108,2,2,0
109,2,2,0
110,2,2,0
111,2,2,0
112,2,2,0
113,2,2,0
114,2,2,0
115,2,2,0
116,2,2,0
117,2,2,0
118,2,2,0
119,2,2,0
120,2,2,0
121,2,2,0
122,2,2,0
123,2,2,0
124,2,2,0
125,2,2,0
126,2,2,0
127,2,2,0
128,2,2,0
129,2,2,0
130,2,2,0
131,2,2,0
132,2,2,0
133,2,2,0
134,2,2,0
135,2,2,0
136,2,2,0
137,2,2,0
138,2,2,0
139,2,2,0
140,2,2,0
141,2,2,0
142,2,2,0
143,2,2,0
144,2,2,0
145,2,2,0
146,2,2,0
147,2,2,0
148,2,2,0
149,2,2,0
150,2,2,0
151,2,2,0
152,2,2,0
153,2,2,0
154,2,2,0
155,2,2,0
156,2,2,0
157,2,2,0
158,2,2,0
159,2,2,0
160,2,2,0
161,2,2,0
162,2,2,0
163,2,2,0
164,2,2,0
165,2,2,0
166,2,2,0
167,2,2,0
168,2,2,0
169,2,2,0
170,2,2,0
171,2,2,0
172,2,2,0
173,2,2,0
174,2,2,0
175,2,2,0
176,2,2,0
177,2,2,0
178,2,2,0
179,2,2,0
180,2,2,0
181,2,2,0
182,2,2,0
183,2,2,0
184,2,2,0
185,2,2,1e-07
186,2,2,1e-07
187,2,2,1e-07
188,2,2,1e-07
189,2,2,1e-07
190,2,2,1e-07
191,2,2,1e-07
192,2,2,1e-07
193,2,2,0
194,2,2,0
195,2,2,0
196,2,2,0
197,2,2,0
198,2,2,0
199,2,2,0
200,2,2,0
201,2,2,0
202,2,2,0
203,2,2,0
204,2,2,0
205,2,2,0
206,2,2,0
207,2,2,0
208,2,2,0
209,2,2,0
210,2,2,0
211,2,2,0
212,2,2,0
213,2,2,0
214,2,2,0
215,2,2,0
216,2,2,0
217,2,2,0
218,2,2,0
219,2,2,0
220,2,2,0
221,2,2,0
222,2,2,0
223,2,2,0
224,2,2,0
225,2,2,0
226,2,2,0
227,2,2,0
228,2,2,0
229,2,2,0
230,2,2,0
231,2,2,0
232,2,2,0
233,2,2,0
234,2,2,0
235,2,2,0
236,2,2,0
237,2,2,0
238,2,2,0
239,2,2,0
240,2,2,0
241,2,2,0
242,2,2,0
243,2,2,0
244,2,2,0
245,2,2,0
246,2,2,0
247,2,2,0
248,2,2,0
249,2,2,0
250,2,2,0
251,2,2,0
252,2,2,0
253,2,2,0
254,2,2,0
255,2,2,0
256,2,2,0
257,2,2,0
258,2,2,0
259,2,2,0
260,2,2,0
261,2,2,0
262,2,2,0
263,2,2,0
264,2,2,0
265,2,2,0
266,2,2,0
267,2,2,0
268,2,2,0
269,2,2,0
270,2,2,0
271,2,2,0
272,2,2,0
273,2,2,0
274,2,2,0
275,2,2,0
276,2,2,0
277,2,2,0
278,2,2,0
279,2,2,0
280,2,2,0
281,2,2,0
282,2,2,0
283,2,2,0
284,2,2,0
285,2,2,0
286,2,2,0
287,2,2,0
288,2,2,0
289,2,2,0
290,2,2,0
291,2,2,0
292,2,2,0
293,2,2,0
294,2,2,0
295,2,2,0
296,2,2,0
297,2,2,0
298,2,2,0
299,2,2,0
300,2,2,0
301,2,2,0
302,2,2,0
303,2,2,0
304,2,2,0
305,2,2,0
306,2,2,0
307,2,2,0
308,2,2,0
309,2,2,0
310,2,2,0
311,2,2,0
312,2,2,0
313,2,2,0
314,2,2,0
315,2,2,0
316,2,2,0
317,2,2,0
318,2,2,0
319,2,2,0
320,2,2,0
321,2,2,0
322,2,2,0
323,2,2,0
324,2,2,0
325,2,2,0
326,2,2,0
327,2,2,0
328,2,2,0
329,2,2,0
330,2,2,0
331,2,2,0
332,2,2,0
333,2,2,0
334,2,2,0
335,2,2,0
336,2,2,0
337,2,2,0
338,2,2,0
339,2,2,0
340,2,2,0
341,2,2,0
342,2,2,0
343,2,2,0
344,2,2,0
345,2,2,0
346,2,2,0
347,2,2,0
348,2,2,0
349,2,2,0
350,2,2,0
351,2,2,0
352,2,2,0
353,2,2,0
354,2,2,0
355,2,2,0
356,2,2,0
357,2,2,0
358,2,2,0
359,2,2,0
360,2,2,0
361,2,2,0
362,2,2,0
363,2,2,0
364,2,2,0
365,2,2,0
366,2,2,0
367,2,2,0
368,2,2,0
369,2,2,0
370,2,2,0
371,2,2,0
372,2,2,0
373,2,2,0
374,2,2,0
375,2,2,0
376,2,2,0
377,2,2,0
378,2,2,0
379,2,2,0
380,2,2,0
381,2,2,0
382,2,2,0
383,2,2,0
384,2,2,0
385,2,2,0
386,2,2,0
387,2,2,0
388,2,2,0
389,2,2,0
390,2,2,0
391,2,2,0
392,2,2,0
393,2,2,0
394,2,2,0
395,2,2,0
396,2,2,0
397,2,2,0
398,2,2,0
399,2,2,0
400,2,2,0
401,2,2,0
402,2,2,0
403,2,2,0
404,2,2,0
405,2,2,0
406,2,2,0
407,2,2,0
408,2,2,0
409,2,2,0
410,2,2,0
411,2,2,0
412,2,2,0
413,2,2,0
414,2,2,0
415,2,2,0
416,2,2,0
417,2,2,0
418,2,2,0
419,2,2,0
420,2,2,0
421,2,2,0
422,2,2,0
423,2,2,0
424,2,2,0
425,2,2,0
426,2,2,0
427,2,2,0
428,2,2,0
429,2,2,0
430,2,2,0
431,2,2,0
432,2,2,0
433,2,2,0
434,2,2,0
435,2,2,0
436,2,2,0
437,2,2,0
438,2,2,0
439,2,2,0
440,2,2,0
441,2,2,0
442,2,2,0
443,2,2,0
444,2,2,0
445,2,2,0
446,2,2,0
447,2,2,0
448,2,2,0
449,2,2,0
450,2,2,0
451,2,2,0
452,2,2,0
453,2,2,0
454,2,2,0
455,2,2,0
456,2,2,0
457,2,2,0
458,2,2,0
459,2,2,0
460,2,2,0
461,2,2,0
462,2,2,0
463,2,2,0
464,2,2,0
465,2,2,0
466,2,2,0
467,2,2,0
468,2,2,0
469,2,2,0
470,2,2,0
471,2,2,0
472,2,2,0
473,2,2,0
474,2,2,0
475,2,2,0
476,2,2,0
477,2,2,0
478,2,2,0
479,2,2,0
480,2,2,0
481,2,2,0
482,2,2,0
483,2,2,0
484,2,2,0
485,2,2,0
486,2,2,0
487,2,2,0
488,2,2,0
489,2,2,0
490,2,2,0
491,2,2,0
492,2,2,0
493,2,2,0
494,2,2,0
495,2,2,0
496,2,2,0
497,2,2,0
498,2,2,0
499,2,2,0
500,2,2,0
501,2,2,0
502,2,2,0
503,2,2,0
504,2,2,0
505,2,2,0
506,2,2,0
507,2,2,0
508,2,2,0
509,2,2,0
510,2,2,0
511,2,2,0
512,2,2,0
*Output,field,frequency=1
*Node Output,nset=UPPERNODES
U,RF
*Contact Output
CDISP,CFORCE
*End Step
*Step,name=CELL25,nlgeom=YES,inc=10
*Coupled Temperature-Displacement,steady state
1,1,1,1
*Boundary,op=NEW
FIELD,1,1,0
FIELD,11,11,300
UPPERNODES,2,2,-.0002
CONTROLS,3,5,0
1,2,2,0
2,2,2,0
3,2,2,0
4,2,2,0
5,2,2,0
6,2,2,0
7,2,2,0
8,2,2,0
9,2,2,0
10,2,2,0
11,2,2,0
12,2,2,0
13,2,2,0
14,2,2,0
15,2,2,0
16,2,2,0
17,2,2,0
18,2,2,0
19,2,2,0
20,2,2,0
21,2,2,0
22,2,2,0
23,2,2,0
24,2,2,0
25,2,2,0
26,2,2,0
27,2,2,0
28,2,2,0
29,2,2,0
30,2,2,0
31,2,2,0
32,2,2,0
33,2,2,0
34,2,2,0
35,2,2,0
36,2,2,0
37,2,2,0
38,2,2,0
39,2,2,0
40,2,2,0
41,2,2,0
42,2,2,0
43,2,2,0
44,2,2,0
45,2,2,0
46,2,2,0
47,2,2,0
48,2,2,0
49,2,2,0
50,2,2,0
51,2,2,0
52,2,2,0
53,2,2,0
54,2,2,0
55,2,2,0
56,2,2,0
57,2,2,0
58,2,2,0
59,2,2,0
60,2,2,0
61,2,2,0
62,2,2,0
63,2,2,0
64,2,2,0
65,2,2,0
66,2,2,0
67,2,2,0
68,2,2,0
69,2,2,0
70,2,2,0
71,2,2,0
72,2,2,0
73,2,2,0
74,2,2,0
75,2,2,0
76,2,2,0
77,2,2,0
78,2,2,0
79,2,2,0
80,2,2,0
81,2,2,0
82,2,2,0
83,2,2,0
84,2,2,0
85,2,2,0
86,2,2,0
87,2,2,0
88,2,2,0
89,2,2,0
90,2,2,0
91,2,2,0
92,2,2,0
93,2,2,0
94,2,2,0
95,2,2,0
96,2,2,0
97,2,2,0
98,2,2,0
99,2,2,0
100,2,2,0
101,2,2,0
102,2,2,0
103,2,2,0
104,2,2,0
105,2,2,0
106,2,2,0
107,2,2,0
108,2,2,0
109,2,2,0
110,2,2,0
111,2,2,0
112,2,2,0
113,2,2,0
114,2,2,0
115,2,2,0
116,2,2,0
117,2,2,0
118,2,2,0
119,2,2,0
120,2,2,0
121,2,2,0
122,2,2,0
123,2,2,0
124,2,2,0
125,2,2,0
126,2,2,0
127,2,2,0
128,2,2,0
129,2,2,0
130,2,2,0
131,2,2,0
132,2,2,0
133,2,2,0
134,2,2,0
135,2,2,0
136,2,2,0
137,2,2,0
138,2,2,0
139,2,2,0
140,2,2,0
141,2,2,0
142,2,2,0
143,2,2,0
144,2,2,0
145,2,2,0
146,2,2,0
147,2,2,0
148,2,2,0
149,2,2,0
150,2,2,0
151,2,2,0
152,2,2,0
153,2,2,0
154,2,2,0
155,2,2,0
156,2,2,0
157,2,2,0
158,2,2,0
159,2,2,0
160,2,2,0
161,2,2,0
162,2,2,0
163,2,2,0
164,2,2,0
165,2,2,0
166,2,2,0
167,2,2,0
168,2,2,0
169,2,2,0
170,2,2,0
171,2,2,0
172,2,2,0
173,2,2,0
174,2,2,0
175,2,2,0
176,2,2,0
177,2,2,0
178,2,2,0
179,2,2,0
180,2,2,0
181,2,2,0
182,2,2,0
183,2,2,0
184,2,2,0
185,2,2,0
186,2,2,0
187,2,2,0
188,2,2,0
189,2,2,0
190,2,2,0
191,2,2,0
192,2,2,0
193,2,2,1e-07
194,2,2,1e-07
195,2,2,1e-07
196,2,2,1e-07
197,2,2,1e-07
198,2,2,1e-07
199,2,2,1e-07
200,2,2,1e-07
201,2,2,0
202,2,2,0
203,2,2,0
204,2,2,0
205,2,2,0
206,2,2,0
207,2,2,0
208,2,2,0
209,2,2,0
210,2,2,0
211,2,2,0
212,2,2,0
213,2,2,0
214,2,2,0
215,2,2,0
216,2,2,0
217,2,2,0
218,2,2,0
219,2,2,0
220,2,2,0
221,2,2,0
222,2,2,0
223,2,2,0
224,2,2,0
225,2,2,0
226,2,2,0
227,2,2,0
228,2,2,0
229,2,2,0
230,2,2,0
231,2,2,0
232,2,2,0
233,2,2,0
234,2,2,0
235,2,2,0
236,2,2,0
237,2,2,0
238,2,2,0
239,2,2,0
240,2,2,0
241,2,2,0
242,2,2,0
243,2,2,0
244,2,2,0
245,2,2,0
246,2,2,0
247,2,2,0
248,2,2,0
249,2,2,0
250,2,2,0
251,2,2,0
252,2,2,0
253,2,2,0
254,2,2,0
255,2,2,0
256,2,2,0
257,2,2,0
258,2,2,0
259,2,2,0
260,2,2,0
261,2,2,0
262,2,2,0
263,2,2,0
264,2,2,0
265,2,2,0
266,2,2,0
267,2,2,0
268,2,2,0
269,2,2,0
270,2,2,0
271,2,2,0
272,2,2,0
273,2,2,0
274,2,2,0
275,2,2,0
276,2,2,0
277,2,2,0
278,2,2,0
279,2,2,0
280,2,2,0
281,2,2,0
282,2,2,0
283,2,2,0
284,2,2,0
285,2,2,0
286,2,2,0
287,2,2,0
288,2,2,0
289,2,2,0
290,2,2,0
291,2,2,0
292,2,2,0
293,2,2,0
294,2,2,0
295,2,2,0
296,2,2,0
297,2,2,0
298,2,2,0
299,2,2,0
300,2,2,0
301,2,2,0
302,2,2,0
303,2,2,0
304,2,2,0
305,2,2,0
306,2,2,0
307,2,2,0
308,2,2,0
309,2,2,0
310,2,2,0
311,2,2,0
312,2,2,0
313,2,2,0
314,2,2,0
315,2,2,0
316,2,2,0
317,2,2,0
318,2,2,0
319,2,2,0
320,2,2,0
321,2,2,0
322,2,2,0
323,2,2,0
324,2,2,0
325,2,2,0
326,2,2,0
327,2,2,0
328,2,2,0
329,2,2,0
330,2,2,0
331,2,2,0
332,2,2,0
333,2,2,0
334,2,2,0
335,2,2,0
336,2,2,0
337,2,2,0
338,2,2,0
339,2,2,0
340,2,2,0
341,2,2,0
342,2,2,0
343,2,2,0
344,2,2,0
345,2,2,0
346,2,2,0
347,2,2,0
348,2,2,0
349,2,2,0
350,2,2,0
351,2,2,0
352,2,2,0
353,2,2,0
354,2,2,0
355,2,2,0
356,2,2,0
357,2,2,0
358,2,2,0
359,2,2,0
360,2,2,0
361,2,2,0
362,2,2,0
363,2,2,0
364,2,2,0
365,2,2,0
366,2,2,0
367,2,2,0
368,2,2,0
369,2,2,0
370,2,2,0
371,2,2,0
372,2,2,0
373,2,2,0
374,2,2,0
375,2,2,0
376,2,2,0
377,2,2,0
378,2,2,0
379,2,2,0
380,2,2,0
381,2,2,0
382,2,2,0
383,2,2,0
384,2,2,0
385,2,2,0
386,2,2,0
387,2,2,0
388,2,2,0
389,2,2,0
390,2,2,0
391,2,2,0
392,2,2,0
393,2,2,0
394,2,2,0
395,2,2,0
396,2,2,0
397,2,2,0
398,2,2,0
399,2,2,0
400,2,2,0
401,2,2,0
402,2,2,0
403,2,2,0
404,2,2,0
405,2,2,0
406,2,2,0
407,2,2,0
408,2,2,0
409,2,2,0
410,2,2,0
411,2,2,0
412,2,2,0
413,2,2,0
414,2,2,0
415,2,2,0
416,2,2,0
417,2,2,0
418,2,2,0
419,2,2,0
420,2,2,0
421,2,2,0
422,2,2,0
423,2,2,0
424,2,2,0
425,2,2,0
426,2,2,0
427,2,2,0
428,2,2,0
429,2,2,0
430,2,2,0
431,2,2,0
432,2,2,0
433,2,2,0
434,2,2,0
435,2,2,0
436,2,2,0
437,2,2,0
438,2,2,0
439,2,2,0
440,2,2,0
441,2,2,0
442,2,2,0
443,2,2,0
444,2,2,0
445,2,2,0
446,2,2,0
447,2,2,0
448,2,2,0
449,2,2,0
450,2,2,0
451,2,2,0
452,2,2,0
453,2,2,0
454,2,2,0
455,2,2,0
456,2,2,0
457,2,2,0
458,2,2,0
459,2,2,0
460,2,2,0
461,2,2,0
462,2,2,0
463,2,2,0
464,2,2,0
465,2,2,0
466,2,2,0
467,2,2,0
468,2,2,0
469,2,2,0
470,2,2,0
471,2,2,0
472,2,2,0
473,2,2,0
474,2,2,0
475,2,2,0
476,2,2,0
477,2,2,0
478,2,2,0
479,2,2,0
480,2,2,0
481,2,2,0
482,2,2,0
483,2,2,0
484,2,2,0
485,2,2,0
486,2,2,0
487,2,2,0
488,2,2,0
489,2,2,0
490,2,2,0
491,2,2,0
492,2,2,0
493,2,2,0
494,2,2,0
495,2,2,0
496,2,2,0
497,2,2,0
498,2,2,0
499,2,2,0
500,2,2,0
501,2,2,0
502,2,2,0
503,2,2,0
504,2,2,0
505,2,2,0
506,2,2,0
507,2,2,0
508,2,2,0
509,2,2,0
510,2,2,0
511,2,2,0
512,2,2,0
*Output,field,frequency=1
*Node Output,nset=UPPERNODES
U,RF
*Contact Output
CDISP,CFORCE
*End Step
*Step,name=CELL26,nlgeom=YES,inc=10
*Coupled Temperature-Displacement,steady state
1,1,1,1
*Boundary,op=NEW
FIELD,1,1,0
FIELD,11,11,300
UPPERNODES,2,2,-.0002
CONTROLS,3,5,0
1,2,2,0
2,2,2,0
3,2,2,0
4,2,2,0
5,2,2,0
6,2,2,0
7,2,2,0
8,2,2,0
9,2,2,0
10,2,2,0
11,2,2,0
12,2,2,0
13,2,2,0
14,2,2,0
15,2,2,0
16,2,2,0
17,2,2,0
18,2,2,0
19,2,2,0
20,2,2,0
21,2,2,0
22,2,2,0
23,2,2,0
24,2,2,0
25,2,2,0
26,2,2,0
27,2,2,0
28,2,2,0
29,2,2,0
30,2,2,0
31,2,2,0
32,2,2,0
33,2,2,0
34,2,2,0
35,2,2,0
36,2,2,0
37,2,2,0
38,2,2,0
39,2,2,0
40,2,2,0
41,2,2,0
42,2,2,0
43,2,2,0
44,2,2,0
45,2,2,0
46,2,2,0
47,2,2,0
48,2,2,0
49,2,2,0
50,2,2,0
51,2,2,0
52,2,2,0
53,2,2,0
54,2,2,0
55,2,2,0
56,2,2,0
57,2,2,0
58,2,2,0
59,2,2,0
60,2,2,0
61,2,2,0
62,2,2,0
63,2,2,0
64,2,2,0
65,2,2,0
66,2,2,0
67,2,2,0
68,2,2,0
69,2,2,0
70,2,2,0
71,2,2,0
72,2,2,0
73,2,2,0
74,2,2,0
75,2,2,0
76,2,2,0
77,2,2,0
78,2,2,0
79,2,2,0
80,2,2,0
81,2,2,0
82,2,2,0
83,2,2,0
84,2,2,0
85,2,2,0
86,2,2,0
87,2,2,0
88,2,2,0
89,2,2,0
90,2,2,0
91,2,2,0
92,2,2,0
93,2,2,0
94,2,2,0
95,2,2,0
96,2,2,0
97,2,2,0
98,2,2,0
99,2,2,0
100,2,2,0
101,2,2,0
102,2,2,0
103,2,2,0
104,2,2,0
105,2,2,0
106,2,2,0
107,2,2,0
108,2,2,0
109,2,2,0
110,2,2,0
111,2,2,0
112,2,2,0
113,2,2,0
114,2,2,0
115,2,2,0
116,2,2,0
117,2,2,0
118,2,2,0
119,2,2,0
120,2,2,0
121,2,2,0
122,2,2,0
123,2,2,0
124,2,2,0
125,2,2,0
126,2,2,0
127,2,2,0
128,2,2,0
129,2,2,0
130,2,2,0
131,2,2,0
132,2,2,0
133,2,2,0
134,2,2,0
135,2,2,0
136,2,2,0
137,2,2,0
138,2,2,0
139,2,2,0
140,2,2,0
141,2,2,0
142,2,2,0
143,2,2,0
144,2,2,0
145,2,2,0
146,2,2,0
147,2,2,0
148,2,2,0
149,2,2,0
150,2,2,0
151,2,2,0
152,2,2,0
153,2,2,0
154,2,2,0
155,2,2,0
156,2,2,0
157,2,2,0
158,2,2,0
159,2,2,0
160,2,2,0
161,2,2,0
162,2,2,0
163,2,2,0
164,2,2,0
165,2,2,0
166,2,2,0
167,2,2,0
168,2,2,0
169,2,2,0
170,2,2,0
171,2,2,0
172,2,2,0
173,2,2,0
174,2,2,0
175,2,2,0
176,2,2,0
177,2,2,0
178,2,2,0
179,2,2,0
180,2,2,0
181,2,2,0
182,2,2,0
183,2,2,0
184,2,2,0
185,2,2,0
186,2,2,0
187,2,2,0
188,2,2,0
189,2,2,0
190,2,2,0
191,2,2,0
192,2,2,0
193,2,2,0
194,2,2,0
195,2,2,0
196,2,2,0
197,2,2,0
198,2,2,0
199,2,2,0
200,2,2,0
201,2,2,1e-07
202,2,2,1e-07
203,2,2,1e-07
204,2,2,1e-07
205,2,2,1e-07
206,2,2,1e-07
207,2,2,1e-07
208,2,2,1e-07
209,2,2,0
210,2,2,0
211,2,2,0
212,2,2,0
213,2,2,0
214,2,2,0
215,2,2,0
216,2,2,0
217,2,2,0
218,2,2,0
219,2,2,0
220,2,2,0
221,2,2,0
222,2,2,0
223,2,2,0
224,2,2,0
225,2,2,0
226,2,2,0
227,2,2,0
228,2,2,0
229,2,2,0
230,2,2,0
231,2,2,0
232,2,2,0
233,2,2,0
234,2,2,0
235,2,2,0
236,2,2,0
237,2,2,0
238,2,2,0
239,2,2,0
240,2,2,0
241,2,2,0
242,2,2,0
243,2,2,0
244,2,2,0
245,2,2,0
246,2,2,0
247,2,2,0
248,2,2,0
249,2,2,0
250,2,2,0
251,2,2,0
252,2,2,0
253,2,2,0
254,2,2,0
255,2,2,0
256,2,2,0
257,2,2,0
258,2,2,0
259,2,2,0
260,2,2,0
261,2,2,0
262,2,2,0
263,2,2,0
264,2,2,0
265,2,2,0
266,2,2,0
267,2,2,0
268,2,2,0
269,2,2,0
270,2,2,0
271,2,2,0
272,2,2,0
273,2,2,0
274,2,2,0
275,2,2,0
276,2,2,0
277,2,2,0
278,2,2,0
279,2,2,0
280,2,2,0
281,2,2,0
282,2,2,0
283,2,2,0
284,2,2,0
285,2,2,0
286,2,2,0
287,2,2,0
288,2,2,0
289,2,2,0
290,2,2,0
291,2,2,0
292,2,2,0
293,2,2,0
294,2,2,0
295,2,2,0
296,2,2,0
297,2,2,0
298,2,2,0
299,2,2,0
300,2,2,0
301,2,2,0
302,2,2,0
303,2,2,0
304,2,2,0
305,2,2,0
306,2,2,0
307,2,2,0
308,2,2,0
309,2,2,0
310,2,2,0
311,2,2,0
312,2,2,0
313,2,2,0
314,2,2,0
315,2,2,0
316,2,2,0
317,2,2,0
318,2,2,0
319,2,2,0
320,2,2,0
321,2,2,0
322,2,2,0
323,2,2,0
324,2,2,0
325,2,2,0
326,2,2,0
327,2,2,0
328,2,2,0
329,2,2,0
330,2,2,0
331,2,2,0
332,2,2,0
333,2,2,0
334,2,2,0
335,2,2,0
336,2,2,0
337,2,2,0
338,2,2,0
339,2,2,0
340,2,2,0
341,2,2,0
342,2,2,0
343,2,2,0
344,2,2,0
345,2,2,0
346,2,2,0
347,2,2,0
348,2,2,0
349,2,2,0
350,2,2,0
351,2,2,0
352,2,2,0
353,2,2,0
354,2,2,0
355,2,2,0
356,2,2,0
357,2,2,0
358,2,2,0
359,2,2,0
360,2,2,0
361,2,2,0
362,2,2,0
363,2,2,0
364,2,2,0
365,2,2,0
366,2,2,0
367,2,2,0
368,2,2,0
369,2,2,0
370,2,2,0
371,2,2,0
372,2,2,0
373,2,2,0
374,2,2,0
375,2,2,0
376,2,2,0
377,2,2,0
378,2,2,0
379,2,2,0
380,2,2,0
381,2,2,0
382,2,2,0
383,2,2,0
384,2,2,0
385,2,2,0
386,2,2,0
387,2,2,0
388,2,2,0
389,2,2,0
390,2,2,0
391,2,2,0
392,2,2,0
393,2,2,0
394,2,2,0
395,2,2,0
396,2,2,0
397,2,2,0
398,2,2,0
399,2,2,0
400,2,2,0
401,2,2,0
402,2,2,0
403,2,2,0
404,2,2,0
405,2,2,0
406,2,2,0
407,2,2,0
408,2,2,0
409,2,2,0
410,2,2,0
411,2,2,0
412,2,2,0
413,2,2,0
414,2,2,0
415,2,2,0
416,2,2,0
417,2,2,0
418,2,2,0
419,2,2,0
420,2,2,0
421,2,2,0
422,2,2,0
423,2,2,0
424,2,2,0
425,2,2,0
426,2,2,0
427,2,2,0
428,2,2,0
429,2,2,0
430,2,2,0
431,2,2,0
432,2,2,0
433,2,2,0
434,2,2,0
435,2,2,0
436,2,2,0
437,2,2,0
438,2,2,0
439,2,2,0
440,2,2,0
441,2,2,0
442,2,2,0
443,2,2,0
444,2,2,0
445,2,2,0
446,2,2,0
447,2,2,0
448,2,2,0
449,2,2,0
450,2,2,0
451,2,2,0
452,2,2,0
453,2,2,0
454,2,2,0
455,2,2,0
456,2,2,0
457,2,2,0
458,2,2,0
459,2,2,0
460,2,2,0
461,2,2,0
462,2,2,0
463,2,2,0
464,2,2,0
465,2,2,0
466,2,2,0
467,2,2,0
468,2,2,0
469,2,2,0
470,2,2,0
471,2,2,0
472,2,2,0
473,2,2,0
474,2,2,0
475,2,2,0
476,2,2,0
477,2,2,0
478,2,2,0
479,2,2,0
480,2,2,0
481,2,2,0
482,2,2,0
483,2,2,0
484,2,2,0
485,2,2,0
486,2,2,0
487,2,2,0
488,2,2,0
489,2,2,0
490,2,2,0
491,2,2,0
492,2,2,0
493,2,2,0
494,2,2,0
495,2,2,0
496,2,2,0
497,2,2,0
498,2,2,0
499,2,2,0
500,2,2,0
501,2,2,0
502,2,2,0
503,2,2,0
504,2,2,0
505,2,2,0
506,2,2,0
507,2,2,0
508,2,2,0
509,2,2,0
510,2,2,0
511,2,2,0
512,2,2,0
*Output,field,frequency=1
*Node Output,nset=UPPERNODES
U,RF
*Contact Output
CDISP,CFORCE
*End Step
*Step,name=CELL27,nlgeom=YES,inc=10
*Coupled Temperature-Displacement,steady state
1,1,1,1
*Boundary,op=NEW
FIELD,1,1,0
FIELD,11,11,300
UPPERNODES,2,2,-.0002
CONTROLS,3,5,0
1,2,2,0
2,2,2,0
3,2,2,0
4,2,2,0
5,2,2,0
6,2,2,0
7,2,2,0
8,2,2,0
9,2,2,0
10,2,2,0
11,2,2,0
12,2,2,0
13,2,2,0
14,2,2,0
15,2,2,0
16,2,2,0
17,2,2,0
18,2,2,0
19,2,2,0
20,2,2,0
21,2,2,0
22,2,2,0
23,2,2,0
24,2,2,0
25,2,2,0
26,2,2,0
27,2,2,0
28,2,2,0
29,2,2,0
30,2,2,0
31,2,2,0
32,2,2,0
33,2,2,0
34,2,2,0
35,2,2,0
36,2,2,0
37,2,2,0
38,2,2,0
39,2,2,0
40,2,2,0
41,2,2,0
42,2,2,0
43,2,2,0
44,2,2,0
45,2,2,0
46,2,2,0
47,2,2,0
48,2,2,0
49,2,2,0
50,2,2,0
51,2,2,0
52,2,2,0
53,2,2,0
54,2,2,0
55,2,2,0
56,2,2,0
57,2,2,0
58,2,2,0
59,2,2,0
60,2,2,0
61,2,2,0
62,2,2,0
63,2,2,0
64,2,2,0
65,2,2,0
66,2,2,0
67,2,2,0
68,2,2,0
69,2,2,0
70,2,2,0
71,2,2,0
72,2,2,0
73,2,2,0
74,2,2,0
75,2,2,0
76,2,2,0
77,2,2,0
78,2,2,0
79,2,2,0
80,2,2,0
81,2,2,0
82,2,2,0
83,2,2,0
84,2,2,0
85,2,2,0
86,2,2,0
87,2,2,0
88,2,2,0
89,2,2,0
90,2,2,0
91,2,2,0
92,2,2,0
93,2,2,0
94,2,2,0
95,2,2,0
96,2,2,0
97,2,2,0
98,2,2,0
99,2,2,0
100,2,2,0
101,2,2,0
102,2,2,0
103,2,2,0
104,2,2,0
105,2,2,0
106,2,2,0
107,2,2,0
108,2,2,0
109,2,2,0
110,2,2,0
111,2,2,0
112,2,2,0
113,2,2,0
114,2,2,0
115,2,2,0
116,2,2,0
117,2,2,0
118,2,2,0
119,2,2,0
120,2,2,0
121,2,2,0
122,2,2,0
123,2,2,0
124,2,2,0
125,2,2,0
126,2,2,0
127,2,2,0
128,2,2,0
129,2,2,0
130,2,2,0
131,2,2,0
132,2,2,0
133,2,2,0
134,2,2,0
135,2,2,0
136,2,2,0
137,2,2,0
138,2,2,0
139,2,2,0
140,2,2,0
141,2,2,0
142,2,2,0
143,2,2,0
144,2,2,0
145,2,2,0
146,2,2,0
147,2,2,0
148,2,2,0
149,2,2,0
150,2,2,0
151,2,2,0
152,2,2,0
153,2,2,0
154,2,2,0
155,2,2,0
156,2,2,0
157,2,2,0
158,2,2,0
159,2,2,0
160,2,2,0
161,2,2,0
162,2,2,0
163,2,2,0
164,2,2,0
165,2,2,0
166,2,2,0
167,2,2,0
168,2,2,0
169,2,2,0
170,2,2,0
171,2,2,0
172,2,2,0
173,2,2,0
174,2,2,0
175,2,2,0
176,2,2,0
177,2,2,0
178,2,2,0
179,2,2,0
180,2,2,0
181,2,2,0
182,2,2,0
183,2,2,0
184,2,2,0
185,2,2,0
186,2,2,0
187,2,2,0
188,2,2,0
189,2,2,0
190,2,2,0
191,2,2,0
192,2,2,0
193,2,2,0
194,2,2,0
195,2,2,0
196,2,2,0
197,2,2,0
198,2,2,0
199,2,2,0
200,2,2,0
201,2,2,0
202,2,2,0
203,2,2,0
204,2,2,0
205,2,2,0
206,2,2,0
207,2,2,0
208,2,2,0
209,2,2,1e-07
210,2,2,1e-07
211,2,2,1e-07
212,2,2,1e-07
213,2,2,1e-07
214,2,2,1e-07
215,2,2,1e-07
216,2,2,1e-07
217,2,2,0
218,2,2,0
219,2,2,0
220,2,2,0
221,2,2,0
222,2,2,0
223,2,2,0
224,2,2,0
225,2,2,0
226,2,2,0
227,2,2,0
228,2,2,0
229,2,2,0
230,2,2,0
231,2,2,0
232,2,2,0
233,2,2,0
234,2,2,0
235,2,2,0
236,2,2,0
237,2,2,0
238,2,2,0
239,2,2,0
240,2,2,0
241,2,2,0
242,2,2,0
243,2,2,0
244,2,2,0
245,2,2,0
246,2,2,0
247,2,2,0
248,2,2,0
249,2,2,0
250,2,2,0
251,2,2,0
252,2,2,0
253,2,2,0
254,2,2,0
255,2,2,0
256,2,2,0
257,2,2,0
258,2,2,0
259,2,2,0
260,2,2,0
261,2,2,0
262,2,2,0
263,2,2,0
264,2,2,0
265,2,2,0
266,2,2,0
267,2,2,0
268,2,2,0
269,2,2,0
270,2,2,0
271,2,2,0
272,2,2,0
273,2,2,0
274,2,2,0
275,2,2,0
276,2,2,0
277,2,2,0
278,2,2,0
279,2,2,0
280,2,2,0
281,2,2,0
282,2,2,0
283,2,2,0
284,2,2,0
285,2,2,0
286,2,2,0
287,2,2,0
288,2,2,0
289,2,2,0
290,2,2,0
291,2,2,0
292,2,2,0
293,2,2,0
294,2,2,0
295,2,2,0
296,2,2,0
297,2,2,0
298,2,2,0
299,2,2,0
300,2,2,0
301,2,2,0
302,2,2,0
303,2,2,0
304,2,2,0
305,2,2,0
306,2,2,0
307,2,2,0
308,2,2,0
309,2,2,0
310,2,2,0
311,2,2,0
312,2,2,0
313,2,2,0
314,2,2,0
315,2,2,0
316,2,2,0
317,2,2,0
318,2,2,0
319,2,2,0
320,2,2,0
321,2,2,0
322,2,2,0
323,2,2,0
324,2,2,0
325,2,2,0
326,2,2,0
327,2,2,0
328,2,2,0
329,2,2,0
330,2,2,0
331,2,2,0
332,2,2,0
333,2,2,0
334,2,2,0
335,2,2,0
336,2,2,0
337,2,2,0
338,2,2,0
339,2,2,0
340,2,2,0
341,2,2,0
342,2,2,0
343,2,2,0
344,2,2,0
345,2,2,0
346,2,2,0
347,2,2,0
348,2,2,0
349,2,2,0
350,2,2,0
351,2,2,0
352,2,2,0
353,2,2,0
354,2,2,0
355,2,2,0
356,2,2,0
357,2,2,0
358,2,2,0
359,2,2,0
360,2,2,0
361,2,2,0
362,2,2,0
363,2,2,0
364,2,2,0
365,2,2,0
366,2,2,0
367,2,2,0
368,2,2,0
369,2,2,0
370,2,2,0
371,2,2,0
372,2,2,0
373,2,2,0
374,2,2,0
375,2,2,0
376,2,2,0
377,2,2,0
378,2,2,0
379,2,2,0
380,2,2,0
381,2,2,0
382,2,2,0
383,2,2,0
384,2,2,0
385,2,2,0
386,2,2,0
387,2,2,0
388,2,2,0
389,2,2,0
390,2,2,0
391,2,2,0
392,2,2,0
393,2,2,0
394,2,2,0
395,2,2,0
396,2,2,0
397,2,2,0
398,2,2,0
399,2,2,0
400,2,2,0
401,2,2,0
402,2,2,0
403,2,2,0
404,2,2,0
405,2,2,0
406,2,2,0
407,2,2,0
408,2,2,0
409,2,2,0
410,2,2,0
411,2,2,0
412,2,2,0
413,2,2,0
414,2,2,0
415,2,2,0
416,2,2,0
417,2,2,0
418,2,2,0
419,2,2,0
420,2,2,0
421,2,2,0
422,2,2,0
423,2,2,0
424,2,2,0
425,2,2,0
426,2,2,0
427,2,2,0
428,2,2,0
429,2,2,0
430,2,2,0
431,2,2,0
432,2,2,0
433,2,2,0
434,2,2,0
435,2,2,0
436,2,2,0
437,2,2,0
438,2,2,0
439,2,2,0
440,2,2,0
441,2,2,0
442,2,2,0
443,2,2,0
444,2,2,0
445,2,2,0
446,2,2,0
447,2,2,0
448,2,2,0
449,2,2,0
450,2,2,0
451,2,2,0
452,2,2,0
453,2,2,0
454,2,2,0
455,2,2,0
456,2,2,0
457,2,2,0
458,2,2,0
459,2,2,0
460,2,2,0
461,2,2,0
462,2,2,0
463,2,2,0
464,2,2,0
465,2,2,0
466,2,2,0
467,2,2,0
468,2,2,0
469,2,2,0
470,2,2,0
471,2,2,0
472,2,2,0
473,2,2,0
474,2,2,0
475,2,2,0
476,2,2,0
477,2,2,0
478,2,2,0
479,2,2,0
480,2,2,0
481,2,2,0
482,2,2,0
483,2,2,0
484,2,2,0
485,2,2,0
486,2,2,0
487,2,2,0
488,2,2,0
489,2,2,0
490,2,2,0
491,2,2,0
492,2,2,0
493,2,2,0
494,2,2,0
495,2,2,0
496,2,2,0
497,2,2,0
498,2,2,0
499,2,2,0
500,2,2,0
501,2,2,0
502,2,2,0
503,2,2,0
504,2,2,0
505,2,2,0
506,2,2,0
507,2,2,0
508,2,2,0
509,2,2,0
510,2,2,0
511,2,2,0
512,2,2,0
*Output,field,frequency=1
*Node Output,nset=UPPERNODES
U,RF
*Contact Output
CDISP,CFORCE
*End Step
*Step,name=CELL28,nlgeom=YES,inc=10
*Coupled Temperature-Displacement,steady state
1,1,1,1
*Boundary,op=NEW
FIELD,1,1,0
FIELD,11,11,300
UPPERNODES,2,2,-.0002
CONTROLS,3,5,0
1,2,2,0
2,2,2,0
3,2,2,0
4,2,2,0
5,2,2,0
6,2,2,0
7,2,2,0
8,2,2,0
9,2,2,0
10,2,2,0
11,2,2,0
12,2,2,0
13,2,2,0
14,2,2,0
15,2,2,0
16,2,2,0
17,2,2,0
18,2,2,0
19,2,2,0
20,2,2,0
21,2,2,0
22,2,2,0
23,2,2,0
24,2,2,0
25,2,2,0
26,2,2,0
27,2,2,0
28,2,2,0
29,2,2,0
30,2,2,0
31,2,2,0
32,2,2,0
33,2,2,0
34,2,2,0
35,2,2,0
36,2,2,0
37,2,2,0
38,2,2,0
39,2,2,0
40,2,2,0
41,2,2,0
42,2,2,0
43,2,2,0
44,2,2,0
45,2,2,0
46,2,2,0
47,2,2,0
48,2,2,0
49,2,2,0
50,2,2,0
51,2,2,0
52,2,2,0
53,2,2,0
54,2,2,0
55,2,2,0
56,2,2,0
57,2,2,0
58,2,2,0
59,2,2,0
60,2,2,0
61,2,2,0
62,2,2,0
63,2,2,0
64,2,2,0
65,2,2,0
66,2,2,0
67,2,2,0
68,2,2,0
69,2,2,0
70,2,2,0
71,2,2,0
72,2,2,0
73,2,2,0
74,2,2,0
75,2,2,0
76,2,2,0
77,2,2,0
78,2,2,0
79,2,2,0
80,2,2,0
81,2,2,0
82,2,2,0
83,2,2,0
84,2,2,0
85,2,2,0
86,2,2,0
87,2,2,0
88,2,2,0
89,2,2,0
90,2,2,0
91,2,2,0
92,2,2,0
93,2,2,0
94,2,2,0
95,2,2,0
96,2,2,0
97,2,2,0
98,2,2,0
99,2,2,0
100,2,2,0
101,2,2,0
102,2,2,0
103,2,2,0
104,2,2,0
105,2,2,0
106,2,2,0
107,2,2,0
108,2,2,0
109,2,2,0
110,2,2,0
111,2,2,0
112,2,2,0
113,2,2,0
114,2,2,0
115,2,2,0
116,2,2,0
117,2,2,0
118,2,2,0
119,2,2,0
120,2,2,0
121,2,2,0
122,2,2,0
123,2,2,0
124,2,2,0
125,2,2,0
126,2,2,0
127,2,2,0
128,2,2,0
129,2,2,0
130,2,2,0
131,2,2,0
132,2,2,0
133,2,2,0
134,2,2,0
135,2,2,0
136,2,2,0
137,2,2,0
138,2,2,0
139,2,2,0
140,2,2,0
141,2,2,0
142,2,2,0
143,2,2,0
144,2,2,0
145,2,2,0
146,2,2,0
147,2,2,0
148,2,2,0
149,2,2,0
150,2,2,0
151,2,2,0
152,2,2,0
153,2,2,0
154,2,2,0
155,2,2,0
156,2,2,0
157,2,2,0
158,2,2,0
159,2,2,0
160,2,2,0
161,2,2,0
162,2,2,0
163,2,2,0
164,2,2,0
165,2,2,0
166,2,2,0
167,2,2,0
168,2,2,0
169,2,2,0
170,2,2,0
171,2,2,0
172,2,2,0
173,2,2,0
174,2,2,0
175,2,2,0
176,2,2,0
177,2,2,0
178,2,2,0
179,2,2,0
180,2,2,0
181,2,2,0
182,2,2,0
183,2,2,0
184,2,2,0
185,2,2,0
186,2,2,0
187,2,2,0
188,2,2,0
189,2,2,0
190,2,2,0
191,2,2,0
192,2,2,0
193,2,2,0
194,2,2,0
195,2,2,0
196,2,2,0
197,2,2,0
198,2,2,0
199,2,2,0
200,2,2,0
201,2,2,0
202,2,2,0
203,2,2,0
204,2,2,0
205,2,2,0
206,2,2,0
207,2,2,0
208,2,2,0
209,2,2,0
210,2,2,0
211,2,2,0
212,2,2,0
213,2,2,0
214,2,2,0
215,2,2,0
216,2,2,0
217,2,2,1e-07
218,2,2,1e-07
219,2,2,1e-07
220,2,2,1e-07
221,2,2,1e-07
222,2,2,1e-07
223,2,2,1e-07
224,2,2,1e-07
225,2,2,0
226,2,2,0
227,2,2,0
228,2,2,0
229,2,2,0
230,2,2,0
231,2,2,0
232,2,2,0
233,2,2,0
234,2,2,0
235,2,2,0
236,2,2,0
237,2,2,0
238,2,2,0
239,2,2,0
240,2,2,0
241,2,2,0
242,2,2,0
243,2,2,0
244,2,2,0
245,2,2,0
246,2,2,0
247,2,2,0
248,2,2,0
249,2,2,0
250,2,2,0
251,2,2,0
252,2,2,0
253,2,2,0
254,2,2,0
255,2,2,0
256,2,2,0
257,2,2,0
258,2,2,0
259,2,2,0
260,2,2,0
261,2,2,0
262,2,2,0
263,2,2,0
264,2,2,0
265,2,2,0
266,2,2,0
267,2,2,0
268,2,2,0
269,2,2,0
270,2,2,0
271,2,2,0
272,2,2,0
273,2,2,0
274,2,2,0
275,2,2,0
276,2,2,0
277,2,2,0
278,2,2,0
279,2,2,0
280,2,2,0
281,2,2,0
282,2,2,0
283,2,2,0
284,2,2,0
285,2,2,0
286,2,2,0
287,2,2,0
288,2,2,0
289,2,2,0
290,2,2,0
291,2,2,0
292,2,2,0
293,2,2,0
294,2,2,0
295,2,2,0
296,2,2,0
297,2,2,0
298,2,2,0
299,2,2,0
300,2,2,0
301,2,2,0
302,2,2,0
303,2,2,0
304,2,2,0
305,2,2,0
306,2,2,0
307,2,2,0
308,2,2,0
309,2,2,0
310,2,2,0
311,2,2,0
312,2,2,0
313,2,2,0
314,2,2,0
315,2,2,0
316,2,2,0
317,2,2,0
318,2,2,0
319,2,2,0
320,2,2,0
321,2,2,0
322,2,2,0
323,2,2,0
324,2,2,0
325,2,2,0
326,2,2,0
327,2,2,0
328,2,2,0
329,2,2,0
330,2,2,0
331,2,2,0
332,2,2,0
333,2,2,0
334,2,2,0
335,2,2,0
336,2,2,0
337,2,2,0
338,2,2,0
339,2,2,0
340,2,2,0
341,2,2,0
342,2,2,0
343,2,2,0
344,2,2,0
345,2,2,0
346,2,2,0
347,2,2,0
348,2,2,0
349,2,2,0
350,2,2,0
351,2,2,0
352,2,2,0
353,2,2,0
354,2,2,0
355,2,2,0
356,2,2,0
357,2,2,0
358,2,2,0
359,2,2,0
360,2,2,0
361,2,2,0
362,2,2,0
363,2,2,0
364,2,2,0
365,2,2,0
366,2,2,0
367,2,2,0
368,2,2,0
369,2,2,0
370,2,2,0
371,2,2,0
372,2,2,0
373,2,2,0
374,2,2,0
375,2,2,0
376,2,2,0
377,2,2,0
378,2,2,0
379,2,2,0
380,2,2,0
381,2,2,0
382,2,2,0
383,2,2,0
384,2,2,0
385,2,2,0
386,2,2,0
387,2,2,0
388,2,2,0
389,2,2,0
390,2,2,0
391,2,2,0
392,2,2,0
393,2,2,0
394,2,2,0
395,2,2,0
396,2,2,0
397,2,2,0
398,2,2,0
399,2,2,0
400,2,2,0
401,2,2,0
402,2,2,0
403,2,2,0
404,2,2,0
405,2,2,0
406,2,2,0
407,2,2,0
408,2,2,0
409,2,2,0
410,2,2,0
411,2,2,0
412,2,2,0
413,2,2,0
414,2,2,0
415,2,2,0
416,2,2,0
417,2,2,0
418,2,2,0
419,2,2,0
420,2,2,0
421,2,2,0
422,2,2,0
423,2,2,0
424,2,2,0
425,2,2,0
426,2,2,0
427,2,2,0
428,2,2,0
429,2,2,0
430,2,2,0
431,2,2,0
432,2,2,0
433,2,2,0
434,2,2,0
435,2,2,0
436,2,2,0
437,2,2,0
438,2,2,0
439,2,2,0
440,2,2,0
441,2,2,0
442,2,2,0
443,2,2,0
444,2,2,0
445,2,2,0
446,2,2,0
447,2,2,0
448,2,2,0
449,2,2,0
450,2,2,0
451,2,2,0
452,2,2,0
453,2,2,0
454,2,2,0
455,2,2,0
456,2,2,0
457,2,2,0
458,2,2,0
459,2,2,0
460,2,2,0
461,2,2,0
462,2,2,0
463,2,2,0
464,2,2,0
465,2,2,0
466,2,2,0
467,2,2,0
468,2,2,0
469,2,2,0
470,2,2,0
471,2,2,0
472,2,2,0
473,2,2,0
474,2,2,0
475,2,2,0
476,2,2,0
477,2,2,0
478,2,2,0
479,2,2,0
480,2,2,0
481,2,2,0
482,2,2,0
483,2,2,0
484,2,2,0
485,2,2,0
486,2,2,0
487,2,2,0
488,2,2,0
489,2,2,0
490,2,2,0
491,2,2,0
492,2,2,0
493,2,2,0
494,2,2,0
495,2,2,0
496,2,2,0
497,2,2,0
498,2,2,0
499,2,2,0
500,2,2,0
501,2,2,0
502,2,2,0
503,2,2,0
504,2,2,0
505,2,2,0
506,2,2,0
507,2,2,0
508,2,2,0
509,2,2,0
510,2,2,0
511,2,2,0
512,2,2,0
*Output,field,frequency=1
*Node Output,nset=UPPERNODES
U,RF
*Contact Output
CDISP,CFORCE
*End Step
*Step,name=CELL29,nlgeom=YES,inc=10
*Coupled Temperature-Displacement,steady state
1,1,1,1
*Boundary,op=NEW
FIELD,1,1,0
FIELD,11,11,300
UPPERNODES,2,2,-.0002
CONTROLS,3,5,0
1,2,2,0
2,2,2,0
3,2,2,0
4,2,2,0
5,2,2,0
6,2,2,0
7,2,2,0
8,2,2,0
9,2,2,0
10,2,2,0
11,2,2,0
12,2,2,0
13,2,2,0
14,2,2,0
15,2,2,0
16,2,2,0
17,2,2,0
18,2,2,0
19,2,2,0
20,2,2,0
21,2,2,0
22,2,2,0
23,2,2,0
24,2,2,0
25,2,2,0
26,2,2,0
27,2,2,0
28,2,2,0
29,2,2,0
30,2,2,0
31,2,2,0
32,2,2,0
33,2,2,0
34,2,2,0
35,2,2,0
36,2,2,0
37,2,2,0
38,2,2,0
39,2,2,0
40,2,2,0
41,2,2,0
42,2,2,0
43,2,2,0
44,2,2,0
45,2,2,0
46,2,2,0
47,2,2,0
48,2,2,0
49,2,2,0
50,2,2,0
51,2,2,0
52,2,2,0
53,2,2,0
54,2,2,0
55,2,2,0
56,2,2,0
57,2,2,0
58,2,2,0
59,2,2,0
60,2,2,0
61,2,2,0
62,2,2,0
63,2,2,0
64,2,2,0
65,2,2,0
66,2,2,0
67,2,2,0
68,2,2,0
69,2,2,0
70,2,2,0
71,2,2,0
72,2,2,0
73,2,2,0
74,2,2,0
75,2,2,0
76,2,2,0
77,2,2,0
78,2,2,0
79,2,2,0
80,2,2,0
81,2,2,0
82,2,2,0
83,2,2,0
84,2,2,0
85,2,2,0
86,2,2,0
87,2,2,0
88,2,2,0
89,2,2,0
90,2,2,0
91,2,2,0
92,2,2,0
93,2,2,0
94,2,2,0
95,2,2,0
96,2,2,0
97,2,2,0
98,2,2,0
99,2,2,0
100,2,2,0
101,2,2,0
102,2,2,0
103,2,2,0
104,2,2,0
105,2,2,0
106,2,2,0
107,2,2,0
108,2,2,0
109,2,2,0
110,2,2,0
111,2,2,0
112,2,2,0
113,2,2,0
114,2,2,0
115,2,2,0
116,2,2,0
117,2,2,0
118,2,2,0
119,2,2,0
120,2,2,0
121,2,2,0
122,2,2,0
123,2,2,0
124,2,2,0
125,2,2,0
126,2,2,0
127,2,2,0
128,2,2,0
129,2,2,0
130,2,2,0
131,2,2,0
132,2,2,0
133,2,2,0
134,2,2,0
135,2,2,0
136,2,2,0
137,2,2,0
138,2,2,0
139,2,2,0
140,2,2,0
141,2,2,0
142,2,2,0
143,2,2,0
144,2,2,0
145,2,2,0
146,2,2,0
147,2,2,0
148,2,2,0
149,2,2,0
150,2,2,0
151,2,2,0
152,2,2,0
153,2,2,0
154,2,2,0
155,2,2,0
156,2,2,0
157,2,2,0
158,2,2,0
159,2,2,0
160,2,2,0
161,2,2,0
162,2,2,0
163,2,2,0
164,2,2,0
165,2,2,0
166,2,2,0
167,2,2,0
168,2,2,0
169,2,2,0
170,2,2,0
171,2,2,0
172,2,2,0
173,2,2,0
174,2,2,0
175,2,2,0
176,2,2,0
177,2,2,0
178,2,2,0
179,2,2,0
180,2,2,0
181,2,2,0
182,2,2,0
183,2,2,0
184,2,2,0
185,2,2,0
186,2,2,0
187,2,2,0
188,2,2,0
189,2,2,0
190,2,2,0
191,2,2,0
192,2,2,0
193,2,2,0
194,2,2,0
195,2,2,0
196,2,2,0
197,2,2,0
198,2,2,0
199,2,2,0
200,2,2,0
201,2,2,0
202,2,2,0
203,2,2,0
204,2,2,0
205,2,2,0
206,2,2,0
207,2,2,0
208,2,2,0
209,2,2,0
210,2,2,0
211,2,2,0
212,2,2,0
213,2,2,0
214,2,2,0
215,2,2,0
216,2,2,0
217,2,2,0
218,2,2,0
219,2,2,0
220,2,2,0
221,2,2,0
222,2,2,0
223,2,2,0
224,2,2,0
225,2,2,1e-07
226,2,2,1e-07
227,2,2,1e-07
228,2,2,1e-07
229,2,2,1e-07
230,2,2,1e-07
231,2,2,1e-07
232,2,2,1e-07
233,2,2,0
234,2,2,0
235,2,2,0
236,2,2,0
237,2,2,0
238,2,2,0
239,2,2,0
240,2,2,0
241,2,2,0
242,2,2,0
243,2,2,0
244,2,2,0
245,2,2,0
246,2,2,0
247,2,2,0
248,2,2,0
249,2,2,0
250,2,2,0
251,2,2,0
252,2,2,0
253,2,2,0
254,2,2,0
255,2,2,0
256,2,2,0
257,2,2,0
258,2,2,0
259,2,2,0
260,2,2,0
261,2,2,0
262,2,2,0
263,2,2,0
264,2,2,0
265,2,2,0
266,2,2,0
267,2,2,0
268,2,2,0
269,2,2,0
270,2,2,0
271,2,2,0
272,2,2,0
273,2,2,0
274,2,2,0
275,2,2,0
276,2,2,0
277,2,2,0
278,2,2,0
279,2,2,0
280,2,2,0
281,2,2,0
282,2,2,0
283,2,2,0
284,2,2,0
285,2,2,0
286,2,2,0
287,2,2,0
288,2,2,0
289,2,2,0
290,2,2,0
291,2,2,0
292,2,2,0
293,2,2,0
294,2,2,0
295,2,2,0
296,2,2,0
297,2,2,0
298,2,2,0
299,2,2,0
300,2,2,0
301,2,2,0
302,2,2,0
303,2,2,0
304,2,2,0
305,2,2,0
306,2,2,0
307,2,2,0
308,2,2,0
309,2,2,0
310,2,2,0
311,2,2,0
312,2,2,0
313,2,2,0
314,2,2,0
315,2,2,0
316,2,2,0
317,2,2,0
318,2,2,0
319,2,2,0
320,2,2,0
321,2,2,0
322,2,2,0
323,2,2,0
324,2,2,0
325,2,2,0
326,2,2,0
327,2,2,0
328,2,2,0
329,2,2,0
330,2,2,0
331,2,2,0
332,2,2,0
333,2,2,0
334,2,2,0
335,2,2,0
336,2,2,0
337,2,2,0
338,2,2,0
339,2,2,0
340,2,2,0
341,2,2,0
342,2,2,0
343,2,2,0
344,2,2,0
345,2,2,0
346,2,2,0
347,2,2,0
348,2,2,0
349,2,2,0
350,2,2,0
351,2,2,0
352,2,2,0
353,2,2,0
354,2,2,0
355,2,2,0
356,2,2,0
357,2,2,0
358,2,2,0
359,2,2,0
360,2,2,0
361,2,2,0
362,2,2,0
363,2,2,0
364,2,2,0
365,2,2,0
366,2,2,0
367,2,2,0
368,2,2,0
369,2,2,0
370,2,2,0
371,2,2,0
372,2,2,0
373,2,2,0
374,2,2,0
375,2,2,0
376,2,2,0
377,2,2,0
378,2,2,0
379,2,2,0
380,2,2,0
381,2,2,0
382,2,2,0
383,2,2,0
384,2,2,0
385,2,2,0
386,2,2,0
387,2,2,0
388,2,2,0
389,2,2,0
390,2,2,0
391,2,2,0
392,2,2,0
393,2,2,0
394,2,2,0
395,2,2,0
396,2,2,0
397,2,2,0
398,2,2,0
399,2,2,0
400,2,2,0
401,2,2,0
402,2,2,0
403,2,2,0
404,2,2,0
405,2,2,0
406,2,2,0
407,2,2,0
408,2,2,0
409,2,2,0
410,2,2,0
411,2,2,0
412,2,2,0
413,2,2,0
414,2,2,0
415,2,2,0
416,2,2,0
417,2,2,0
418,2,2,0
419,2,2,0
420,2,2,0
421,2,2,0
422,2,2,0
423,2,2,0
424,2,2,0
425,2,2,0
426,2,2,0
427,2,2,0
428,2,2,0
429,2,2,0
430,2,2,0
431,2,2,0
432,2,2,0
433,2,2,0
434,2,2,0
435,2,2,0
436,2,2,0
437,2,2,0
438,2,2,0
439,2,2,0
440,2,2,0
441,2,2,0
442,2,2,0
443,2,2,0
444,2,2,0
445,2,2,0
446,2,2,0
447,2,2,0
448,2,2,0
449,2,2,0
450,2,2,0
451,2,2,0
452,2,2,0
453,2,2,0
454,2,2,0
455,2,2,0
456,2,2,0
457,2,2,0
458,2,2,0
459,2,2,0
460,2,2,0
461,2,2,0
462,2,2,0
463,2,2,0
464,2,2,0
465,2,2,0
466,2,2,0
467,2,2,0
468,2,2,0
469,2,2,0
470,2,2,0
471,2,2,0
472,2,2,0
473,2,2,0
474,2,2,0
475,2,2,0
476,2,2,0
477,2,2,0
478,2,2,0
479,2,2,0
480,2,2,0
481,2,2,0
482,2,2,0
483,2,2,0
484,2,2,0
485,2,2,0
486,2,2,0
487,2,2,0
488,2,2,0
489,2,2,0
490,2,2,0
491,2,2,0
492,2,2,0
493,2,2,0
494,2,2,0
495,2,2,0
496,2,2,0
497,2,2,0
498,2,2,0
499,2,2,0
500,2,2,0
501,2,2,0
502,2,2,0
503,2,2,0
504,2,2,0
505,2,2,0
506,2,2,0
507,2,2,0
508,2,2,0
509,2,2,0
510,2,2,0
511,2,2,0
512,2,2,0
*Output,field,frequency=1
*Node Output,nset=UPPERNODES
U,RF
*Contact Output
CDISP,CFORCE
*End Step
*Step,name=CELL30,nlgeom=YES,inc=10
*Coupled Temperature-Displacement,steady state
1,1,1,1
*Boundary,op=NEW
FIELD,1,1,0
FIELD,11,11,300
UPPERNODES,2,2,-.0002
CONTROLS,3,5,0
1,2,2,0
2,2,2,0
3,2,2,0
4,2,2,0
5,2,2,0
6,2,2,0
7,2,2,0
8,2,2,0
9,2,2,0
10,2,2,0
11,2,2,0
12,2,2,0
13,2,2,0
14,2,2,0
15,2,2,0
16,2,2,0
17,2,2,0
18,2,2,0
19,2,2,0
20,2,2,0
21,2,2,0
22,2,2,0
23,2,2,0
24,2,2,0
25,2,2,0
26,2,2,0
27,2,2,0
28,2,2,0
29,2,2,0
30,2,2,0
31,2,2,0
32,2,2,0
33,2,2,0
34,2,2,0
35,2,2,0
36,2,2,0
37,2,2,0
38,2,2,0
39,2,2,0
40,2,2,0
41,2,2,0
42,2,2,0
43,2,2,0
44,2,2,0
45,2,2,0
46,2,2,0
47,2,2,0
48,2,2,0
49,2,2,0
50,2,2,0
51,2,2,0
52,2,2,0
53,2,2,0
54,2,2,0
55,2,2,0
56,2,2,0
57,2,2,0
58,2,2,0
59,2,2,0
60,2,2,0
61,2,2,0
62,2,2,0
63,2,2,0
64,2,2,0
65,2,2,0
66,2,2,0
67,2,2,0
68,2,2,0
69,2,2,0
70,2,2,0
71,2,2,0
72,2,2,0
73,2,2,0
74,2,2,0
75,2,2,0
76,2,2,0
77,2,2,0
78,2,2,0
79,2,2,0
80,2,2,0
81,2,2,0
82,2,2,0
83,2,2,0
84,2,2,0
85,2,2,0
86,2,2,0
87,2,2,0
88,2,2,0
89,2,2,0
90,2,2,0
91,2,2,0
92,2,2,0
93,2,2,0
94,2,2,0
95,2,2,0
96,2,2,0
97,2,2,0
98,2,2,0
99,2,2,0
100,2,2,0
101,2,2,0
102,2,2,0
103,2,2,0
104,2,2,0
105,2,2,0
106,2,2,0
107,2,2,0
108,2,2,0
109,2,2,0
110,2,2,0
111,2,2,0
112,2,2,0
113,2,2,0
114,2,2,0
115,2,2,0
116,2,2,0
117,2,2,0
118,2,2,0
119,2,2,0
120,2,2,0
121,2,2,0
122,2,2,0
123,2,2,0
124,2,2,0
125,2,2,0
126,2,2,0
127,2,2,0
128,2,2,0
129,2,2,0
130,2,2,0
131,2,2,0
132,2,2,0
133,2,2,0
134,2,2,0
135,2,2,0
136,2,2,0
137,2,2,0
138,2,2,0
139,2,2,0
140,2,2,0
141,2,2,0
142,2,2,0
143,2,2,0
144,2,2,0
145,2,2,0
146,2,2,0
147,2,2,0
148,2,2,0
149,2,2,0
150,2,2,0
151,2,2,0
152,2,2,0
153,2,2,0
154,2,2,0
155,2,2,0
156,2,2,0
157,2,2,0
158,2,2,0
159,2,2,0
160,2,2,0
161,2,2,0
162,2,2,0
163,2,2,0
164,2,2,0
165,2,2,0
166,2,2,0
167,2,2,0
168,2,2,0
169,2,2,0
170,2,2,0
171,2,2,0
172,2,2,0
173,2,2,0
174,2,2,0
175,2,2,0
176,2,2,0
177,2,2,0
178,2,2,0
179,2,2,0
180,2,2,0
181,2,2,0
182,2,2,0
183,2,2,0
184,2,2,0
185,2,2,0
186,2,2,0
187,2,2,0
188,2,2,0
189,2,2,0
190,2,2,0
191,2,2,0
192,2,2,0
193,2,2,0
194,2,2,0
195,2,2,0
196,2,2,0
197,2,2,0
198,2,2,0
199,2,2,0
200,2,2,0
201,2,2,0
202,2,2,0
203,2,2,0
204,2,2,0
205,2,2,0
206,2,2,0
207,2,2,0
208,2,2,0
209,2,2,0
210,2,2,0
211,2,2,0
212,2,2,0
213,2,2,0
214,2,2,0
215,2,2,0
216,2,2,0
217,2,2,0
218,2,2,0
219,2,2,0
220,2,2,0
221,2,2,0
222,2,2,0
223,2,2,0
224,2,2,0
225,2,2,0
226,2,2,0
227,2,2,0
228,2,2,0
229,2,2,0
230,2,2,0
231,2,2,0
232,2,2,0
233,2,2,1e-07
234,2,2,1e-07
235,2,2,1e-07
236,2,2,1e-07
237,2,2,1e-07
238,2,2,1e-07
239,2,2,1e-07
240,2,2,1e-07
241,2,2,0
242,2,2,0
243,2,2,0
244,2,2,0
245,2,2,0
246,2,2,0
247,2,2,0
248,2,2,0
249,2,2,0
250,2,2,0
251,2,2,0
252,2,2,0
253,2,2,0
254,2,2,0
255,2,2,0
256,2,2,0
257,2,2,0
258,2,2,0
259,2,2,0
260,2,2,0
261,2,2,0
262,2,2,0
263,2,2,0
264,2,2,0
265,2,2,0
266,2,2,0
267,2,2,0
268,2,2,0
269,2,2,0
270,2,2,0
271,2,2,0
272,2,2,0
273,2,2,0
274,2,2,0
275,2,2,0
276,2,2,0
277,2,2,0
278,2,2,0
279,2,2,0
280,2,2,0
281,2,2,0
282,2,2,0
283,2,2,0
284,2,2,0
285,2,2,0
286,2,2,0
287,2,2,0
288,2,2,0
289,2,2,0
290,2,2,0
291,2,2,0
292,2,2,0
293,2,2,0
294,2,2,0
295,2,2,0
296,2,2,0
297,2,2,0
298,2,2,0
299,2,2,0
300,2,2,0
301,2,2,0
302,2,2,0
303,2,2,0
304,2,2,0
305,2,2,0
306,2,2,0
307,2,2,0
308,2,2,0
309,2,2,0
310,2,2,0
311,2,2,0
312,2,2,0
313,2,2,0
314,2,2,0
315,2,2,0
316,2,2,0
317,2,2,0
318,2,2,0
319,2,2,0
320,2,2,0
321,2,2,0
322,2,2,0
323,2,2,0
324,2,2,0
325,2,2,0
326,2,2,0
327,2,2,0
328,2,2,0
329,2,2,0
330,2,2,0
331,2,2,0
332,2,2,0
333,2,2,0
334,2,2,0
335,2,2,0
336,2,2,0
337,2,2,0
338,2,2,0
339,2,2,0
340,2,2,0
341,2,2,0
342,2,2,0
343,2,2,0
344,2,2,0
345,2,2,0
346,2,2,0
347,2,2,0
348,2,2,0
349,2,2,0
350,2,2,0
351,2,2,0
352,2,2,0
353,2,2,0
354,2,2,0
355,2,2,0
356,2,2,0
357,2,2,0
358,2,2,0
359,2,2,0
360,2,2,0
361,2,2,0
362,2,2,0
363,2,2,0
364,2,2,0
365,2,2,0
366,2,2,0
367,2,2,0
368,2,2,0
369,2,2,0
370,2,2,0
371,2,2,0
372,2,2,0
373,2,2,0
374,2,2,0
375,2,2,0
376,2,2,0
377,2,2,0
378,2,2,0
379,2,2,0
380,2,2,0
381,2,2,0
382,2,2,0
383,2,2,0
384,2,2,0
385,2,2,0
386,2,2,0
387,2,2,0
388,2,2,0
389,2,2,0
390,2,2,0
391,2,2,0
392,2,2,0
393,2,2,0
394,2,2,0
395,2,2,0
396,2,2,0
397,2,2,0
398,2,2,0
399,2,2,0
400,2,2,0
401,2,2,0
402,2,2,0
403,2,2,0
404,2,2,0
405,2,2,0
406,2,2,0
407,2,2,0
408,2,2,0
409,2,2,0
410,2,2,0
411,2,2,0
412,2,2,0
413,2,2,0
414,2,2,0
415,2,2,0
416,2,2,0
417,2,2,0
418,2,2,0
419,2,2,0
420,2,2,0
421,2,2,0
422,2,2,0
423,2,2,0
424,2,2,0
425,2,2,0
426,2,2,0
427,2,2,0
428,2,2,0
429,2,2,0
430,2,2,0
431,2,2,0
432,2,2,0
433,2,2,0
434,2,2,0
435,2,2,0
436,2,2,0
437,2,2,0
438,2,2,0
439,2,2,0
440,2,2,0
441,2,2,0
442,2,2,0
443,2,2,0
444,2,2,0
445,2,2,0
446,2,2,0
447,2,2,0
448,2,2,0
449,2,2,0
450,2,2,0
451,2,2,0
452,2,2,0
453,2,2,0
454,2,2,0
455,2,2,0
456,2,2,0
457,2,2,0
458,2,2,0
459,2,2,0
460,2,2,0
461,2,2,0
462,2,2,0
463,2,2,0
464,2,2,0
465,2,2,0
466,2,2,0
467,2,2,0
468,2,2,0
469,2,2,0
470,2,2,0
471,2,2,0
472,2,2,0
473,2,2,0
474,2,2,0
475,2,2,0
476,2,2,0
477,2,2,0
478,2,2,0
479,2,2,0
480,2,2,0
481,2,2,0
482,2,2,0
483,2,2,0
484,2,2,0
485,2,2,0
486,2,2,0
487,2,2,0
488,2,2,0
489,2,2,0
490,2,2,0
491,2,2,0
492,2,2,0
493,2,2,0
494,2,2,0
495,2,2,0
496,2,2,0
497,2,2,0
498,2,2,0
499,2,2,0
500,2,2,0
501,2,2,0
502,2,2,0
503,2,2,0
504,2,2,0
505,2,2,0
506,2,2,0
507,2,2,0
508,2,2,0
509,2,2,0
510,2,2,0
511,2,2,0
512,2,2,0
*Output,field,frequency=1
*Node Output,nset=UPPERNODES
U,RF
*Contact Output
CDISP,CFORCE
*End Step
*Step,name=CELL31,nlgeom=YES,inc=10
*Coupled Temperature-Displacement,steady state
1,1,1,1
*Boundary,op=NEW
FIELD,1,1,0
FIELD,11,11,300
UPPERNODES,2,2,-.0002
CONTROLS,3,5,0
1,2,2,0
2,2,2,0
3,2,2,0
4,2,2,0
5,2,2,0
6,2,2,0
7,2,2,0
8,2,2,0
9,2,2,0
10,2,2,0
11,2,2,0
12,2,2,0
13,2,2,0
14,2,2,0
15,2,2,0
16,2,2,0
17,2,2,0
18,2,2,0
19,2,2,0
20,2,2,0
21,2,2,0
22,2,2,0
23,2,2,0
24,2,2,0
25,2,2,0
26,2,2,0
27,2,2,0
28,2,2,0
29,2,2,0
30,2,2,0
31,2,2,0
32,2,2,0
33,2,2,0
34,2,2,0
35,2,2,0
36,2,2,0
37,2,2,0
38,2,2,0
39,2,2,0
40,2,2,0
41,2,2,0
42,2,2,0
43,2,2,0
44,2,2,0
45,2,2,0
46,2,2,0
47,2,2,0
48,2,2,0
49,2,2,0
50,2,2,0
51,2,2,0
52,2,2,0
53,2,2,0
54,2,2,0
55,2,2,0
56,2,2,0
57,2,2,0
58,2,2,0
59,2,2,0
60,2,2,0
61,2,2,0
62,2,2,0
63,2,2,0
64,2,2,0
65,2,2,0
66,2,2,0
67,2,2,0
68,2,2,0
69,2,2,0
70,2,2,0
71,2,2,0
72,2,2,0
73,2,2,0
74,2,2,0
75,2,2,0
76,2,2,0
77,2,2,0
78,2,2,0
79,2,2,0
80,2,2,0
81,2,2,0
82,2,2,0
83,2,2,0
84,2,2,0
85,2,2,0
86,2,2,0
87,2,2,0
88,2,2,0
89,2,2,0
90,2,2,0
91,2,2,0
92,2,2,0
93,2,2,0
94,2,2,0
95,2,2,0
96,2,2,0
97,2,2,0
98,2,2,0
99,2,2,0
100,2,2,0
101,2,2,0
102,2,2,0
103,2,2,0
104,2,2,0
105,2,2,0
106,2,2,0
107,2,2,0
108,2,2,0
109,2,2,0
110,2,2,0
111,2,2,0
112,2,2,0
113,2,2,0
114,2,2,0
115,2,2,0
116,2,2,0
117,2,2,0
118,2,2,0
119,2,2,0
120,2,2,0
121,2,2,0
122,2,2,0
123,2,2,0
124,2,2,0
125,2,2,0
126,2,2,0
127,2,2,0
128,2,2,0
129,2,2,0
130,2,2,0
131,2,2,0
132,2,2,0
133,2,2,0
134,2,2,0
135,2,2,0
136,2,2,0
137,2,2,0
138,2,2,0
139,2,2,0
140,2,2,0
141,2,2,0
142,2,2,0
143,2,2,0
144,2,2,0
145,2,2,0
146,2,2,0
147,2,2,0
148,2,2,0
149,2,2,0
150,2,2,0
151,2,2,0
152,2,2,0
153,2,2,0
154,2,2,0
155,2,2,0
156,2,2,0
157,2,2,0
158,2,2,0
159,2,2,0
160,2,2,0
161,2,2,0
162,2,2,0
163,2,2,0
164,2,2,0
165,2,2,0
166,2,2,0
167,2,2,0
168,2,2,0
169,2,2,0
170,2,2,0
171,2,2,0
172,2,2,0
173,2,2,0
174,2,2,0
175,2,2,0
176,2,2,0
177,2,2,0
178,2,2,0
179,2,2,0
180,2,2,0
181,2,2,0
182,2,2,0
183,2,2,0
184,2,2,0
185,2,2,0
186,2,2,0
187,2,2,0
188,2,2,0
189,2,2,0
190,2,2,0
191,2,2,0
192,2,2,0
193,2,2,0
194,2,2,0
195,2,2,0
196,2,2,0
197,2,2,0
198,2,2,0
199,2,2,0
200,2,2,0
201,2,2,0
202,2,2,0
203,2,2,0
204,2,2,0
205,2,2,0
206,2,2,0
207,2,2,0
208,2,2,0
209,2,2,0
210,2,2,0
211,2,2,0
212,2,2,0
213,2,2,0
214,2,2,0
215,2,2,0
216,2,2,0
217,2,2,0
218,2,2,0
219,2,2,0
220,2,2,0
221,2,2,0
222,2,2,0
223,2,2,0
224,2,2,0
225,2,2,0
226,2,2,0
227,2,2,0
228,2,2,0
229,2,2,0
230,2,2,0
231,2,2,0
232,2,2,0
233,2,2,0
234,2,2,0
235,2,2,0
236,2,2,0
237,2,2,0
238,2,2,0
239,2,2,0
240,2,2,0
241,2,2,1e-07
242,2,2,1e-07
243,2,2,1e-07
244,2,2,1e-07
245,2,2,1e-07
246,2,2,1e-07
247,2,2,1e-07
248,2,2,1e-07
249,2,2,0
250,2,2,0
251,2,2,0
252,2,2,0
253,2,2,0
254,2,2,0
255,2,2,0
256,2,2,0
257,2,2,0
258,2,2,0
259,2,2,0
260,2,2,0
261,2,2,0
262,2,2,0
263,2,2,0
264,2,2,0
265,2,2,0
266,2,2,0
267,2,2,0
268,2,2,0
269,2,2,0
270,2,2,0
271,2,2,0
272,2,2,0
273,2,2,0
274,2,2,0
275,2,2,0
276,2,2,0
277,2,2,0
278,2,2,0
279,2,2,0
280,2,2,0
281,2,2,0
282,2,2,0
283,2,2,0
284,2,2,0
285,2,2,0
286,2,2,0
287,2,2,0
288,2,2,0
289,2,2,0
290,2,2,0
291,2,2,0
292,2,2,0
293,2,2,0
294,2,2,0
295,2,2,0
296,2,2,0
297,2,2,0
298,2,2,0
299,2,2,0
300,2,2,0
301,2,2,0
302,2,2,0
303,2,2,0
304,2,2,0
305,2,2,0
306,2,2,0
307,2,2,0
308,2,2,0
309,2,2,0
310,2,2,0
311,2,2,0
312,2,2,0
313,2,2,0
314,2,2,0
315,2,2,0
316,2,2,0
317,2,2,0
318,2,2,0
319,2,2,0
320,2,2,0
321,2,2,0
322,2,2,0
323,2,2,0
324,2,2,0
325,2,2,0
326,2,2,0
327,2,2,0
328,2,2,0
329,2,2,0
330,2,2,0
331,2,2,0
332,2,2,0
333,2,2,0
334,2,2,0
335,2,2,0
336,2,2,0
337,2,2,0
338,2,2,0
339,2,2,0
340,2,2,0
341,2,2,0
342,2,2,0
343,2,2,0
344,2,2,0
345,2,2,0
346,2,2,0
347,2,2,0
348,2,2,0
349,2,2,0
350,2,2,0
351,2,2,0
352,2,2,0
353,2,2,0
354,2,2,0
355,2,2,0
356,2,2,0
357,2,2,0
358,2,2,0
359,2,2,0
360,2,2,0
361,2,2,0
362,2,2,0
363,2,2,0
364,2,2,0
365,2,2,0
366,2,2,0
367,2,2,0
368,2,2,0
369,2,2,0
370,2,2,0
371,2,2,0
372,2,2,0
373,2,2,0
374,2,2,0
375,2,2,0
376,2,2,0
377,2,2,0
378,2,2,0
379,2,2,0
380,2,2,0
381,2,2,0
382,2,2,0
383,2,2,0
384,2,2,0
385,2,2,0
386,2,2,0
387,2,2,0
388,2,2,0
389,2,2,0
390,2,2,0
391,2,2,0
392,2,2,0
393,2,2,0
394,2,2,0
395,2,2,0
396,2,2,0
397,2,2,0
398,2,2,0
399,2,2,0
400,2,2,0
401,2,2,0
402,2,2,0
403,2,2,0
404,2,2,0
405,2,2,0
406,2,2,0
407,2,2,0
408,2,2,0
409,2,2,0
410,2,2,0
411,2,2,0
412,2,2,0
413,2,2,0
414,2,2,0
415,2,2,0
416,2,2,0
417,2,2,0
418,2,2,0
419,2,2,0
420,2,2,0
421,2,2,0
422,2,2,0
423,2,2,0
424,2,2,0
425,2,2,0
426,2,2,0
427,2,2,0
428,2,2,0
429,2,2,0
430,2,2,0
431,2,2,0
432,2,2,0
433,2,2,0
434,2,2,0
435,2,2,0
436,2,2,0
437,2,2,0
438,2,2,0
439,2,2,0
440,2,2,0
441,2,2,0
442,2,2,0
443,2,2,0
444,2,2,0
445,2,2,0
446,2,2,0
447,2,2,0
448,2,2,0
449,2,2,0
450,2,2,0
451,2,2,0
452,2,2,0
453,2,2,0
454,2,2,0
455,2,2,0
456,2,2,0
457,2,2,0
458,2,2,0
459,2,2,0
460,2,2,0
461,2,2,0
462,2,2,0
463,2,2,0
464,2,2,0
465,2,2,0
466,2,2,0
467,2,2,0
468,2,2,0
469,2,2,0
470,2,2,0
471,2,2,0
472,2,2,0
473,2,2,0
474,2,2,0
475,2,2,0
476,2,2,0
477,2,2,0
478,2,2,0
479,2,2,0
480,2,2,0
481,2,2,0
482,2,2,0
483,2,2,0
484,2,2,0
485,2,2,0
486,2,2,0
487,2,2,0
488,2,2,0
489,2,2,0
490,2,2,0
491,2,2,0
492,2,2,0
493,2,2,0
494,2,2,0
495,2,2,0
496,2,2,0
497,2,2,0
498,2,2,0
499,2,2,0
500,2,2,0
501,2,2,0
502,2,2,0
503,2,2,0
504,2,2,0
505,2,2,0
506,2,2,0
507,2,2,0
508,2,2,0
509,2,2,0
510,2,2,0
511,2,2,0
512,2,2,0
*Output,field,frequency=1
*Node Output,nset=UPPERNODES
U,RF
*Contact Output
CDISP,CFORCE
*End Step
*Step,name=CELL32,nlgeom=YES,inc=10
*Coupled Temperature-Displacement,steady state
1,1,1,1
*Boundary,op=NEW
FIELD,1,1,0
FIELD,11,11,300
UPPERNODES,2,2,-.0002
CONTROLS,3,5,0
1,2,2,0
2,2,2,0
3,2,2,0
4,2,2,0
5,2,2,0
6,2,2,0
7,2,2,0
8,2,2,0
9,2,2,0
10,2,2,0
11,2,2,0
12,2,2,0
13,2,2,0
14,2,2,0
15,2,2,0
16,2,2,0
17,2,2,0
18,2,2,0
19,2,2,0
20,2,2,0
21,2,2,0
22,2,2,0
23,2,2,0
24,2,2,0
25,2,2,0
26,2,2,0
27,2,2,0
28,2,2,0
29,2,2,0
30,2,2,0
31,2,2,0
32,2,2,0
33,2,2,0
34,2,2,0
35,2,2,0
36,2,2,0
37,2,2,0
38,2,2,0
39,2,2,0
40,2,2,0
41,2,2,0
42,2,2,0
43,2,2,0
44,2,2,0
45,2,2,0
46,2,2,0
47,2,2,0
48,2,2,0
49,2,2,0
50,2,2,0
51,2,2,0
52,2,2,0
53,2,2,0
54,2,2,0
55,2,2,0
56,2,2,0
57,2,2,0
58,2,2,0
59,2,2,0
60,2,2,0
61,2,2,0
62,2,2,0
63,2,2,0
64,2,2,0
65,2,2,0
66,2,2,0
67,2,2,0
68,2,2,0
69,2,2,0
70,2,2,0
71,2,2,0
72,2,2,0
73,2,2,0
74,2,2,0
75,2,2,0
76,2,2,0
77,2,2,0
78,2,2,0
79,2,2,0
80,2,2,0
81,2,2,0
82,2,2,0
83,2,2,0
84,2,2,0
85,2,2,0
86,2,2,0
87,2,2,0
88,2,2,0
89,2,2,0
90,2,2,0
91,2,2,0
92,2,2,0
93,2,2,0
94,2,2,0
95,2,2,0
96,2,2,0
97,2,2,0
98,2,2,0
99,2,2,0
100,2,2,0
101,2,2,0
102,2,2,0
103,2,2,0
104,2,2,0
105,2,2,0
106,2,2,0
107,2,2,0
108,2,2,0
109,2,2,0
110,2,2,0
111,2,2,0
112,2,2,0
113,2,2,0
114,2,2,0
115,2,2,0
116,2,2,0
117,2,2,0
118,2,2,0
119,2,2,0
120,2,2,0
121,2,2,0
122,2,2,0
123,2,2,0
124,2,2,0
125,2,2,0
126,2,2,0
127,2,2,0
128,2,2,0
129,2,2,0
130,2,2,0
131,2,2,0
132,2,2,0
133,2,2,0
134,2,2,0
135,2,2,0
136,2,2,0
137,2,2,0
138,2,2,0
139,2,2,0
140,2,2,0
141,2,2,0
142,2,2,0
143,2,2,0
144,2,2,0
145,2,2,0
146,2,2,0
147,2,2,0
148,2,2,0
149,2,2,0
150,2,2,0
151,2,2,0
152,2,2,0
153,2,2,0
154,2,2,0
155,2,2,0
156,2,2,0
157,2,2,0
158,2,2,0
159,2,2,0
160,2,2,0
161,2,2,0
162,2,2,0
163,2,2,0
164,2,2,0
165,2,2,0
166,2,2,0
167,2,2,0
168,2,2,0
169,2,2,0
170,2,2,0
171,2,2,0
172,2,2,0
173,2,2,0
174,2,2,0
175,2,2,0
176,2,2,0
177,2,2,0
178,2,2,0
179,2,2,0
180,2,2,0
181,2,2,0
182,2,2,0
183,2,2,0
184,2,2,0
185,2,2,0
186,2,2,0
187,2,2,0
188,2,2,0
189,2,2,0
190,2,2,0
191,2,2,0
192,2,2,0
193,2,2,0
194,2,2,0
195,2,2,0
196,2,2,0
197,2,2,0
198,2,2,0
199,2,2,0
200,2,2,0
201,2,2,0
202,2,2,0
203,2,2,0
204,2,2,0
205,2,2,0
206,2,2,0
207,2,2,0
208,2,2,0
209,2,2,0
210,2,2,0
211,2,2,0
212,2,2,0
213,2,2,0
214,2,2,0
215,2,2,0
216,2,2,0
217,2,2,0
218,2,2,0
219,2,2,0
220,2,2,0
221,2,2,0
222,2,2,0
223,2,2,0
224,2,2,0
225,2,2,0
226,2,2,0
227,2,2,0
228,2,2,0
229,2,2,0
230,2,2,0
231,2,2,0
232,2,2,0
233,2,2,0
234,2,2,0
235,2,2,0
236,2,2,0
237,2,2,0
238,2,2,0
239,2,2,0
240,2,2,0
241,2,2,0
242,2,2,0
243,2,2,0
244,2,2,0
245,2,2,0
246,2,2,0
247,2,2,0
248,2,2,0
249,2,2,1e-07
250,2,2,1e-07
251,2,2,1e-07
252,2,2,1e-07
253,2,2,1e-07
254,2,2,1e-07
255,2,2,1e-07
256,2,2,1e-07
257,2,2,0
258,2,2,0
259,2,2,0
260,2,2,0
261,2,2,0
262,2,2,0
263,2,2,0
264,2,2,0
265,2,2,0
266,2,2,0
267,2,2,0
268,2,2,0
269,2,2,0
270,2,2,0
271,2,2,0
272,2,2,0
273,2,2,0
274,2,2,0
275,2,2,0
276,2,2,0
277,2,2,0
278,2,2,0
279,2,2,0
280,2,2,0
281,2,2,0
282,2,2,0
283,2,2,0
284,2,2,0
285,2,2,0
286,2,2,0
287,2,2,0
288,2,2,0
289,2,2,0
290,2,2,0
291,2,2,0
292,2,2,0
293,2,2,0
294,2,2,0
295,2,2,0
296,2,2,0
297,2,2,0
298,2,2,0
299,2,2,0
300,2,2,0
301,2,2,0
302,2,2,0
303,2,2,0
304,2,2,0
305,2,2,0
306,2,2,0
307,2,2,0
308,2,2,0
309,2,2,0
310,2,2,0
311,2,2,0
312,2,2,0
313,2,2,0
314,2,2,0
315,2,2,0
316,2,2,0
317,2,2,0
318,2,2,0
319,2,2,0
320,2,2,0
321,2,2,0
322,2,2,0
323,2,2,0
324,2,2,0
325,2,2,0
326,2,2,0
327,2,2,0
328,2,2,0
329,2,2,0
330,2,2,0
331,2,2,0
332,2,2,0
333,2,2,0
334,2,2,0
335,2,2,0
336,2,2,0
337,2,2,0
338,2,2,0
339,2,2,0
340,2,2,0
341,2,2,0
342,2,2,0
343,2,2,0
344,2,2,0
345,2,2,0
346,2,2,0
347,2,2,0
348,2,2,0
349,2,2,0
350,2,2,0
351,2,2,0
352,2,2,0
353,2,2,0
354,2,2,0
355,2,2,0
356,2,2,0
357,2,2,0
358,2,2,0
359,2,2,0
360,2,2,0
361,2,2,0
362,2,2,0
363,2,2,0
364,2,2,0
365,2,2,0
366,2,2,0
367,2,2,0
368,2,2,0
369,2,2,0
370,2,2,0
371,2,2,0
372,2,2,0
373,2,2,0
374,2,2,0
375,2,2,0
376,2,2,0
377,2,2,0
378,2,2,0
379,2,2,0
380,2,2,0
381,2,2,0
382,2,2,0
383,2,2,0
384,2,2,0
385,2,2,0
386,2,2,0
387,2,2,0
388,2,2,0
389,2,2,0
390,2,2,0
391,2,2,0
392,2,2,0
393,2,2,0
394,2,2,0
395,2,2,0
396,2,2,0
397,2,2,0
398,2,2,0
399,2,2,0
400,2,2,0
401,2,2,0
402,2,2,0
403,2,2,0
404,2,2,0
405,2,2,0
406,2,2,0
407,2,2,0
408,2,2,0
409,2,2,0
410,2,2,0
411,2,2,0
412,2,2,0
413,2,2,0
414,2,2,0
415,2,2,0
416,2,2,0
417,2,2,0
418,2,2,0
419,2,2,0
420,2,2,0
421,2,2,0
422,2,2,0
423,2,2,0
424,2,2,0
425,2,2,0
426,2,2,0
427,2,2,0
428,2,2,0
429,2,2,0
430,2,2,0
431,2,2,0
432,2,2,0
433,2,2,0
434,2,2,0
435,2,2,0
436,2,2,0
437,2,2,0
438,2,2,0
439,2,2,0
440,2,2,0
441,2,2,0
442,2,2,0
443,2,2,0
444,2,2,0
445,2,2,0
446,2,2,0
447,2,2,0
448,2,2,0
449,2,2,0
450,2,2,0
451,2,2,0
452,2,2,0
453,2,2,0
454,2,2,0
455,2,2,0
456,2,2,0
457,2,2,0
458,2,2,0
459,2,2,0
460,2,2,0
461,2,2,0
462,2,2,0
463,2,2,0
464,2,2,0
465,2,2,0
466,2,2,0
467,2,2,0
468,2,2,0
469,2,2,0
470,2,2,0
471,2,2,0
472,2,2,0
473,2,2,0
474,2,2,0
475,2,2,0
476,2,2,0
477,2,2,0
478,2,2,0
479,2,2,0
480,2,2,0
481,2,2,0
482,2,2,0
483,2,2,0
484,2,2,0
485,2,2,0
486,2,2,0
487,2,2,0
488,2,2,0
489,2,2,0
490,2,2,0
491,2,2,0
492,2,2,0
493,2,2,0
494,2,2,0
495,2,2,0
496,2,2,0
497,2,2,0
498,2,2,0
499,2,2,0
500,2,2,0
501,2,2,0
502,2,2,0
503,2,2,0
504,2,2,0
505,2,2,0
506,2,2,0
507,2,2,0
508,2,2,0
509,2,2,0
510,2,2,0
511,2,2,0
512,2,2,0
*Output,field,frequency=1
*Node Output,nset=UPPERNODES
U,RF
*Contact Output
CDISP,CFORCE
*End Step
*Step,name=CELL33,nlgeom=YES,inc=10
*Coupled Temperature-Displacement,steady state
1,1,1,1
*Boundary,op=NEW
FIELD,1,1,0
FIELD,11,11,300
UPPERNODES,2,2,-.0002
CONTROLS,3,5,0
1,2,2,0
2,2,2,0
3,2,2,0
4,2,2,0
5,2,2,0
6,2,2,0
7,2,2,0
8,2,2,0
9,2,2,0
10,2,2,0
11,2,2,0
12,2,2,0
13,2,2,0
14,2,2,0
15,2,2,0
16,2,2,0
17,2,2,0
18,2,2,0
19,2,2,0
20,2,2,0
21,2,2,0
22,2,2,0
23,2,2,0
24,2,2,0
25,2,2,0
26,2,2,0
27,2,2,0
28,2,2,0
29,2,2,0
30,2,2,0
31,2,2,0
32,2,2,0
33,2,2,0
34,2,2,0
35,2,2,0
36,2,2,0
37,2,2,0
38,2,2,0
39,2,2,0
40,2,2,0
41,2,2,0
42,2,2,0
43,2,2,0
44,2,2,0
45,2,2,0
46,2,2,0
47,2,2,0
48,2,2,0
49,2,2,0
50,2,2,0
51,2,2,0
52,2,2,0
53,2,2,0
54,2,2,0
55,2,2,0
56,2,2,0
57,2,2,0
58,2,2,0
59,2,2,0
60,2,2,0
61,2,2,0
62,2,2,0
63,2,2,0
64,2,2,0
65,2,2,0
66,2,2,0
67,2,2,0
68,2,2,0
69,2,2,0
70,2,2,0
71,2,2,0
72,2,2,0
73,2,2,0
74,2,2,0
75,2,2,0
76,2,2,0
77,2,2,0
78,2,2,0
79,2,2,0
80,2,2,0
81,2,2,0
82,2,2,0
83,2,2,0
84,2,2,0
85,2,2,0
86,2,2,0
87,2,2,0
88,2,2,0
89,2,2,0
90,2,2,0
91,2,2,0
92,2,2,0
93,2,2,0
94,2,2,0
95,2,2,0
96,2,2,0
97,2,2,0
98,2,2,0
99,2,2,0
100,2,2,0
101,2,2,0
102,2,2,0
103,2,2,0
104,2,2,0
105,2,2,0
106,2,2,0
107,2,2,0
108,2,2,0
109,2,2,0
110,2,2,0
111,2,2,0
112,2,2,0
113,2,2,0
114,2,2,0
115,2,2,0
116,2,2,0
117,2,2,0
118,2,2,0
119,2,2,0
120,2,2,0
121,2,2,0
122,2,2,0
123,2,2,0
124,2,2,0
125,2,2,0
126,2,2,0
127,2,2,0
128,2,2,0
129,2,2,0
130,2,2,0
131,2,2,0
132,2,2,0
133,2,2,0
134,2,2,0
135,2,2,0
136,2,2,0
137,2,2,0
138,2,2,0
139,2,2,0
140,2,2,0
141,2,2,0
142,2,2,0
143,2,2,0
144,2,2,0
145,2,2,0
146,2,2,0
147,2,2,0
148,2,2,0
149,2,2,0
150,2,2,0
151,2,2,0
152,2,2,0
153,2,2,0
154,2,2,0
155,2,2,0
156,2,2,0
157,2,2,0
158,2,2,0
159,2,2,0
160,2,2,0
161,2,2,0
162,2,2,0
163,2,2,0
164,2,2,0
165,2,2,0
166,2,2,0
167,2,2,0
168,2,2,0
169,2,2,0
170,2,2,0
171,2,2,0
172,2,2,0
173,2,2,0
174,2,2,0
175,2,2,0
176,2,2,0
177,2,2,0
178,2,2,0
179,2,2,0
180,2,2,0
181,2,2,0
182,2,2,0
183,2,2,0
184,2,2,0
185,2,2,0
186,2,2,0
187,2,2,0
188,2,2,0
189,2,2,0
190,2,2,0
191,2,2,0
192,2,2,0
193,2,2,0
194,2,2,0
195,2,2,0
196,2,2,0
197,2,2,0
198,2,2,0
199,2,2,0
200,2,2,0
201,2,2,0
202,2,2,0
203,2,2,0
204,2,2,0
205,2,2,0
206,2,2,0
207,2,2,0
208,2,2,0
209,2,2,0
210,2,2,0
211,2,2,0
212,2,2,0
213,2,2,0
214,2,2,0
215,2,2,0
216,2,2,0
217,2,2,0
218,2,2,0
219,2,2,0
220,2,2,0
221,2,2,0
222,2,2,0
223,2,2,0
224,2,2,0
225,2,2,0
226,2,2,0
227,2,2,0
228,2,2,0
229,2,2,0
230,2,2,0
231,2,2,0
232,2,2,0
233,2,2,0
234,2,2,0
235,2,2,0
236,2,2,0
237,2,2,0
238,2,2,0
239,2,2,0
240,2,2,0
241,2,2,0
242,2,2,0
243,2,2,0
244,2,2,0
245,2,2,0
246,2,2,0
247,2,2,0
248,2,2,0
249,2,2,0
250,2,2,0
251,2,2,0
252,2,2,0
253,2,2,0
254,2,2,0
255,2,2,0
256,2,2,0
257,2,2,1e-07
258,2,2,1e-07
259,2,2,1e-07
260,2,2,1e-07
261,2,2,1e-07
262,2,2,1e-07
263,2,2,1e-07
264,2,2,1e-07
265,2,2,0
266,2,2,0
267,2,2,0
268,2,2,0
269,2,2,0
270,2,2,0
271,2,2,0
272,2,2,0
273,2,2,0
274,2,2,0
275,2,2,0
276,2,2,0
277,2,2,0
278,2,2,0
279,2,2,0
280,2,2,0
281,2,2,0
282,2,2,0
283,2,2,0
284,2,2,0
285,2,2,0
286,2,2,0
287,2,2,0
288,2,2,0
289,2,2,0
290,2,2,0
291,2,2,0
292,2,2,0
293,2,2,0
294,2,2,0
295,2,2,0
296,2,2,0
297,2,2,0
298,2,2,0
299,2,2,0
300,2,2,0
301,2,2,0
302,2,2,0
303,2,2,0
304,2,2,0
305,2,2,0
306,2,2,0
307,2,2,0
308,2,2,0
309,2,2,0
310,2,2,0
311,2,2,0
312,2,2,0
313,2,2,0
314,2,2,0
315,2,2,0
316,2,2,0
317,2,2,0
318,2,2,0
319,2,2,0
320,2,2,0
321,2,2,0
322,2,2,0
323,2,2,0
324,2,2,0
325,2,2,0
326,2,2,0
327,2,2,0
328,2,2,0
329,2,2,0
330,2,2,0
331,2,2,0
332,2,2,0
333,2,2,0
334,2,2,0
335,2,2,0
336,2,2,0
337,2,2,0
338,2,2,0
339,2,2,0
340,2,2,0
341,2,2,0
342,2,2,0
343,2,2,0
344,2,2,0
345,2,2,0
346,2,2,0
347,2,2,0
348,2,2,0
349,2,2,0
350,2,2,0
351,2,2,0
352,2,2,0
353,2,2,0
354,2,2,0
355,2,2,0
356,2,2,0
357,2,2,0
358,2,2,0
359,2,2,0
360,2,2,0
361,2,2,0
362,2,2,0
363,2,2,0
364,2,2,0
365,2,2,0
366,2,2,0
367,2,2,0
368,2,2,0
369,2,2,0
370,2,2,0
371,2,2,0
372,2,2,0
373,2,2,0
374,2,2,0
375,2,2,0
376,2,2,0
377,2,2,0
378,2,2,0
379,2,2,0
380,2,2,0
381,2,2,0
382,2,2,0
383,2,2,0
384,2,2,0
385,2,2,0
386,2,2,0
387,2,2,0
388,2,2,0
389,2,2,0
390,2,2,0
391,2,2,0
392,2,2,0
393,2,2,0
394,2,2,0
395,2,2,0
396,2,2,0
397,2,2,0
398,2,2,0
399,2,2,0
400,2,2,0
401,2,2,0
402,2,2,0
403,2,2,0
404,2,2,0
405,2,2,0
406,2,2,0
407,2,2,0
408,2,2,0
409,2,2,0
410,2,2,0
411,2,2,0
412,2,2,0
413,2,2,0
414,2,2,0
415,2,2,0
416,2,2,0
417,2,2,0
418,2,2,0
419,2,2,0
420,2,2,0
421,2,2,0
422,2,2,0
423,2,2,0
424,2,2,0
425,2,2,0
426,2,2,0
427,2,2,0
428,2,2,0
429,2,2,0
430,2,2,0
431,2,2,0
432,2,2,0
433,2,2,0
434,2,2,0
435,2,2,0
436,2,2,0
437,2,2,0
438,2,2,0
439,2,2,0
440,2,2,0
441,2,2,0
442,2,2,0
443,2,2,0
444,2,2,0
445,2,2,0
446,2,2,0
447,2,2,0
448,2,2,0
449,2,2,0
450,2,2,0
451,2,2,0
452,2,2,0
453,2,2,0
454,2,2,0
455,2,2,0
456,2,2,0
457,2,2,0
458,2,2,0
459,2,2,0
460,2,2,0
461,2,2,0
462,2,2,0
463,2,2,0
464,2,2,0
465,2,2,0
466,2,2,0
467,2,2,0
468,2,2,0
469,2,2,0
470,2,2,0
471,2,2,0
472,2,2,0
473,2,2,0
474,2,2,0
475,2,2,0
476,2,2,0
477,2,2,0
478,2,2,0
479,2,2,0
480,2,2,0
481,2,2,0
482,2,2,0
483,2,2,0
484,2,2,0
485,2,2,0
486,2,2,0
487,2,2,0
488,2,2,0
489,2,2,0
490,2,2,0
491,2,2,0
492,2,2,0
493,2,2,0
494,2,2,0
495,2,2,0
496,2,2,0
497,2,2,0
498,2,2,0
499,2,2,0
500,2,2,0
501,2,2,0
502,2,2,0
503,2,2,0
504,2,2,0
505,2,2,0
506,2,2,0
507,2,2,0
508,2,2,0
509,2,2,0
510,2,2,0
511,2,2,0
512,2,2,0
*Output,field,frequency=1
*Node Output,nset=UPPERNODES
U,RF
*Contact Output
CDISP,CFORCE
*End Step
*Step,name=CELL34,nlgeom=YES,inc=10
*Coupled Temperature-Displacement,steady state
1,1,1,1
*Boundary,op=NEW
FIELD,1,1,0
FIELD,11,11,300
UPPERNODES,2,2,-.0002
CONTROLS,3,5,0
1,2,2,0
2,2,2,0
3,2,2,0
4,2,2,0
5,2,2,0
6,2,2,0
7,2,2,0
8,2,2,0
9,2,2,0
10,2,2,0
11,2,2,0
12,2,2,0
13,2,2,0
14,2,2,0
15,2,2,0
16,2,2,0
17,2,2,0
18,2,2,0
19,2,2,0
20,2,2,0
21,2,2,0
22,2,2,0
23,2,2,0
24,2,2,0
25,2,2,0
26,2,2,0
27,2,2,0
28,2,2,0
29,2,2,0
30,2,2,0
31,2,2,0
32,2,2,0
33,2,2,0
34,2,2,0
35,2,2,0
36,2,2,0
37,2,2,0
38,2,2,0
39,2,2,0
40,2,2,0
41,2,2,0
42,2,2,0
43,2,2,0
44,2,2,0
45,2,2,0
46,2,2,0
47,2,2,0
48,2,2,0
49,2,2,0
50,2,2,0
51,2,2,0
52,2,2,0
53,2,2,0
54,2,2,0
55,2,2,0
56,2,2,0
57,2,2,0
58,2,2,0
59,2,2,0
60,2,2,0
61,2,2,0
62,2,2,0
63,2,2,0
64,2,2,0
65,2,2,0
66,2,2,0
67,2,2,0
68,2,2,0
69,2,2,0
70,2,2,0
71,2,2,0
72,2,2,0
73,2,2,0
74,2,2,0
75,2,2,0
76,2,2,0
77,2,2,0
78,2,2,0
79,2,2,0
80,2,2,0
81,2,2,0
82,2,2,0
83,2,2,0
84,2,2,0
85,2,2,0
86,2,2,0
87,2,2,0
88,2,2,0
89,2,2,0
90,2,2,0
91,2,2,0
92,2,2,0
93,2,2,0
94,2,2,0
95,2,2,0
96,2,2,0
97,2,2,0
98,2,2,0
99,2,2,0
100,2,2,0
101,2,2,0
102,2,2,0
103,2,2,0
104,2,2,0
105,2,2,0
106,2,2,0
107,2,2,0
108,2,2,0
109,2,2,0
110,2,2,0
111,2,2,0
112,2,2,0
113,2,2,0
114,2,2,0
115,2,2,0
116,2,2,0
117,2,2,0
118,2,2,0
119,2,2,0
120,2,2,0
121,2,2,0
122,2,2,0
123,2,2,0
124,2,2,0
125,2,2,0
126,2,2,0
127,2,2,0
128,2,2,0
129,2,2,0
130,2,2,0
131,2,2,0
132,2,2,0
133,2,2,0
134,2,2,0
135,2,2,0
136,2,2,0
137,2,2,0
138,2,2,0
139,2,2,0
140,2,2,0
141,2,2,0
142,2,2,0
143,2,2,0
144,2,2,0
145,2,2,0
146,2,2,0
147,2,2,0
148,2,2,0
149,2,2,0
150,2,2,0
151,2,2,0
152,2,2,0
153,2,2,0
154,2,2,0
155,2,2,0
156,2,2,0
157,2,2,0
158,2,2,0
159,2,2,0
160,2,2,0
161,2,2,0
162,2,2,0
163,2,2,0
164,2,2,0
165,2,2,0
166,2,2,0
167,2,2,0
168,2,2,0
169,2,2,0
170,2,2,0
171,2,2,0
172,2,2,0
173,2,2,0
174,2,2,0
175,2,2,0
176,2,2,0
177,2,2,0
178,2,2,0
179,2,2,0
180,2,2,0
181,2,2,0
182,2,2,0
183,2,2,0
184,2,2,0
185,2,2,0
186,2,2,0
187,2,2,0
188,2,2,0
189,2,2,0
190,2,2,0
191,2,2,0
192,2,2,0
193,2,2,0
194,2,2,0
195,2,2,0
196,2,2,0
197,2,2,0
198,2,2,0
199,2,2,0
200,2,2,0
201,2,2,0
202,2,2,0
203,2,2,0
204,2,2,0
205,2,2,0
206,2,2,0
207,2,2,0
208,2,2,0
209,2,2,0
210,2,2,0
211,2,2,0
212,2,2,0
213,2,2,0
214,2,2,0
215,2,2,0
216,2,2,0
217,2,2,0
218,2,2,0
219,2,2,0
220,2,2,0
221,2,2,0
222,2,2,0
223,2,2,0
224,2,2,0
225,2,2,0
226,2,2,0
227,2,2,0
228,2,2,0
229,2,2,0
230,2,2,0
231,2,2,0
232,2,2,0
233,2,2,0
234,2,2,0
235,2,2,0
236,2,2,0
237,2,2,0
238,2,2,0
239,2,2,0
240,2,2,0
241,2,2,0
242,2,2,0
243,2,2,0
244,2,2,0
245,2,2,0
246,2,2,0
247,2,2,0
248,2,2,0
249,2,2,0
250,2,2,0
251,2,2,0
252,2,2,0
253,2,2,0
254,2,2,0
255,2,2,0
256,2,2,0
257,2,2,0
258,2,2,0
259,2,2,0
260,2,2,0
261,2,2,0
262,2,2,0
263,2,2,0
264,2,2,0
265,2,2,1e-07
266,2,2,1e-07
267,2,2,1e-07
268,2,2,1e-07
269,2,2,1e-07
270,2,2,1e-07
271,2,2,1e-07
272,2,2,1e-07
273,2,2,0
274,2,2,0
275,2,2,0
276,2,2,0
277,2,2,0
278,2,2,0
279,2,2,0
280,2,2,0
281,2,2,0
282,2,2,0
283,2,2,0
284,2,2,0
285,2,2,0
286,2,2,0
287,2,2,0
288,2,2,0
289,2,2,0
290,2,2,0
291,2,2,0
292,2,2,0
293,2,2,0
294,2,2,0
295,2,2,0
296,2,2,0
297,2,2,0
298,2,2,0
299,2,2,0
300,2,2,0
301,2,2,0
302,2,2,0
303,2,2,0
304,2,2,0
305,2,2,0
306,2,2,0
307,2,2,0
308,2,2,0
309,2,2,0
310,2,2,0
311,2,2,0
312,2,2,0
313,2,2,0
314,2,2,0
315,2,2,0
316,2,2,0
317,2,2,0
318,2,2,0
319,2,2,0
320,2,2,0
321,2,2,0
322,2,2,0
323,2,2,0
324,2,2,0
325,2,2,0
326,2,2,0
327,2,2,0
328,2,2,0
329,2,2,0
330,2,2,0
331,2,2,0
332,2,2,0
333,2,2,0
334,2,2,0
335,2,2,0
336,2,2,0
337,2,2,0
338,2,2,0
339,2,2,0
340,2,2,0
341,2,2,0
342,2,2,0
343,2,2,0
344,2,2,0
345,2,2,0
346,2,2,0
347,2,2,0
348,2,2,0
349,2,2,0
350,2,2,0
351,2,2,0
352,2,2,0
353,2,2,0
354,2,2,0
355,2,2,0
356,2,2,0
357,2,2,0
358,2,2,0
359,2,2,0
360,2,2,0
361,2,2,0
362,2,2,0
363,2,2,0
364,2,2,0
365,2,2,0
366,2,2,0
367,2,2,0
368,2,2,0
369,2,2,0
370,2,2,0
371,2,2,0
372,2,2,0
373,2,2,0
374,2,2,0
375,2,2,0
376,2,2,0
377,2,2,0
378,2,2,0
379,2,2,0
380,2,2,0
381,2,2,0
382,2,2,0
383,2,2,0
384,2,2,0
385,2,2,0
386,2,2,0
387,2,2,0
388,2,2,0
389,2,2,0
390,2,2,0
391,2,2,0
392,2,2,0
393,2,2,0
394,2,2,0
395,2,2,0
396,2,2,0
397,2,2,0
398,2,2,0
399,2,2,0
400,2,2,0
401,2,2,0
402,2,2,0
403,2,2,0
404,2,2,0
405,2,2,0
406,2,2,0
407,2,2,0
408,2,2,0
409,2,2,0
410,2,2,0
411,2,2,0
412,2,2,0
413,2,2,0
414,2,2,0
415,2,2,0
416,2,2,0
417,2,2,0
418,2,2,0
419,2,2,0
420,2,2,0
421,2,2,0
422,2,2,0
423,2,2,0
424,2,2,0
425,2,2,0
426,2,2,0
427,2,2,0
428,2,2,0
429,2,2,0
430,2,2,0
431,2,2,0
432,2,2,0
433,2,2,0
434,2,2,0
435,2,2,0
436,2,2,0
437,2,2,0
438,2,2,0
439,2,2,0
440,2,2,0
441,2,2,0
442,2,2,0
443,2,2,0
444,2,2,0
445,2,2,0
446,2,2,0
447,2,2,0
448,2,2,0
449,2,2,0
450,2,2,0
451,2,2,0
452,2,2,0
453,2,2,0
454,2,2,0
455,2,2,0
456,2,2,0
457,2,2,0
458,2,2,0
459,2,2,0
460,2,2,0
461,2,2,0
462,2,2,0
463,2,2,0
464,2,2,0
465,2,2,0
466,2,2,0
467,2,2,0
468,2,2,0
469,2,2,0
470,2,2,0
471,2,2,0
472,2,2,0
473,2,2,0
474,2,2,0
475,2,2,0
476,2,2,0
477,2,2,0
478,2,2,0
479,2,2,0
480,2,2,0
481,2,2,0
482,2,2,0
483,2,2,0
484,2,2,0
485,2,2,0
486,2,2,0
487,2,2,0
488,2,2,0
489,2,2,0
490,2,2,0
491,2,2,0
492,2,2,0
493,2,2,0
494,2,2,0
495,2,2,0
496,2,2,0
497,2,2,0
498,2,2,0
499,2,2,0
500,2,2,0
501,2,2,0
502,2,2,0
503,2,2,0
504,2,2,0
505,2,2,0
506,2,2,0
507,2,2,0
508,2,2,0
509,2,2,0
510,2,2,0
511,2,2,0
512,2,2,0
*Output,field,frequency=1
*Node Output,nset=UPPERNODES
U,RF
*Contact Output
CDISP,CFORCE
*End Step
*Step,name=CELL35,nlgeom=YES,inc=10
*Coupled Temperature-Displacement,steady state
1,1,1,1
*Boundary,op=NEW
FIELD,1,1,0
FIELD,11,11,300
UPPERNODES,2,2,-.0002
CONTROLS,3,5,0
1,2,2,0
2,2,2,0
3,2,2,0
4,2,2,0
5,2,2,0
6,2,2,0
7,2,2,0
8,2,2,0
9,2,2,0
10,2,2,0
11,2,2,0
12,2,2,0
13,2,2,0
14,2,2,0
15,2,2,0
16,2,2,0
17,2,2,0
18,2,2,0
19,2,2,0
20,2,2,0
21,2,2,0
22,2,2,0
23,2,2,0
24,2,2,0
25,2,2,0
26,2,2,0
27,2,2,0
28,2,2,0
29,2,2,0
30,2,2,0
31,2,2,0
32,2,2,0
33,2,2,0
34,2,2,0
35,2,2,0
36,2,2,0
37,2,2,0
38,2,2,0
39,2,2,0
40,2,2,0
41,2,2,0
42,2,2,0
43,2,2,0
44,2,2,0
45,2,2,0
46,2,2,0
47,2,2,0
48,2,2,0
49,2,2,0
50,2,2,0
51,2,2,0
52,2,2,0
53,2,2,0
54,2,2,0
55,2,2,0
56,2,2,0
57,2,2,0
58,2,2,0
59,2,2,0
60,2,2,0
61,2,2,0
62,2,2,0
63,2,2,0
64,2,2,0
65,2,2,0
66,2,2,0
67,2,2,0
68,2,2,0
69,2,2,0
70,2,2,0
71,2,2,0
72,2,2,0
73,2,2,0
74,2,2,0
75,2,2,0
76,2,2,0
77,2,2,0
78,2,2,0
79,2,2,0
80,2,2,0
81,2,2,0
82,2,2,0
83,2,2,0
84,2,2,0
85,2,2,0
86,2,2,0
87,2,2,0
88,2,2,0
89,2,2,0
90,2,2,0
91,2,2,0
92,2,2,0
93,2,2,0
94,2,2,0
95,2,2,0
96,2,2,0
97,2,2,0
98,2,2,0
99,2,2,0
100,2,2,0
101,2,2,0
102,2,2,0
103,2,2,0
104,2,2,0
105,2,2,0
106,2,2,0
107,2,2,0
108,2,2,0
109,2,2,0
110,2,2,0
111,2,2,0
112,2,2,0
113,2,2,0
114,2,2,0
115,2,2,0
116,2,2,0
117,2,2,0
118,2,2,0
119,2,2,0
120,2,2,0
121,2,2,0
122,2,2,0
123,2,2,0
124,2,2,0
125,2,2,0
126,2,2,0
127,2,2,0
128,2,2,0
129,2,2,0
130,2,2,0
131,2,2,0
132,2,2,0
133,2,2,0
134,2,2,0
135,2,2,0
136,2,2,0
137,2,2,0
138,2,2,0
139,2,2,0
140,2,2,0
141,2,2,0
142,2,2,0
143,2,2,0
144,2,2,0
145,2,2,0
146,2,2,0
147,2,2,0
148,2,2,0
149,2,2,0
150,2,2,0
151,2,2,0
152,2,2,0
153,2,2,0
154,2,2,0
155,2,2,0
156,2,2,0
157,2,2,0
158,2,2,0
159,2,2,0
160,2,2,0
161,2,2,0
162,2,2,0
163,2,2,0
164,2,2,0
165,2,2,0
166,2,2,0
167,2,2,0
168,2,2,0
169,2,2,0
170,2,2,0
171,2,2,0
172,2,2,0
173,2,2,0
174,2,2,0
175,2,2,0
176,2,2,0
177,2,2,0
178,2,2,0
179,2,2,0
180,2,2,0
181,2,2,0
182,2,2,0
183,2,2,0
184,2,2,0
185,2,2,0
186,2,2,0
187,2,2,0
188,2,2,0
189,2,2,0
190,2,2,0
191,2,2,0
192,2,2,0
193,2,2,0
194,2,2,0
195,2,2,0
196,2,2,0
197,2,2,0
198,2,2,0
199,2,2,0
200,2,2,0
201,2,2,0
202,2,2,0
203,2,2,0
204,2,2,0
205,2,2,0
206,2,2,0
207,2,2,0
208,2,2,0
209,2,2,0
210,2,2,0
211,2,2,0
212,2,2,0
213,2,2,0
214,2,2,0
215,2,2,0
216,2,2,0
217,2,2,0
218,2,2,0
219,2,2,0
220,2,2,0
221,2,2,0
222,2,2,0
223,2,2,0
224,2,2,0
225,2,2,0
226,2,2,0
227,2,2,0
228,2,2,0
229,2,2,0
230,2,2,0
231,2,2,0
232,2,2,0
233,2,2,0
234,2,2,0
235,2,2,0
236,2,2,0
237,2,2,0
238,2,2,0
239,2,2,0
240,2,2,0
241,2,2,0
242,2,2,0
243,2,2,0
244,2,2,0
245,2,2,0
246,2,2,0
247,2,2,0
248,2,2,0
249,2,2,0
250,2,2,0
251,2,2,0
252,2,2,0
253,2,2,0
254,2,2,0
255,2,2,0
256,2,2,0
257,2,2,0
258,2,2,0
259,2,2,0
260,2,2,0
261,2,2,0
262,2,2,0
263,2,2,0
264,2,2,0
265,2,2,0
266,2,2,0
267,2,2,0
268,2,2,0
269,2,2,0
270,2,2,0
271,2,2,0
272,2,2,0
273,2,2,1e-07
274,2,2,1e-07
275,2,2,1e-07
276,2,2,1e-07
277,2,2,1e-07
278,2,2,1e-07
279,2,2,1e-07
280,2,2,1e-07
281,2,2,0
282,2,2,0
283,2,2,0
284,2,2,0
285,2,2,0
286,2,2,0
287,2,2,0
288,2,2,0
289,2,2,0
290,2,2,0
291,2,2,0
292,2,2,0
293,2,2,0
294,2,2,0
295,2,2,0
296,2,2,0
297,2,2,0
298,2,2,0
299,2,2,0
300,2,2,0
301,2,2,0
302,2,2,0
303,2,2,0
304,2,2,0
305,2,2,0
306,2,2,0
307,2,2,0
308,2,2,0
309,2,2,0
310,2,2,0
311,2,2,0
312,2,2,0
313,2,2,0
314,2,2,0
315,2,2,0
316,2,2,0
317,2,2,0
318,2,2,0
319,2,2,0
320,2,2,0
321,2,2,0
322,2,2,0
323,2,2,0
324,2,2,0
325,2,2,0
326,2,2,0
327,2,2,0
328,2,2,0
329,2,2,0
330,2,2,0
331,2,2,0
332,2,2,0
333,2,2,0
334,2,2,0
335,2,2,0
336,2,2,0
337,2,2,0
338,2,2,0
339,2,2,0
340,2,2,0
341,2,2,0
342,2,2,0
343,2,2,0
344,2,2,0
345,2,2,0
346,2,2,0
347,2,2,0
348,2,2,0
349,2,2,0
350,2,2,0
351,2,2,0
352,2,2,0
353,2,2,0
354,2,2,0
355,2,2,0
356,2,2,0
357,2,2,0
358,2,2,0
359,2,2,0
360,2,2,0
361,2,2,0
362,2,2,0
363,2,2,0
364,2,2,0
365,2,2,0
366,2,2,0
367,2,2,0
368,2,2,0
369,2,2,0
370,2,2,0
371,2,2,0
372,2,2,0
373,2,2,0
374,2,2,0
375,2,2,0
376,2,2,0
377,2,2,0
378,2,2,0
379,2,2,0
380,2,2,0
381,2,2,0
382,2,2,0
383,2,2,0
384,2,2,0
385,2,2,0
386,2,2,0
387,2,2,0
388,2,2,0
389,2,2,0
390,2,2,0
391,2,2,0
392,2,2,0
393,2,2,0
394,2,2,0
395,2,2,0
396,2,2,0
397,2,2,0
398,2,2,0
399,2,2,0
400,2,2,0
401,2,2,0
402,2,2,0
403,2,2,0
404,2,2,0
405,2,2,0
406,2,2,0
407,2,2,0
408,2,2,0
409,2,2,0
410,2,2,0
411,2,2,0
412,2,2,0
413,2,2,0
414,2,2,0
415,2,2,0
416,2,2,0
417,2,2,0
418,2,2,0
419,2,2,0
420,2,2,0
421,2,2,0
422,2,2,0
423,2,2,0
424,2,2,0
425,2,2,0
426,2,2,0
427,2,2,0
428,2,2,0
429,2,2,0
430,2,2,0
431,2,2,0
432,2,2,0
433,2,2,0
434,2,2,0
435,2,2,0
436,2,2,0
437,2,2,0
438,2,2,0
439,2,2,0
440,2,2,0
441,2,2,0
442,2,2,0
443,2,2,0
444,2,2,0
445,2,2,0
446,2,2,0
447,2,2,0
448,2,2,0
449,2,2,0
450,2,2,0
451,2,2,0
452,2,2,0
453,2,2,0
454,2,2,0
455,2,2,0
456,2,2,0
457,2,2,0
458,2,2,0
459,2,2,0
460,2,2,0
461,2,2,0
462,2,2,0
463,2,2,0
464,2,2,0
465,2,2,0
466,2,2,0
467,2,2,0
468,2,2,0
469,2,2,0
470,2,2,0
471,2,2,0
472,2,2,0
473,2,2,0
474,2,2,0
475,2,2,0
476,2,2,0
477,2,2,0
478,2,2,0
479,2,2,0
480,2,2,0
481,2,2,0
482,2,2,0
483,2,2,0
484,2,2,0
485,2,2,0
486,2,2,0
487,2,2,0
488,2,2,0
489,2,2,0
490,2,2,0
491,2,2,0
492,2,2,0
493,2,2,0
494,2,2,0
495,2,2,0
496,2,2,0
497,2,2,0
498,2,2,0
499,2,2,0
500,2,2,0
501,2,2,0
502,2,2,0
503,2,2,0
504,2,2,0
505,2,2,0
506,2,2,0
507,2,2,0
508,2,2,0
509,2,2,0
510,2,2,0
511,2,2,0
512,2,2,0
*Output,field,frequency=1
*Node Output,nset=UPPERNODES
U,RF
*Contact Output
CDISP,CFORCE
*End Step
*Step,name=CELL36,nlgeom=YES,inc=10
*Coupled Temperature-Displacement,steady state
1,1,1,1
*Boundary,op=NEW
FIELD,1,1,0
FIELD,11,11,300
UPPERNODES,2,2,-.0002
CONTROLS,3,5,0
1,2,2,0
2,2,2,0
3,2,2,0
4,2,2,0
5,2,2,0
6,2,2,0
7,2,2,0
8,2,2,0
9,2,2,0
10,2,2,0
11,2,2,0
12,2,2,0
13,2,2,0
14,2,2,0
15,2,2,0
16,2,2,0
17,2,2,0
18,2,2,0
19,2,2,0
20,2,2,0
21,2,2,0
22,2,2,0
23,2,2,0
24,2,2,0
25,2,2,0
26,2,2,0
27,2,2,0
28,2,2,0
29,2,2,0
30,2,2,0
31,2,2,0
32,2,2,0
33,2,2,0
34,2,2,0
35,2,2,0
36,2,2,0
37,2,2,0
38,2,2,0
39,2,2,0
40,2,2,0
41,2,2,0
42,2,2,0
43,2,2,0
44,2,2,0
45,2,2,0
46,2,2,0
47,2,2,0
48,2,2,0
49,2,2,0
50,2,2,0
51,2,2,0
52,2,2,0
53,2,2,0
54,2,2,0
55,2,2,0
56,2,2,0
57,2,2,0
58,2,2,0
59,2,2,0
60,2,2,0
61,2,2,0
62,2,2,0
63,2,2,0
64,2,2,0
65,2,2,0
66,2,2,0
67,2,2,0
68,2,2,0
69,2,2,0
70,2,2,0
71,2,2,0
72,2,2,0
73,2,2,0
74,2,2,0
75,2,2,0
76,2,2,0
77,2,2,0
78,2,2,0
79,2,2,0
80,2,2,0
81,2,2,0
82,2,2,0
83,2,2,0
84,2,2,0
85,2,2,0
86,2,2,0
87,2,2,0
88,2,2,0
89,2,2,0
90,2,2,0
91,2,2,0
92,2,2,0
93,2,2,0
94,2,2,0
95,2,2,0
96,2,2,0
97,2,2,0
98,2,2,0
99,2,2,0
100,2,2,0
101,2,2,0
102,2,2,0
103,2,2,0
104,2,2,0
105,2,2,0
106,2,2,0
107,2,2,0
108,2,2,0
109,2,2,0
110,2,2,0
111,2,2,0
112,2,2,0
113,2,2,0
114,2,2,0
115,2,2,0
116,2,2,0
117,2,2,0
118,2,2,0
119,2,2,0
120,2,2,0
121,2,2,0
122,2,2,0
123,2,2,0
124,2,2,0
125,2,2,0
126,2,2,0
127,2,2,0
128,2,2,0
129,2,2,0
130,2,2,0
131,2,2,0
132,2,2,0
133,2,2,0
134,2,2,0
135,2,2,0
136,2,2,0
137,2,2,0
138,2,2,0
139,2,2,0
140,2,2,0
141,2,2,0
142,2,2,0
143,2,2,0
144,2,2,0
145,2,2,0
146,2,2,0
147,2,2,0
148,2,2,0
149,2,2,0
150,2,2,0
151,2,2,0
152,2,2,0
153,2,2,0
154,2,2,0
155,2,2,0
156,2,2,0
157,2,2,0
158,2,2,0
159,2,2,0
160,2,2,0
161,2,2,0
162,2,2,0
163,2,2,0
164,2,2,0
165,2,2,0
166,2,2,0
167,2,2,0
168,2,2,0
169,2,2,0
170,2,2,0
171,2,2,0
172,2,2,0
173,2,2,0
174,2,2,0
175,2,2,0
176,2,2,0
177,2,2,0
178,2,2,0
179,2,2,0
180,2,2,0
181,2,2,0
182,2,2,0
183,2,2,0
184,2,2,0
185,2,2,0
186,2,2,0
187,2,2,0
188,2,2,0
189,2,2,0
190,2,2,0
191,2,2,0
192,2,2,0
193,2,2,0
194,2,2,0
195,2,2,0
196,2,2,0
197,2,2,0
198,2,2,0
199,2,2,0
200,2,2,0
201,2,2,0
202,2,2,0
203,2,2,0
204,2,2,0
205,2,2,0
206,2,2,0
207,2,2,0
208,2,2,0
209,2,2,0
210,2,2,0
211,2,2,0
212,2,2,0
213,2,2,0
214,2,2,0
215,2,2,0
216,2,2,0
217,2,2,0
218,2,2,0
219,2,2,0
220,2,2,0
221,2,2,0
222,2,2,0
223,2,2,0
224,2,2,0
225,2,2,0
226,2,2,0
227,2,2,0
228,2,2,0
229,2,2,0
230,2,2,0
231,2,2,0
232,2,2,0
233,2,2,0
234,2,2,0
235,2,2,0
236,2,2,0
237,2,2,0
238,2,2,0
239,2,2,0
240,2,2,0
241,2,2,0
242,2,2,0
243,2,2,0
244,2,2,0
245,2,2,0
246,2,2,0
247,2,2,0
248,2,2,0
249,2,2,0
250,2,2,0
251,2,2,0
252,2,2,0
253,2,2,0
254,2,2,0
255,2,2,0
256,2,2,0
257,2,2,0
258,2,2,0
259,2,2,0
260,2,2,0
261,2,2,0
262,2,2,0
263,2,2,0
264,2,2,0
265,2,2,0
266,2,2,0
267,2,2,0
268,2,2,0
269,2,2,0
270,2,2,0
271,2,2,0
272,2,2,0
273,2,2,0
274,2,2,0
275,2,2,0
276,2,2,0
277,2,2,0
278,2,2,0
279,2,2,0
280,2,2,0
281,2,2,1e-07
282,2,2,1e-07
283,2,2,1e-07
284,2,2,1e-07
285,2,2,1e-07
286,2,2,1e-07
287,2,2,1e-07
288,2,2,1e-07
289,2,2,0
290,2,2,0
291,2,2,0
292,2,2,0
293,2,2,0
294,2,2,0
295,2,2,0
296,2,2,0
297,2,2,0
298,2,2,0
299,2,2,0
300,2,2,0
301,2,2,0
302,2,2,0
303,2,2,0
304,2,2,0
305,2,2,0
306,2,2,0
307,2,2,0
308,2,2,0
309,2,2,0
310,2,2,0
311,2,2,0
312,2,2,0
313,2,2,0
314,2,2,0
315,2,2,0
316,2,2,0
317,2,2,0
318,2,2,0
319,2,2,0
320,2,2,0
321,2,2,0
322,2,2,0
323,2,2,0
324,2,2,0
325,2,2,0
326,2,2,0
327,2,2,0
328,2,2,0
329,2,2,0
330,2,2,0
331,2,2,0
332,2,2,0
333,2,2,0
334,2,2,0
335,2,2,0
336,2,2,0
337,2,2,0
338,2,2,0
339,2,2,0
340,2,2,0
341,2,2,0
342,2,2,0
343,2,2,0
344,2,2,0
345,2,2,0
346,2,2,0
347,2,2,0
348,2,2,0
349,2,2,0
350,2,2,0
351,2,2,0
352,2,2,0
353,2,2,0
354,2,2,0
355,2,2,0
356,2,2,0
357,2,2,0
358,2,2,0
359,2,2,0
360,2,2,0
361,2,2,0
362,2,2,0
363,2,2,0
364,2,2,0
365,2,2,0
366,2,2,0
367,2,2,0
368,2,2,0
369,2,2,0
370,2,2,0
371,2,2,0
372,2,2,0
373,2,2,0
374,2,2,0
375,2,2,0
376,2,2,0
377,2,2,0
378,2,2,0
379,2,2,0
380,2,2,0
381,2,2,0
382,2,2,0
383,2,2,0
384,2,2,0
385,2,2,0
386,2,2,0
387,2,2,0
388,2,2,0
389,2,2,0
390,2,2,0
391,2,2,0
392,2,2,0
393,2,2,0
394,2,2,0
395,2,2,0
396,2,2,0
397,2,2,0
398,2,2,0
399,2,2,0
400,2,2,0
401,2,2,0
402,2,2,0
403,2,2,0
404,2,2,0
405,2,2,0
406,2,2,0
407,2,2,0
408,2,2,0
409,2,2,0
410,2,2,0
411,2,2,0
412,2,2,0
413,2,2,0
414,2,2,0
415,2,2,0
416,2,2,0
417,2,2,0
418,2,2,0
419,2,2,0
420,2,2,0
421,2,2,0
422,2,2,0
423,2,2,0
424,2,2,0
425,2,2,0
426,2,2,0
427,2,2,0
428,2,2,0
429,2,2,0
430,2,2,0
431,2,2,0
432,2,2,0
433,2,2,0
434,2,2,0
435,2,2,0
436,2,2,0
437,2,2,0
438,2,2,0
439,2,2,0
440,2,2,0
441,2,2,0
442,2,2,0
443,2,2,0
444,2,2,0
445,2,2,0
446,2,2,0
447,2,2,0
448,2,2,0
449,2,2,0
450,2,2,0
451,2,2,0
452,2,2,0
453,2,2,0
454,2,2,0
455,2,2,0
456,2,2,0
457,2,2,0
458,2,2,0
459,2,2,0
460,2,2,0
461,2,2,0
462,2,2,0
463,2,2,0
464,2,2,0
465,2,2,0
466,2,2,0
467,2,2,0
468,2,2,0
469,2,2,0
470,2,2,0
471,2,2,0
472,2,2,0
473,2,2,0
474,2,2,0
475,2,2,0
476,2,2,0
477,2,2,0
478,2,2,0
479,2,2,0
480,2,2,0
481,2,2,0
482,2,2,0
483,2,2,0
484,2,2,0
485,2,2,0
486,2,2,0
487,2,2,0
488,2,2,0
489,2,2,0
490,2,2,0
491,2,2,0
492,2,2,0
493,2,2,0
494,2,2,0
495,2,2,0
496,2,2,0
497,2,2,0
498,2,2,0
499,2,2,0
500,2,2,0
501,2,2,0
502,2,2,0
503,2,2,0
504,2,2,0
505,2,2,0
506,2,2,0
507,2,2,0
508,2,2,0
509,2,2,0
510,2,2,0
511,2,2,0
512,2,2,0
*Output,field,frequency=1
*Node Output,nset=UPPERNODES
U,RF
*Contact Output
CDISP,CFORCE
*End Step
*Step,name=CELL37,nlgeom=YES,inc=10
*Coupled Temperature-Displacement,steady state
1,1,1,1
*Boundary,op=NEW
FIELD,1,1,0
FIELD,11,11,300
UPPERNODES,2,2,-.0002
CONTROLS,3,5,0
1,2,2,0
2,2,2,0
3,2,2,0
4,2,2,0
5,2,2,0
6,2,2,0
7,2,2,0
8,2,2,0
9,2,2,0
10,2,2,0
11,2,2,0
12,2,2,0
13,2,2,0
14,2,2,0
15,2,2,0
16,2,2,0
17,2,2,0
18,2,2,0
19,2,2,0
20,2,2,0
21,2,2,0
22,2,2,0
23,2,2,0
24,2,2,0
25,2,2,0
26,2,2,0
27,2,2,0
28,2,2,0
29,2,2,0
30,2,2,0
31,2,2,0
32,2,2,0
33,2,2,0
34,2,2,0
35,2,2,0
36,2,2,0
37,2,2,0
38,2,2,0
39,2,2,0
40,2,2,0
41,2,2,0
42,2,2,0
43,2,2,0
44,2,2,0
45,2,2,0
46,2,2,0
47,2,2,0
48,2,2,0
49,2,2,0
50,2,2,0
51,2,2,0
52,2,2,0
53,2,2,0
54,2,2,0
55,2,2,0
56,2,2,0
57,2,2,0
58,2,2,0
59,2,2,0
60,2,2,0
61,2,2,0
62,2,2,0
63,2,2,0
64,2,2,0
65,2,2,0
66,2,2,0
67,2,2,0
68,2,2,0
69,2,2,0
70,2,2,0
71,2,2,0
72,2,2,0
73,2,2,0
74,2,2,0
75,2,2,0
76,2,2,0
77,2,2,0
78,2,2,0
79,2,2,0
80,2,2,0
81,2,2,0
82,2,2,0
83,2,2,0
84,2,2,0
85,2,2,0
86,2,2,0
87,2,2,0
88,2,2,0
89,2,2,0
90,2,2,0
91,2,2,0
92,2,2,0
93,2,2,0
94,2,2,0
95,2,2,0
96,2,2,0
97,2,2,0
98,2,2,0
99,2,2,0
100,2,2,0
101,2,2,0
102,2,2,0
103,2,2,0
104,2,2,0
105,2,2,0
106,2,2,0
107,2,2,0
108,2,2,0
109,2,2,0
110,2,2,0
111,2,2,0
112,2,2,0
113,2,2,0
114,2,2,0
115,2,2,0
116,2,2,0
117,2,2,0
118,2,2,0
119,2,2,0
120,2,2,0
121,2,2,0
122,2,2,0
123,2,2,0
124,2,2,0
125,2,2,0
126,2,2,0
127,2,2,0
128,2,2,0
129,2,2,0
130,2,2,0
131,2,2,0
132,2,2,0
133,2,2,0
134,2,2,0
135,2,2,0
136,2,2,0
137,2,2,0
138,2,2,0
139,2,2,0
140,2,2,0
141,2,2,0
142,2,2,0
143,2,2,0
144,2,2,0
145,2,2,0
146,2,2,0
147,2,2,0
148,2,2,0
149,2,2,0
150,2,2,0
151,2,2,0
152,2,2,0
153,2,2,0
154,2,2,0
155,2,2,0
156,2,2,0
157,2,2,0
158,2,2,0
159,2,2,0
160,2,2,0
161,2,2,0
162,2,2,0
163,2,2,0
164,2,2,0
165,2,2,0
166,2,2,0
167,2,2,0
168,2,2,0
169,2,2,0
170,2,2,0
171,2,2,0
172,2,2,0
173,2,2,0
174,2,2,0
175,2,2,0
176,2,2,0
177,2,2,0
178,2,2,0
179,2,2,0
180,2,2,0
181,2,2,0
182,2,2,0
183,2,2,0
184,2,2,0
185,2,2,0
186,2,2,0
187,2,2,0
188,2,2,0
189,2,2,0
190,2,2,0
191,2,2,0
192,2,2,0
193,2,2,0
194,2,2,0
195,2,2,0
196,2,2,0
197,2,2,0
198,2,2,0
199,2,2,0
200,2,2,0
201,2,2,0
202,2,2,0
203,2,2,0
204,2,2,0
205,2,2,0
206,2,2,0
207,2,2,0
208,2,2,0
209,2,2,0
210,2,2,0
211,2,2,0
212,2,2,0
213,2,2,0
214,2,2,0
215,2,2,0
216,2,2,0
217,2,2,0
218,2,2,0
219,2,2,0
220,2,2,0
221,2,2,0
222,2,2,0
223,2,2,0
224,2,2,0
225,2,2,0
226,2,2,0
227,2,2,0
228,2,2,0
229,2,2,0
230,2,2,0
231,2,2,0
232,2,2,0
233,2,2,0
234,2,2,0
235,2,2,0
236,2,2,0
237,2,2,0
238,2,2,0
239,2,2,0
240,2,2,0
241,2,2,0
242,2,2,0
243,2,2,0
244,2,2,0
245,2,2,0
246,2,2,0
247,2,2,0
248,2,2,0
249,2,2,0
250,2,2,0
251,2,2,0
252,2,2,0
253,2,2,0
254,2,2,0
255,2,2,0
256,2,2,0
257,2,2,0
258,2,2,0
259,2,2,0
260,2,2,0
261,2,2,0
262,2,2,0
263,2,2,0
264,2,2,0
265,2,2,0
266,2,2,0
267,2,2,0
268,2,2,0
269,2,2,0
270,2,2,0
271,2,2,0
272,2,2,0
273,2,2,0
274,2,2,0
275,2,2,0
276,2,2,0
277,2,2,0
278,2,2,0
279,2,2,0
280,2,2,0
281,2,2,0
282,2,2,0
283,2,2,0
284,2,2,0
285,2,2,0
286,2,2,0
287,2,2,0
288,2,2,0
289,2,2,1e-07
290,2,2,1e-07
291,2,2,1e-07
292,2,2,1e-07
293,2,2,1e-07
294,2,2,1e-07
295,2,2,1e-07
296,2,2,1e-07
297,2,2,0
298,2,2,0
299,2,2,0
300,2,2,0
301,2,2,0
302,2,2,0
303,2,2,0
304,2,2,0
305,2,2,0
306,2,2,0
307,2,2,0
308,2,2,0
309,2,2,0
310,2,2,0
311,2,2,0
312,2,2,0
313,2,2,0
314,2,2,0
315,2,2,0
316,2,2,0
317,2,2,0
318,2,2,0
319,2,2,0
320,2,2,0
321,2,2,0
322,2,2,0
323,2,2,0
324,2,2,0
325,2,2,0
326,2,2,0
327,2,2,0
328,2,2,0
329,2,2,0
330,2,2,0
331,2,2,0
332,2,2,0
333,2,2,0
334,2,2,0
335,2,2,0
336,2,2,0
337,2,2,0
338,2,2,0
339,2,2,0
340,2,2,0
341,2,2,0
342,2,2,0
343,2,2,0
344,2,2,0
345,2,2,0
346,2,2,0
347,2,2,0
348,2,2,0
349,2,2,0
350,2,2,0
351,2,2,0
352,2,2,0
353,2,2,0
354,2,2,0
355,2,2,0
356,2,2,0
357,2,2,0
358,2,2,0
359,2,2,0
360,2,2,0
361,2,2,0
362,2,2,0
363,2,2,0
364,2,2,0
365,2,2,0
366,2,2,0
367,2,2,0
368,2,2,0
369,2,2,0
370,2,2,0
371,2,2,0
372,2,2,0
373,2,2,0
374,2,2,0
375,2,2,0
376,2,2,0
377,2,2,0
378,2,2,0
379,2,2,0
380,2,2,0
381,2,2,0
382,2,2,0
383,2,2,0
384,2,2,0
385,2,2,0
386,2,2,0
387,2,2,0
388,2,2,0
389,2,2,0
390,2,2,0
391,2,2,0
392,2,2,0
393,2,2,0
394,2,2,0
395,2,2,0
396,2,2,0
397,2,2,0
398,2,2,0
399,2,2,0
400,2,2,0
401,2,2,0
402,2,2,0
403,2,2,0
404,2,2,0
405,2,2,0
406,2,2,0
407,2,2,0
408,2,2,0
409,2,2,0
410,2,2,0
411,2,2,0
412,2,2,0
413,2,2,0
414,2,2,0
415,2,2,0
416,2,2,0
417,2,2,0
418,2,2,0
419,2,2,0
420,2,2,0
421,2,2,0
422,2,2,0
423,2,2,0
424,2,2,0
425,2,2,0
426,2,2,0
427,2,2,0
428,2,2,0
429,2,2,0
430,2,2,0
431,2,2,0
432,2,2,0
433,2,2,0
434,2,2,0
435,2,2,0
436,2,2,0
437,2,2,0
438,2,2,0
439,2,2,0
440,2,2,0
441,2,2,0
442,2,2,0
443,2,2,0
444,2,2,0
445,2,2,0
446,2,2,0
447,2,2,0
448,2,2,0
449,2,2,0
450,2,2,0
451,2,2,0
452,2,2,0
453,2,2,0
454,2,2,0
455,2,2,0
456,2,2,0
457,2,2,0
458,2,2,0
459,2,2,0
460,2,2,0
461,2,2,0
462,2,2,0
463,2,2,0
464,2,2,0
465,2,2,0
466,2,2,0
467,2,2,0
468,2,2,0
469,2,2,0
470,2,2,0
471,2,2,0
472,2,2,0
473,2,2,0
474,2,2,0
475,2,2,0
476,2,2,0
477,2,2,0
478,2,2,0
479,2,2,0
480,2,2,0
481,2,2,0
482,2,2,0
483,2,2,0
484,2,2,0
485,2,2,0
486,2,2,0
487,2,2,0
488,2,2,0
489,2,2,0
490,2,2,0
491,2,2,0
492,2,2,0
493,2,2,0
494,2,2,0
495,2,2,0
496,2,2,0
497,2,2,0
498,2,2,0
499,2,2,0
500,2,2,0
501,2,2,0
502,2,2,0
503,2,2,0
504,2,2,0
505,2,2,0
506,2,2,0
507,2,2,0
508,2,2,0
509,2,2,0
510,2,2,0
511,2,2,0
512,2,2,0
*Output,field,frequency=1
*Node Output,nset=UPPERNODES
U,RF
*Contact Output
CDISP,CFORCE
*End Step
*Step,name=CELL38,nlgeom=YES,inc=10
*Coupled Temperature-Displacement,steady state
1,1,1,1
*Boundary,op=NEW
FIELD,1,1,0
FIELD,11,11,300
UPPERNODES,2,2,-.0002
CONTROLS,3,5,0
1,2,2,0
2,2,2,0
3,2,2,0
4,2,2,0
5,2,2,0
6,2,2,0
7,2,2,0
8,2,2,0
9,2,2,0
10,2,2,0
11,2,2,0
12,2,2,0
13,2,2,0
14,2,2,0
15,2,2,0
16,2,2,0
17,2,2,0
18,2,2,0
19,2,2,0
20,2,2,0
21,2,2,0
22,2,2,0
23,2,2,0
24,2,2,0
25,2,2,0
26,2,2,0
27,2,2,0
28,2,2,0
29,2,2,0
30,2,2,0
31,2,2,0
32,2,2,0
33,2,2,0
34,2,2,0
35,2,2,0
36,2,2,0
37,2,2,0
38,2,2,0
39,2,2,0
40,2,2,0
41,2,2,0
42,2,2,0
43,2,2,0
44,2,2,0
45,2,2,0
46,2,2,0
47,2,2,0
48,2,2,0
49,2,2,0
50,2,2,0
51,2,2,0
52,2,2,0
53,2,2,0
54,2,2,0
55,2,2,0
56,2,2,0
57,2,2,0
58,2,2,0
59,2,2,0
60,2,2,0
61,2,2,0
62,2,2,0
63,2,2,0
64,2,2,0
65,2,2,0
66,2,2,0
67,2,2,0
68,2,2,0
69,2,2,0
70,2,2,0
71,2,2,0
72,2,2,0
73,2,2,0
74,2,2,0
75,2,2,0
76,2,2,0
77,2,2,0
78,2,2,0
79,2,2,0
80,2,2,0
81,2,2,0
82,2,2,0
83,2,2,0
84,2,2,0
85,2,2,0
86,2,2,0
87,2,2,0
88,2,2,0
89,2,2,0
90,2,2,0
91,2,2,0
92,2,2,0
93,2,2,0
94,2,2,0
95,2,2,0
96,2,2,0
97,2,2,0
98,2,2,0
99,2,2,0
100,2,2,0
101,2,2,0
102,2,2,0
103,2,2,0
104,2,2,0
105,2,2,0
106,2,2,0
107,2,2,0
108,2,2,0
109,2,2,0
110,2,2,0
111,2,2,0
112,2,2,0
113,2,2,0
114,2,2,0
115,2,2,0
116,2,2,0
117,2,2,0
118,2,2,0
119,2,2,0
120,2,2,0
121,2,2,0
122,2,2,0
123,2,2,0
124,2,2,0
125,2,2,0
126,2,2,0
127,2,2,0
128,2,2,0
129,2,2,0
130,2,2,0
131,2,2,0
132,2,2,0
133,2,2,0
134,2,2,0
135,2,2,0
136,2,2,0
137,2,2,0
138,2,2,0
139,2,2,0
140,2,2,0
141,2,2,0
142,2,2,0
143,2,2,0
144,2,2,0
145,2,2,0
146,2,2,0
147,2,2,0
148,2,2,0
149,2,2,0
150,2,2,0
151,2,2,0
152,2,2,0
153,2,2,0
154,2,2,0
155,2,2,0
156,2,2,0
157,2,2,0
158,2,2,0
159,2,2,0
160,2,2,0
161,2,2,0
162,2,2,0
163,2,2,0
164,2,2,0
165,2,2,0
166,2,2,0
167,2,2,0
168,2,2,0
169,2,2,0
170,2,2,0
171,2,2,0
172,2,2,0
173,2,2,0
174,2,2,0
175,2,2,0
176,2,2,0
177,2,2,0
178,2,2,0
179,2,2,0
180,2,2,0
181,2,2,0
182,2,2,0
183,2,2,0
184,2,2,0
185,2,2,0
186,2,2,0
187,2,2,0
188,2,2,0
189,2,2,0
190,2,2,0
191,2,2,0
192,2,2,0
193,2,2,0
194,2,2,0
195,2,2,0
196,2,2,0
197,2,2,0
198,2,2,0
199,2,2,0
200,2,2,0
201,2,2,0
202,2,2,0
203,2,2,0
204,2,2,0
205,2,2,0
206,2,2,0
207,2,2,0
208,2,2,0
209,2,2,0
210,2,2,0
211,2,2,0
212,2,2,0
213,2,2,0
214,2,2,0
215,2,2,0
216,2,2,0
217,2,2,0
218,2,2,0
219,2,2,0
220,2,2,0
221,2,2,0
222,2,2,0
223,2,2,0
224,2,2,0
225,2,2,0
226,2,2,0
227,2,2,0
228,2,2,0
229,2,2,0
230,2,2,0
231,2,2,0
232,2,2,0
233,2,2,0
234,2,2,0
235,2,2,0
236,2,2,0
237,2,2,0
238,2,2,0
239,2,2,0
240,2,2,0
241,2,2,0
242,2,2,0
243,2,2,0
244,2,2,0
245,2,2,0
246,2,2,0
247,2,2,0
248,2,2,0
249,2,2,0
250,2,2,0
251,2,2,0
252,2,2,0
253,2,2,0
254,2,2,0
255,2,2,0
256,2,2,0
257,2,2,0
258,2,2,0
259,2,2,0
260,2,2,0
261,2,2,0
262,2,2,0
263,2,2,0
264,2,2,0
265,2,2,0
266,2,2,0
267,2,2,0
268,2,2,0
269,2,2,0
270,2,2,0
271,2,2,0
272,2,2,0
273,2,2,0
274,2,2,0
275,2,2,0
276,2,2,0
277,2,2,0
278,2,2,0
279,2,2,0
280,2,2,0
281,2,2,0
282,2,2,0
283,2,2,0
284,2,2,0
285,2,2,0
286,2,2,0
287,2,2,0
288,2,2,0
289,2,2,0
290,2,2,0
291,2,2,0
292,2,2,0
293,2,2,0
294,2,2,0
295,2,2,0
296,2,2,0
297,2,2,1e-07
298,2,2,1e-07
299,2,2,1e-07
300,2,2,1e-07
301,2,2,1e-07
302,2,2,1e-07
303,2,2,1e-07
304,2,2,1e-07
305,2,2,0
306,2,2,0
307,2,2,0
308,2,2,0
309,2,2,0
310,2,2,0
311,2,2,0
312,2,2,0
313,2,2,0
314,2,2,0
315,2,2,0
316,2,2,0
317,2,2,0
318,2,2,0
319,2,2,0
320,2,2,0
321,2,2,0
322,2,2,0
323,2,2,0
324,2,2,0
325,2,2,0
326,2,2,0
327,2,2,0
328,2,2,0
329,2,2,0
330,2,2,0
331,2,2,0
332,2,2,0
333,2,2,0
334,2,2,0
335,2,2,0
336,2,2,0
337,2,2,0
338,2,2,0
339,2,2,0
340,2,2,0
341,2,2,0
342,2,2,0
343,2,2,0
344,2,2,0
345,2,2,0
346,2,2,0
347,2,2,0
348,2,2,0
349,2,2,0
350,2,2,0
351,2,2,0
352,2,2,0
353,2,2,0
354,2,2,0
355,2,2,0
356,2,2,0
357,2,2,0
358,2,2,0
359,2,2,0
360,2,2,0
361,2,2,0
362,2,2,0
363,2,2,0
364,2,2,0
365,2,2,0
366,2,2,0
367,2,2,0
368,2,2,0
369,2,2,0
370,2,2,0
371,2,2,0
372,2,2,0
373,2,2,0
374,2,2,0
375,2,2,0
376,2,2,0
377,2,2,0
378,2,2,0
379,2,2,0
380,2,2,0
381,2,2,0
382,2,2,0
383,2,2,0
384,2,2,0
385,2,2,0
386,2,2,0
387,2,2,0
388,2,2,0
389,2,2,0
390,2,2,0
391,2,2,0
392,2,2,0
393,2,2,0
394,2,2,0
395,2,2,0
396,2,2,0
397,2,2,0
398,2,2,0
399,2,2,0
400,2,2,0
401,2,2,0
402,2,2,0
403,2,2,0
404,2,2,0
405,2,2,0
406,2,2,0
407,2,2,0
408,2,2,0
409,2,2,0
410,2,2,0
411,2,2,0
412,2,2,0
413,2,2,0
414,2,2,0
415,2,2,0
416,2,2,0
417,2,2,0
418,2,2,0
419,2,2,0
420,2,2,0
421,2,2,0
422,2,2,0
423,2,2,0
424,2,2,0
425,2,2,0
426,2,2,0
427,2,2,0
428,2,2,0
429,2,2,0
430,2,2,0
431,2,2,0
432,2,2,0
433,2,2,0
434,2,2,0
435,2,2,0
436,2,2,0
437,2,2,0
438,2,2,0
439,2,2,0
440,2,2,0
441,2,2,0
442,2,2,0
443,2,2,0
444,2,2,0
445,2,2,0
446,2,2,0
447,2,2,0
448,2,2,0
449,2,2,0
450,2,2,0
451,2,2,0
452,2,2,0
453,2,2,0
454,2,2,0
455,2,2,0
456,2,2,0
457,2,2,0
458,2,2,0
459,2,2,0
460,2,2,0
461,2,2,0
462,2,2,0
463,2,2,0
464,2,2,0
465,2,2,0
466,2,2,0
467,2,2,0
468,2,2,0
469,2,2,0
470,2,2,0
471,2,2,0
472,2,2,0
473,2,2,0
474,2,2,0
475,2,2,0
476,2,2,0
477,2,2,0
478,2,2,0
479,2,2,0
480,2,2,0
481,2,2,0
482,2,2,0
483,2,2,0
484,2,2,0
485,2,2,0
486,2,2,0
487,2,2,0
488,2,2,0
489,2,2,0
490,2,2,0
491,2,2,0
492,2,2,0
493,2,2,0
494,2,2,0
495,2,2,0
496,2,2,0
497,2,2,0
498,2,2,0
499,2,2,0
500,2,2,0
501,2,2,0
502,2,2,0
503,2,2,0
504,2,2,0
505,2,2,0
506,2,2,0
507,2,2,0
508,2,2,0
509,2,2,0
510,2,2,0
511,2,2,0
512,2,2,0
*Output,field,frequency=1
*Node Output,nset=UPPERNODES
U,RF
*Contact Output
CDISP,CFORCE
*End Step
*Step,name=CELL39,nlgeom=YES,inc=10
*Coupled Temperature-Displacement,steady state
1,1,1,1
*Boundary,op=NEW
FIELD,1,1,0
FIELD,11,11,300
UPPERNODES,2,2,-.0002
CONTROLS,3,5,0
1,2,2,0
2,2,2,0
3,2,2,0
4,2,2,0
5,2,2,0
6,2,2,0
7,2,2,0
8,2,2,0
9,2,2,0
10,2,2,0
11,2,2,0
12,2,2,0
13,2,2,0
14,2,2,0
15,2,2,0
16,2,2,0
17,2,2,0
18,2,2,0
19,2,2,0
20,2,2,0
21,2,2,0
22,2,2,0
23,2,2,0
24,2,2,0
25,2,2,0
26,2,2,0
27,2,2,0
28,2,2,0
29,2,2,0
30,2,2,0
31,2,2,0
32,2,2,0
33,2,2,0
34,2,2,0
35,2,2,0
36,2,2,0
37,2,2,0
38,2,2,0
39,2,2,0
40,2,2,0
41,2,2,0
42,2,2,0
43,2,2,0
44,2,2,0
45,2,2,0
46,2,2,0
47,2,2,0
48,2,2,0
49,2,2,0
50,2,2,0
51,2,2,0
52,2,2,0
53,2,2,0
54,2,2,0
55,2,2,0
56,2,2,0
57,2,2,0
58,2,2,0
59,2,2,0
60,2,2,0
61,2,2,0
62,2,2,0
63,2,2,0
64,2,2,0
65,2,2,0
66,2,2,0
67,2,2,0
68,2,2,0
69,2,2,0
70,2,2,0
71,2,2,0
72,2,2,0
73,2,2,0
74,2,2,0
75,2,2,0
76,2,2,0
77,2,2,0
78,2,2,0
79,2,2,0
80,2,2,0
81,2,2,0
82,2,2,0
83,2,2,0
84,2,2,0
85,2,2,0
86,2,2,0
87,2,2,0
88,2,2,0
89,2,2,0
90,2,2,0
91,2,2,0
92,2,2,0
93,2,2,0
94,2,2,0
95,2,2,0
96,2,2,0
97,2,2,0
98,2,2,0
99,2,2,0
100,2,2,0
101,2,2,0
102,2,2,0
103,2,2,0
104,2,2,0
105,2,2,0
106,2,2,0
107,2,2,0
108,2,2,0
109,2,2,0
110,2,2,0
111,2,2,0
112,2,2,0
113,2,2,0
114,2,2,0
115,2,2,0
116,2,2,0
117,2,2,0
118,2,2,0
119,2,2,0
120,2,2,0
121,2,2,0
122,2,2,0
123,2,2,0
124,2,2,0
125,2,2,0
126,2,2,0
127,2,2,0
128,2,2,0
129,2,2,0
130,2,2,0
131,2,2,0
132,2,2,0
133,2,2,0
134,2,2,0
135,2,2,0
136,2,2,0
137,2,2,0
138,2,2,0
139,2,2,0
140,2,2,0
141,2,2,0
142,2,2,0
143,2,2,0
144,2,2,0
145,2,2,0
146,2,2,0
147,2,2,0
148,2,2,0
149,2,2,0
150,2,2,0
151,2,2,0
152,2,2,0
153,2,2,0
154,2,2,0
155,2,2,0
156,2,2,0
157,2,2,0
158,2,2,0
159,2,2,0
160,2,2,0
161,2,2,0
162,2,2,0
163,2,2,0
164,2,2,0
165,2,2,0
166,2,2,0
167,2,2,0
168,2,2,0
169,2,2,0
170,2,2,0
171,2,2,0
172,2,2,0
173,2,2,0
174,2,2,0
175,2,2,0
176,2,2,0
177,2,2,0
178,2,2,0
179,2,2,0
180,2,2,0
181,2,2,0
182,2,2,0
183,2,2,0
184,2,2,0
185,2,2,0
186,2,2,0
187,2,2,0
188,2,2,0
189,2,2,0
190,2,2,0
191,2,2,0
192,2,2,0
193,2,2,0
194,2,2,0
195,2,2,0
196,2,2,0
197,2,2,0
198,2,2,0
199,2,2,0
200,2,2,0
201,2,2,0
202,2,2,0
203,2,2,0
204,2,2,0
205,2,2,0
206,2,2,0
207,2,2,0
208,2,2,0
209,2,2,0
210,2,2,0
211,2,2,0
212,2,2,0
213,2,2,0
214,2,2,0
215,2,2,0
216,2,2,0
217,2,2,0
218,2,2,0
219,2,2,0
220,2,2,0
221,2,2,0
222,2,2,0
223,2,2,0
224,2,2,0
225,2,2,0
226,2,2,0
227,2,2,0
228,2,2,0
229,2,2,0
230,2,2,0
231,2,2,0
232,2,2,0
233,2,2,0
234,2,2,0
235,2,2,0
236,2,2,0
237,2,2,0
238,2,2,0
239,2,2,0
240,2,2,0
241,2,2,0
242,2,2,0
243,2,2,0
244,2,2,0
245,2,2,0
246,2,2,0
247,2,2,0
248,2,2,0
249,2,2,0
250,2,2,0
251,2,2,0
252,2,2,0
253,2,2,0
254,2,2,0
255,2,2,0
256,2,2,0
257,2,2,0
258,2,2,0
259,2,2,0
260,2,2,0
261,2,2,0
262,2,2,0
263,2,2,0
264,2,2,0
265,2,2,0
266,2,2,0
267,2,2,0
268,2,2,0
269,2,2,0
270,2,2,0
271,2,2,0
272,2,2,0
273,2,2,0
274,2,2,0
275,2,2,0
276,2,2,0
277,2,2,0
278,2,2,0
279,2,2,0
280,2,2,0
281,2,2,0
282,2,2,0
283,2,2,0
284,2,2,0
285,2,2,0
286,2,2,0
287,2,2,0
288,2,2,0
289,2,2,0
290,2,2,0
291,2,2,0
292,2,2,0
293,2,2,0
294,2,2,0
295,2,2,0
296,2,2,0
297,2,2,0
298,2,2,0
299,2,2,0
300,2,2,0
301,2,2,0
302,2,2,0
303,2,2,0
304,2,2,0
305,2,2,1e-07
306,2,2,1e-07
307,2,2,1e-07
308,2,2,1e-07
309,2,2,1e-07
310,2,2,1e-07
311,2,2,1e-07
312,2,2,1e-07
313,2,2,0
314,2,2,0
315,2,2,0
316,2,2,0
317,2,2,0
318,2,2,0
319,2,2,0
320,2,2,0
321,2,2,0
322,2,2,0
323,2,2,0
324,2,2,0
325,2,2,0
326,2,2,0
327,2,2,0
328,2,2,0
329,2,2,0
330,2,2,0
331,2,2,0
332,2,2,0
333,2,2,0
334,2,2,0
335,2,2,0
336,2,2,0
337,2,2,0
338,2,2,0
339,2,2,0
340,2,2,0
341,2,2,0
342,2,2,0
343,2,2,0
344,2,2,0
345,2,2,0
346,2,2,0
347,2,2,0
348,2,2,0
349,2,2,0
350,2,2,0
351,2,2,0
352,2,2,0
353,2,2,0
354,2,2,0
355,2,2,0
356,2,2,0
357,2,2,0
358,2,2,0
359,2,2,0
360,2,2,0
361,2,2,0
362,2,2,0
363,2,2,0
364,2,2,0
365,2,2,0
366,2,2,0
367,2,2,0
368,2,2,0
369,2,2,0
370,2,2,0
371,2,2,0
372,2,2,0
373,2,2,0
374,2,2,0
375,2,2,0
376,2,2,0
377,2,2,0
378,2,2,0
379,2,2,0
380,2,2,0
381,2,2,0
382,2,2,0
383,2,2,0
384,2,2,0
385,2,2,0
386,2,2,0
387,2,2,0
388,2,2,0
389,2,2,0
390,2,2,0
391,2,2,0
392,2,2,0
393,2,2,0
394,2,2,0
395,2,2,0
396,2,2,0
397,2,2,0
398,2,2,0
399,2,2,0
400,2,2,0
401,2,2,0
402,2,2,0
403,2,2,0
404,2,2,0
405,2,2,0
406,2,2,0
407,2,2,0
408,2,2,0
409,2,2,0
410,2,2,0
411,2,2,0
412,2,2,0
413,2,2,0
414,2,2,0
415,2,2,0
416,2,2,0
417,2,2,0
418,2,2,0
419,2,2,0
420,2,2,0
421,2,2,0
422,2,2,0
423,2,2,0
424,2,2,0
425,2,2,0
426,2,2,0
427,2,2,0
428,2,2,0
429,2,2,0
430,2,2,0
431,2,2,0
432,2,2,0
433,2,2,0
434,2,2,0
435,2,2,0
436,2,2,0
437,2,2,0
438,2,2,0
439,2,2,0
440,2,2,0
441,2,2,0
442,2,2,0
443,2,2,0
444,2,2,0
445,2,2,0
446,2,2,0
447,2,2,0
448,2,2,0
449,2,2,0
450,2,2,0
451,2,2,0
452,2,2,0
453,2,2,0
454,2,2,0
455,2,2,0
456,2,2,0
457,2,2,0
458,2,2,0
459,2,2,0
460,2,2,0
461,2,2,0
462,2,2,0
463,2,2,0
464,2,2,0
465,2,2,0
466,2,2,0
467,2,2,0
468,2,2,0
469,2,2,0
470,2,2,0
471,2,2,0
472,2,2,0
473,2,2,0
474,2,2,0
475,2,2,0
476,2,2,0
477,2,2,0
478,2,2,0
479,2,2,0
480,2,2,0
481,2,2,0
482,2,2,0
483,2,2,0
484,2,2,0
485,2,2,0
486,2,2,0
487,2,2,0
488,2,2,0
489,2,2,0
490,2,2,0
491,2,2,0
492,2,2,0
493,2,2,0
494,2,2,0
495,2,2,0
496,2,2,0
497,2,2,0
498,2,2,0
499,2,2,0
500,2,2,0
501,2,2,0
502,2,2,0
503,2,2,0
504,2,2,0
505,2,2,0
506,2,2,0
507,2,2,0
508,2,2,0
509,2,2,0
510,2,2,0
511,2,2,0
512,2,2,0
*Output,field,frequency=1
*Node Output,nset=UPPERNODES
U,RF
*Contact Output
CDISP,CFORCE
*End Step
*Step,name=CELL40,nlgeom=YES,inc=10
*Coupled Temperature-Displacement,steady state
1,1,1,1
*Boundary,op=NEW
FIELD,1,1,0
FIELD,11,11,300
UPPERNODES,2,2,-.0002
CONTROLS,3,5,0
1,2,2,0
2,2,2,0
3,2,2,0
4,2,2,0
5,2,2,0
6,2,2,0
7,2,2,0
8,2,2,0
9,2,2,0
10,2,2,0
11,2,2,0
12,2,2,0
13,2,2,0
14,2,2,0
15,2,2,0
16,2,2,0
17,2,2,0
18,2,2,0
19,2,2,0
20,2,2,0
21,2,2,0
22,2,2,0
23,2,2,0
24,2,2,0
25,2,2,0
26,2,2,0
27,2,2,0
28,2,2,0
29,2,2,0
30,2,2,0
31,2,2,0
32,2,2,0
33,2,2,0
34,2,2,0
35,2,2,0
36,2,2,0
37,2,2,0
38,2,2,0
39,2,2,0
40,2,2,0
41,2,2,0
42,2,2,0
43,2,2,0
44,2,2,0
45,2,2,0
46,2,2,0
47,2,2,0
48,2,2,0
49,2,2,0
50,2,2,0
51,2,2,0
52,2,2,0
53,2,2,0
54,2,2,0
55,2,2,0
56,2,2,0
57,2,2,0
58,2,2,0
59,2,2,0
60,2,2,0
61,2,2,0
62,2,2,0
63,2,2,0
64,2,2,0
65,2,2,0
66,2,2,0
67,2,2,0
68,2,2,0
69,2,2,0
70,2,2,0
71,2,2,0
72,2,2,0
73,2,2,0
74,2,2,0
75,2,2,0
76,2,2,0
77,2,2,0
78,2,2,0
79,2,2,0
80,2,2,0
81,2,2,0
82,2,2,0
83,2,2,0
84,2,2,0
85,2,2,0
86,2,2,0
87,2,2,0
88,2,2,0
89,2,2,0
90,2,2,0
91,2,2,0
92,2,2,0
93,2,2,0
94,2,2,0
95,2,2,0
96,2,2,0
97,2,2,0
98,2,2,0
99,2,2,0
100,2,2,0
101,2,2,0
102,2,2,0
103,2,2,0
104,2,2,0
105,2,2,0
106,2,2,0
107,2,2,0
108,2,2,0
109,2,2,0
110,2,2,0
111,2,2,0
112,2,2,0
113,2,2,0
114,2,2,0
115,2,2,0
116,2,2,0
117,2,2,0
118,2,2,0
119,2,2,0
120,2,2,0
121,2,2,0
122,2,2,0
123,2,2,0
124,2,2,0
125,2,2,0
126,2,2,0
127,2,2,0
128,2,2,0
129,2,2,0
130,2,2,0
131,2,2,0
132,2,2,0
133,2,2,0
134,2,2,0
135,2,2,0
136,2,2,0
137,2,2,0
138,2,2,0
139,2,2,0
140,2,2,0
141,2,2,0
142,2,2,0
143,2,2,0
144,2,2,0
145,2,2,0
146,2,2,0
147,2,2,0
148,2,2,0
149,2,2,0
150,2,2,0
151,2,2,0
152,2,2,0
153,2,2,0
154,2,2,0
155,2,2,0
156,2,2,0
157,2,2,0
158,2,2,0
159,2,2,0
160,2,2,0
161,2,2,0
162,2,2,0
163,2,2,0
164,2,2,0
165,2,2,0
166,2,2,0
167,2,2,0
168,2,2,0
169,2,2,0
170,2,2,0
171,2,2,0
172,2,2,0
173,2,2,0
174,2,2,0
175,2,2,0
176,2,2,0
177,2,2,0
178,2,2,0
179,2,2,0
180,2,2,0
181,2,2,0
182,2,2,0
183,2,2,0
184,2,2,0
185,2,2,0
186,2,2,0
187,2,2,0
188,2,2,0
189,2,2,0
190,2,2,0
191,2,2,0
192,2,2,0
193,2,2,0
194,2,2,0
195,2,2,0
196,2,2,0
197,2,2,0
198,2,2,0
199,2,2,0
200,2,2,0
201,2,2,0
202,2,2,0
203,2,2,0
204,2,2,0
205,2,2,0
206,2,2,0
207,2,2,0
208,2,2,0
209,2,2,0
210,2,2,0
211,2,2,0
212,2,2,0
213,2,2,0
214,2,2,0
215,2,2,0
216,2,2,0
217,2,2,0
218,2,2,0
219,2,2,0
220,2,2,0
221,2,2,0
222,2,2,0
223,2,2,0
224,2,2,0
225,2,2,0
226,2,2,0
227,2,2,0
228,2,2,0
229,2,2,0
230,2,2,0
231,2,2,0
232,2,2,0
233,2,2,0
234,2,2,0
235,2,2,0
236,2,2,0
237,2,2,0
238,2,2,0
239,2,2,0
240,2,2,0
241,2,2,0
242,2,2,0
243,2,2,0
244,2,2,0
245,2,2,0
246,2,2,0
247,2,2,0
248,2,2,0
249,2,2,0
250,2,2,0
251,2,2,0
252,2,2,0
253,2,2,0
254,2,2,0
255,2,2,0
256,2,2,0
257,2,2,0
258,2,2,0
259,2,2,0
260,2,2,0
261,2,2,0
262,2,2,0
263,2,2,0
264,2,2,0
265,2,2,0
266,2,2,0
267,2,2,0
268,2,2,0
269,2,2,0
270,2,2,0
271,2,2,0
272,2,2,0
273,2,2,0
274,2,2,0
275,2,2,0
276,2,2,0
277,2,2,0
278,2,2,0
279,2,2,0
280,2,2,0
281,2,2,0
282,2,2,0
283,2,2,0
284,2,2,0
285,2,2,0
286,2,2,0
287,2,2,0
288,2,2,0
289,2,2,0
290,2,2,0
291,2,2,0
292,2,2,0
293,2,2,0
294,2,2,0
295,2,2,0
296,2,2,0
297,2,2,0
298,2,2,0
299,2,2,0
300,2,2,0
301,2,2,0
302,2,2,0
303,2,2,0
304,2,2,0
305,2,2,0
306,2,2,0
307,2,2,0
308,2,2,0
309,2,2,0
310,2,2,0
311,2,2,0
312,2,2,0
313,2,2,1e-07
314,2,2,1e-07
315,2,2,1e-07
316,2,2,1e-07
317,2,2,1e-07
318,2,2,1e-07
319,2,2,1e-07
320,2,2,1e-07
321,2,2,0
322,2,2,0
323,2,2,0
324,2,2,0
325,2,2,0
326,2,2,0
327,2,2,0
328,2,2,0
329,2,2,0
330,2,2,0
331,2,2,0
332,2,2,0
333,2,2,0
334,2,2,0
335,2,2,0
336,2,2,0
337,2,2,0
338,2,2,0
339,2,2,0
340,2,2,0
341,2,2,0
342,2,2,0
343,2,2,0
344,2,2,0
345,2,2,0
346,2,2,0
347,2,2,0
348,2,2,0
349,2,2,0
350,2,2,0
351,2,2,0
352,2,2,0
353,2,2,0
354,2,2,0
355,2,2,0
356,2,2,0
357,2,2,0
358,2,2,0
359,2,2,0
360,2,2,0
361,2,2,0
362,2,2,0
363,2,2,0
364,2,2,0
365,2,2,0
366,2,2,0
367,2,2,0
368,2,2,0
369,2,2,0
370,2,2,0
371,2,2,0
372,2,2,0
373,2,2,0
374,2,2,0
375,2,2,0
376,2,2,0
377,2,2,0
378,2,2,0
379,2,2,0
380,2,2,0
381,2,2,0
382,2,2,0
383,2,2,0
384,2,2,0
385,2,2,0
386,2,2,0
387,2,2,0
388,2,2,0
389,2,2,0
390,2,2,0
391,2,2,0
392,2,2,0
393,2,2,0
394,2,2,0
395,2,2,0
396,2,2,0
397,2,2,0
398,2,2,0
399,2,2,0
400,2,2,0
401,2,2,0
402,2,2,0
403,2,2,0
404,2,2,0
405,2,2,0
406,2,2,0
407,2,2,0
408,2,2,0
409,2,2,0
410,2,2,0
411,2,2,0
412,2,2,0
413,2,2,0
414,2,2,0
415,2,2,0
416,2,2,0
417,2,2,0
418,2,2,0
419,2,2,0
420,2,2,0
421,2,2,0
422,2,2,0
423,2,2,0
424,2,2,0
425,2,2,0
426,2,2,0
427,2,2,0
428,2,2,0
429,2,2,0
430,2,2,0
431,2,2,0
432,2,2,0
433,2,2,0
434,2,2,0
435,2,2,0
436,2,2,0
437,2,2,0
438,2,2,0
439,2,2,0
440,2,2,0
441,2,2,0
442,2,2,0
443,2,2,0
444,2,2,0
445,2,2,0
446,2,2,0
447,2,2,0
448,2,2,0
449,2,2,0
450,2,2,0
451,2,2,0
452,2,2,0
453,2,2,0
454,2,2,0
455,2,2,0
456,2,2,0
457,2,2,0
458,2,2,0
459,2,2,0
460,2,2,0
461,2,2,0
462,2,2,0
463,2,2,0
464,2,2,0
465,2,2,0
466,2,2,0
467,2,2,0
468,2,2,0
469,2,2,0
470,2,2,0
471,2,2,0
472,2,2,0
473,2,2,0
474,2,2,0
475,2,2,0
476,2,2,0
477,2,2,0
478,2,2,0
479,2,2,0
480,2,2,0
481,2,2,0
482,2,2,0
483,2,2,0
484,2,2,0
485,2,2,0
486,2,2,0
487,2,2,0
488,2,2,0
489,2,2,0
490,2,2,0
491,2,2,0
492,2,2,0
493,2,2,0
494,2,2,0
495,2,2,0
496,2,2,0
497,2,2,0
498,2,2,0
499,2,2,0
500,2,2,0
501,2,2,0
502,2,2,0
503,2,2,0
504,2,2,0
505,2,2,0
506,2,2,0
507,2,2,0
508,2,2,0
509,2,2,0
510,2,2,0
511,2,2,0
512,2,2,0
*Output,field,frequency=1
*Node Output,nset=UPPERNODES
U,RF
*Contact Output
CDISP,CFORCE
*End Step
*Step,name=CELL41,nlgeom=YES,inc=10
*Coupled Temperature-Displacement,steady state
1,1,1,1
*Boundary,op=NEW
FIELD,1,1,0
FIELD,11,11,300
UPPERNODES,2,2,-.0002
CONTROLS,3,5,0
1,2,2,0
2,2,2,0
3,2,2,0
4,2,2,0
5,2,2,0
6,2,2,0
7,2,2,0
8,2,2,0
9,2,2,0
10,2,2,0
11,2,2,0
12,2,2,0
13,2,2,0
14,2,2,0
15,2,2,0
16,2,2,0
17,2,2,0
18,2,2,0
19,2,2,0
20,2,2,0
21,2,2,0
22,2,2,0
23,2,2,0
24,2,2,0
25,2,2,0
26,2,2,0
27,2,2,0
28,2,2,0
29,2,2,0
30,2,2,0
31,2,2,0
32,2,2,0
33,2,2,0
34,2,2,0
35,2,2,0
36,2,2,0
37,2,2,0
38,2,2,0
39,2,2,0
40,2,2,0
41,2,2,0
42,2,2,0
43,2,2,0
44,2,2,0
45,2,2,0
46,2,2,0
47,2,2,0
48,2,2,0
49,2,2,0
50,2,2,0
51,2,2,0
52,2,2,0
53,2,2,0
54,2,2,0
55,2,2,0
56,2,2,0
57,2,2,0
58,2,2,0
59,2,2,0
60,2,2,0
61,2,2,0
62,2,2,0
63,2,2,0
64,2,2,0
65,2,2,0
66,2,2,0
67,2,2,0
68,2,2,0
69,2,2,0
70,2,2,0
71,2,2,0
72,2,2,0
73,2,2,0
74,2,2,0
75,2,2,0
76,2,2,0
77,2,2,0
78,2,2,0
79,2,2,0
80,2,2,0
81,2,2,0
82,2,2,0
83,2,2,0
84,2,2,0
85,2,2,0
86,2,2,0
87,2,2,0
88,2,2,0
89,2,2,0
90,2,2,0
91,2,2,0
92,2,2,0
93,2,2,0
94,2,2,0
95,2,2,0
96,2,2,0
97,2,2,0
98,2,2,0
99,2,2,0
100,2,2,0
101,2,2,0
102,2,2,0
103,2,2,0
104,2,2,0
105,2,2,0
106,2,2,0
107,2,2,0
108,2,2,0
109,2,2,0
110,2,2,0
111,2,2,0
112,2,2,0
113,2,2,0
114,2,2,0
115,2,2,0
116,2,2,0
117,2,2,0
118,2,2,0
119,2,2,0
120,2,2,0
121,2,2,0
122,2,2,0
123,2,2,0
124,2,2,0
125,2,2,0
126,2,2,0
127,2,2,0
128,2,2,0
129,2,2,0
130,2,2,0
131,2,2,0
132,2,2,0
133,2,2,0
134,2,2,0
135,2,2,0
136,2,2,0
137,2,2,0
138,2,2,0
139,2,2,0
140,2,2,0
141,2,2,0
142,2,2,0
143,2,2,0
144,2,2,0
145,2,2,0
146,2,2,0
147,2,2,0
148,2,2,0
149,2,2,0
150,2,2,0
151,2,2,0
152,2,2,0
153,2,2,0
154,2,2,0
155,2,2,0
156,2,2,0
157,2,2,0
158,2,2,0
159,2,2,0
160,2,2,0
161,2,2,0
162,2,2,0
163,2,2,0
164,2,2,0
165,2,2,0
166,2,2,0
167,2,2,0
168,2,2,0
169,2,2,0
170,2,2,0
171,2,2,0
172,2,2,0
173,2,2,0
174,2,2,0
175,2,2,0
176,2,2,0
177,2,2,0
178,2,2,0
179,2,2,0
180,2,2,0
181,2,2,0
182,2,2,0
183,2,2,0
184,2,2,0
185,2,2,0
186,2,2,0
187,2,2,0
188,2,2,0
189,2,2,0
190,2,2,0
191,2,2,0
192,2,2,0
193,2,2,0
194,2,2,0
195,2,2,0
196,2,2,0
197,2,2,0
198,2,2,0
199,2,2,0
200,2,2,0
201,2,2,0
202,2,2,0
203,2,2,0
204,2,2,0
205,2,2,0
206,2,2,0
207,2,2,0
208,2,2,0
209,2,2,0
210,2,2,0
211,2,2,0
212,2,2,0
213,2,2,0
214,2,2,0
215,2,2,0
216,2,2,0
217,2,2,0
218,2,2,0
219,2,2,0
220,2,2,0
221,2,2,0
222,2,2,0
223,2,2,0
224,2,2,0
225,2,2,0
226,2,2,0
227,2,2,0
228,2,2,0
229,2,2,0
230,2,2,0
231,2,2,0
232,2,2,0
233,2,2,0
234,2,2,0
235,2,2,0
236,2,2,0
237,2,2,0
238,2,2,0
239,2,2,0
240,2,2,0
241,2,2,0
242,2,2,0
243,2,2,0
244,2,2,0
245,2,2,0
246,2,2,0
247,2,2,0
248,2,2,0
249,2,2,0
250,2,2,0
251,2,2,0
252,2,2,0
253,2,2,0
254,2,2,0
255,2,2,0
256,2,2,0
257,2,2,0
258,2,2,0
259,2,2,0
260,2,2,0
261,2,2,0
262,2,2,0
263,2,2,0
264,2,2,0
265,2,2,0
266,2,2,0
267,2,2,0
268,2,2,0
269,2,2,0
270,2,2,0
271,2,2,0
272,2,2,0
273,2,2,0
274,2,2,0
275,2,2,0
276,2,2,0
277,2,2,0
278,2,2,0
279,2,2,0
280,2,2,0
281,2,2,0
282,2,2,0
283,2,2,0
284,2,2,0
285,2,2,0
286,2,2,0
287,2,2,0
288,2,2,0
289,2,2,0
290,2,2,0
291,2,2,0
292,2,2,0
293,2,2,0
294,2,2,0
295,2,2,0
296,2,2,0
297,2,2,0
298,2,2,0
299,2,2,0
300,2,2,0
301,2,2,0
302,2,2,0
303,2,2,0
304,2,2,0
305,2,2,0
306,2,2,0
307,2,2,0
308,2,2,0
309,2,2,0
310,2,2,0
311,2,2,0
312,2,2,0
313,2,2,0
314,2,2,0
315,2,2,0
316,2,2,0
317,2,2,0
318,2,2,0
319,2,2,0
320,2,2,0
321,2,2,1e-07
322,2,2,1e-07
323,2,2,1e-07
324,2,2,1e-07
325,2,2,1e-07
326,2,2,1e-07
327,2,2,1e-07
328,2,2,1e-07
329,2,2,0
330,2,2,0
331,2,2,0
332,2,2,0
333,2,2,0
334,2,2,0
335,2,2,0
336,2,2,0
337,2,2,0
338,2,2,0
339,2,2,0
340,2,2,0
341,2,2,0
342,2,2,0
343,2,2,0
344,2,2,0
345,2,2,0
346,2,2,0
347,2,2,0
348,2,2,0
349,2,2,0
350,2,2,0
351,2,2,0
352,2,2,0
353,2,2,0
354,2,2,0
355,2,2,0
356,2,2,0
357,2,2,0
358,2,2,0
359,2,2,0
360,2,2,0
361,2,2,0
362,2,2,0
363,2,2,0
364,2,2,0
365,2,2,0
366,2,2,0
367,2,2,0
368,2,2,0
369,2,2,0
370,2,2,0
371,2,2,0
372,2,2,0
373,2,2,0
374,2,2,0
375,2,2,0
376,2,2,0
377,2,2,0
378,2,2,0
379,2,2,0
380,2,2,0
381,2,2,0
382,2,2,0
383,2,2,0
384,2,2,0
385,2,2,0
386,2,2,0
387,2,2,0
388,2,2,0
389,2,2,0
390,2,2,0
391,2,2,0
392,2,2,0
393,2,2,0
394,2,2,0
395,2,2,0
396,2,2,0
397,2,2,0
398,2,2,0
399,2,2,0
400,2,2,0
401,2,2,0
402,2,2,0
403,2,2,0
404,2,2,0
405,2,2,0
406,2,2,0
407,2,2,0
408,2,2,0
409,2,2,0
410,2,2,0
411,2,2,0
412,2,2,0
413,2,2,0
414,2,2,0
415,2,2,0
416,2,2,0
417,2,2,0
418,2,2,0
419,2,2,0
420,2,2,0
421,2,2,0
422,2,2,0
423,2,2,0
424,2,2,0
425,2,2,0
426,2,2,0
427,2,2,0
428,2,2,0
429,2,2,0
430,2,2,0
431,2,2,0
432,2,2,0
433,2,2,0
434,2,2,0
435,2,2,0
436,2,2,0
437,2,2,0
438,2,2,0
439,2,2,0
440,2,2,0
441,2,2,0
442,2,2,0
443,2,2,0
444,2,2,0
445,2,2,0
446,2,2,0
447,2,2,0
448,2,2,0
449,2,2,0
450,2,2,0
451,2,2,0
452,2,2,0
453,2,2,0
454,2,2,0
455,2,2,0
456,2,2,0
457,2,2,0
458,2,2,0
459,2,2,0
460,2,2,0
461,2,2,0
462,2,2,0
463,2,2,0
464,2,2,0
465,2,2,0
466,2,2,0
467,2,2,0
468,2,2,0
469,2,2,0
470,2,2,0
471,2,2,0
472,2,2,0
473,2,2,0
474,2,2,0
475,2,2,0
476,2,2,0
477,2,2,0
478,2,2,0
479,2,2,0
480,2,2,0
481,2,2,0
482,2,2,0
483,2,2,0
484,2,2,0
485,2,2,0
486,2,2,0
487,2,2,0
488,2,2,0
489,2,2,0
490,2,2,0
491,2,2,0
492,2,2,0
493,2,2,0
494,2,2,0
495,2,2,0
496,2,2,0
497,2,2,0
498,2,2,0
499,2,2,0
500,2,2,0
501,2,2,0
502,2,2,0
503,2,2,0
504,2,2,0
505,2,2,0
506,2,2,0
507,2,2,0
508,2,2,0
509,2,2,0
510,2,2,0
511,2,2,0
512,2,2,0
*Output,field,frequency=1
*Node Output,nset=UPPERNODES
U,RF
*Contact Output
CDISP,CFORCE
*End Step
*Step,name=CELL42,nlgeom=YES,inc=10
*Coupled Temperature-Displacement,steady state
1,1,1,1
*Boundary,op=NEW
FIELD,1,1,0
FIELD,11,11,300
UPPERNODES,2,2,-.0002
CONTROLS,3,5,0
1,2,2,0
2,2,2,0
3,2,2,0
4,2,2,0
5,2,2,0
6,2,2,0
7,2,2,0
8,2,2,0
9,2,2,0
10,2,2,0
11,2,2,0
12,2,2,0
13,2,2,0
14,2,2,0
15,2,2,0
16,2,2,0
17,2,2,0
18,2,2,0
19,2,2,0
20,2,2,0
21,2,2,0
22,2,2,0
23,2,2,0
24,2,2,0
25,2,2,0
26,2,2,0
27,2,2,0
28,2,2,0
29,2,2,0
30,2,2,0
31,2,2,0
32,2,2,0
33,2,2,0
34,2,2,0
35,2,2,0
36,2,2,0
37,2,2,0
38,2,2,0
39,2,2,0
40,2,2,0
41,2,2,0
42,2,2,0
43,2,2,0
44,2,2,0
45,2,2,0
46,2,2,0
47,2,2,0
48,2,2,0
49,2,2,0
50,2,2,0
51,2,2,0
52,2,2,0
53,2,2,0
54,2,2,0
55,2,2,0
56,2,2,0
57,2,2,0
58,2,2,0
59,2,2,0
60,2,2,0
61,2,2,0
62,2,2,0
63,2,2,0
64,2,2,0
65,2,2,0
66,2,2,0
67,2,2,0
68,2,2,0
69,2,2,0
70,2,2,0
71,2,2,0
72,2,2,0
73,2,2,0
74,2,2,0
75,2,2,0
76,2,2,0
77,2,2,0
78,2,2,0
79,2,2,0
80,2,2,0
81,2,2,0
82,2,2,0
83,2,2,0
84,2,2,0
85,2,2,0
86,2,2,0
87,2,2,0
88,2,2,0
89,2,2,0
90,2,2,0
91,2,2,0
92,2,2,0
93,2,2,0
94,2,2,0
95,2,2,0
96,2,2,0
97,2,2,0
98,2,2,0
99,2,2,0
100,2,2,0
101,2,2,0
102,2,2,0
103,2,2,0
104,2,2,0
105,2,2,0
106,2,2,0
107,2,2,0
108,2,2,0
109,2,2,0
110,2,2,0
111,2,2,0
112,2,2,0
113,2,2,0
114,2,2,0
115,2,2,0
116,2,2,0
117,2,2,0
118,2,2,0
119,2,2,0
120,2,2,0
121,2,2,0
122,2,2,0
123,2,2,0
124,2,2,0
125,2,2,0
126,2,2,0
127,2,2,0
128,2,2,0
129,2,2,0
130,2,2,0
131,2,2,0
132,2,2,0
133,2,2,0
134,2,2,0
135,2,2,0
136,2,2,0
137,2,2,0
138,2,2,0
139,2,2,0
140,2,2,0
141,2,2,0
142,2,2,0
143,2,2,0
144,2,2,0
145,2,2,0
146,2,2,0
147,2,2,0
148,2,2,0
149,2,2,0
150,2,2,0
151,2,2,0
152,2,2,0
153,2,2,0
154,2,2,0
155,2,2,0
156,2,2,0
157,2,2,0
158,2,2,0
159,2,2,0
160,2,2,0
161,2,2,0
162,2,2,0
163,2,2,0
164,2,2,0
165,2,2,0
166,2,2,0
167,2,2,0
168,2,2,0
169,2,2,0
170,2,2,0
171,2,2,0
172,2,2,0
173,2,2,0
174,2,2,0
175,2,2,0
176,2,2,0
177,2,2,0
178,2,2,0
179,2,2,0
180,2,2,0
181,2,2,0
182,2,2,0
183,2,2,0
184,2,2,0
185,2,2,0
186,2,2,0
187,2,2,0
188,2,2,0
189,2,2,0
190,2,2,0
191,2,2,0
192,2,2,0
193,2,2,0
194,2,2,0
195,2,2,0
196,2,2,0
197,2,2,0
198,2,2,0
199,2,2,0
200,2,2,0
201,2,2,0
202,2,2,0
203,2,2,0
204,2,2,0
205,2,2,0
206,2,2,0
207,2,2,0
208,2,2,0
209,2,2,0
210,2,2,0
211,2,2,0
212,2,2,0
213,2,2,0
214,2,2,0
215,2,2,0
216,2,2,0
217,2,2,0
218,2,2,0
219,2,2,0
220,2,2,0
221,2,2,0
222,2,2,0
223,2,2,0
224,2,2,0
225,2,2,0
226,2,2,0
227,2,2,0
228,2,2,0
229,2,2,0
230,2,2,0
231,2,2,0
232,2,2,0
233,2,2,0
234,2,2,0
235,2,2,0
236,2,2,0
237,2,2,0
238,2,2,0
239,2,2,0
240,2,2,0
241,2,2,0
242,2,2,0
243,2,2,0
244,2,2,0
245,2,2,0
246,2,2,0
247,2,2,0
248,2,2,0
249,2,2,0
250,2,2,0
251,2,2,0
252,2,2,0
253,2,2,0
254,2,2,0
255,2,2,0
256,2,2,0
257,2,2,0
258,2,2,0
259,2,2,0
260,2,2,0
261,2,2,0
262,2,2,0
263,2,2,0
264,2,2,0
265,2,2,0
266,2,2,0
267,2,2,0
268,2,2,0
269,2,2,0
270,2,2,0
271,2,2,0
272,2,2,0
273,2,2,0
274,2,2,0
275,2,2,0
276,2,2,0
277,2,2,0
278,2,2,0
279,2,2,0
280,2,2,0
281,2,2,0
282,2,2,0
283,2,2,0
284,2,2,0
285,2,2,0
286,2,2,0
287,2,2,0
288,2,2,0
289,2,2,0
290,2,2,0
291,2,2,0
292,2,2,0
293,2,2,0
294,2,2,0
295,2,2,0
296,2,2,0
297,2,2,0
298,2,2,0
299,2,2,0
300,2,2,0
301,2,2,0
302,2,2,0
303,2,2,0
304,2,2,0
305,2,2,0
306,2,2,0
307,2,2,0
308,2,2,0
309,2,2,0
310,2,2,0
311,2,2,0
312,2,2,0
313,2,2,0
314,2,2,0
315,2,2,0
316,2,2,0
317,2,2,0
318,2,2,0
319,2,2,0
320,2,2,0
321,2,2,0
322,2,2,0
323,2,2,0
324,2,2,0
325,2,2,0
326,2,2,0
327,2,2,0
328,2,2,0
329,2,2,1e-07
330,2,2,1e-07
331,2,2,1e-07
332,2,2,1e-07
333,2,2,1e-07
334,2,2,1e-07
335,2,2,1e-07
336,2,2,1e-07
337,2,2,0
338,2,2,0
339,2,2,0
340,2,2,0
341,2,2,0
342,2,2,0
343,2,2,0
344,2,2,0
345,2,2,0
346,2,2,0
347,2,2,0
348,2,2,0
349,2,2,0
350,2,2,0
351,2,2,0
352,2,2,0
353,2,2,0
354,2,2,0
355,2,2,0
356,2,2,0
357,2,2,0
358,2,2,0
359,2,2,0
360,2,2,0
361,2,2,0
362,2,2,0
363,2,2,0
364,2,2,0
365,2,2,0
366,2,2,0
367,2,2,0
368,2,2,0
369,2,2,0
370,2,2,0
371,2,2,0
372,2,2,0
373,2,2,0
374,2,2,0
375,2,2,0
376,2,2,0
377,2,2,0
378,2,2,0
379,2,2,0
380,2,2,0
381,2,2,0
382,2,2,0
383,2,2,0
384,2,2,0
385,2,2,0
386,2,2,0
387,2,2,0
388,2,2,0
389,2,2,0
390,2,2,0
391,2,2,0
392,2,2,0
393,2,2,0
394,2,2,0
395,2,2,0
396,2,2,0
397,2,2,0
398,2,2,0
399,2,2,0
400,2,2,0
401,2,2,0
402,2,2,0
403,2,2,0
404,2,2,0
405,2,2,0
406,2,2,0
407,2,2,0
408,2,2,0
409,2,2,0
410,2,2,0
411,2,2,0
412,2,2,0
413,2,2,0
414,2,2,0
415,2,2,0
416,2,2,0
417,2,2,0
418,2,2,0
419,2,2,0
420,2,2,0
421,2,2,0
422,2,2,0
423,2,2,0
424,2,2,0
425,2,2,0
426,2,2,0
427,2,2,0
428,2,2,0
429,2,2,0
430,2,2,0
431,2,2,0
432,2,2,0
433,2,2,0
434,2,2,0
435,2,2,0
436,2,2,0
437,2,2,0
438,2,2,0
439,2,2,0
440,2,2,0
441,2,2,0
442,2,2,0
443,2,2,0
444,2,2,0
445,2,2,0
446,2,2,0
447,2,2,0
448,2,2,0
449,2,2,0
450,2,2,0
451,2,2,0
452,2,2,0
453,2,2,0
454,2,2,0
455,2,2,0
456,2,2,0
457,2,2,0
458,2,2,0
459,2,2,0
460,2,2,0
461,2,2,0
462,2,2,0
463,2,2,0
464,2,2,0
465,2,2,0
466,2,2,0
467,2,2,0
468,2,2,0
469,2,2,0
470,2,2,0
471,2,2,0
472,2,2,0
473,2,2,0
474,2,2,0
475,2,2,0
476,2,2,0
477,2,2,0
478,2,2,0
479,2,2,0
480,2,2,0
481,2,2,0
482,2,2,0
483,2,2,0
484,2,2,0
485,2,2,0
486,2,2,0
487,2,2,0
488,2,2,0
489,2,2,0
490,2,2,0
491,2,2,0
492,2,2,0
493,2,2,0
494,2,2,0
495,2,2,0
496,2,2,0
497,2,2,0
498,2,2,0
499,2,2,0
500,2,2,0
501,2,2,0
502,2,2,0
503,2,2,0
504,2,2,0
505,2,2,0
506,2,2,0
507,2,2,0
508,2,2,0
509,2,2,0
510,2,2,0
511,2,2,0
512,2,2,0
*Output,field,frequency=1
*Node Output,nset=UPPERNODES
U,RF
*Contact Output
CDISP,CFORCE
*End Step
*Step,name=CELL43,nlgeom=YES,inc=10
*Coupled Temperature-Displacement,steady state
1,1,1,1
*Boundary,op=NEW
FIELD,1,1,0
FIELD,11,11,300
UPPERNODES,2,2,-.0002
CONTROLS,3,5,0
1,2,2,0
2,2,2,0
3,2,2,0
4,2,2,0
5,2,2,0
6,2,2,0
7,2,2,0
8,2,2,0
9,2,2,0
10,2,2,0
11,2,2,0
12,2,2,0
13,2,2,0
14,2,2,0
15,2,2,0
16,2,2,0
17,2,2,0
18,2,2,0
19,2,2,0
20,2,2,0
21,2,2,0
22,2,2,0
23,2,2,0
24,2,2,0
25,2,2,0
26,2,2,0
27,2,2,0
28,2,2,0
29,2,2,0
30,2,2,0
31,2,2,0
32,2,2,0
33,2,2,0
34,2,2,0
35,2,2,0
36,2,2,0
37,2,2,0
38,2,2,0
39,2,2,0
40,2,2,0
41,2,2,0
42,2,2,0
43,2,2,0
44,2,2,0
45,2,2,0
46,2,2,0
47,2,2,0
48,2,2,0
49,2,2,0
50,2,2,0
51,2,2,0
52,2,2,0
53,2,2,0
54,2,2,0
55,2,2,0
56,2,2,0
57,2,2,0
58,2,2,0
59,2,2,0
60,2,2,0
61,2,2,0
62,2,2,0
63,2,2,0
64,2,2,0
65,2,2,0
66,2,2,0
67,2,2,0
68,2,2,0
69,2,2,0
70,2,2,0
71,2,2,0
72,2,2,0
73,2,2,0
74,2,2,0
75,2,2,0
76,2,2,0
77,2,2,0
78,2,2,0
79,2,2,0
80,2,2,0
81,2,2,0
82,2,2,0
83,2,2,0
84,2,2,0
85,2,2,0
86,2,2,0
87,2,2,0
88,2,2,0
89,2,2,0
90,2,2,0
91,2,2,0
92,2,2,0
93,2,2,0
94,2,2,0
95,2,2,0
96,2,2,0
97,2,2,0
98,2,2,0
99,2,2,0
100,2,2,0
101,2,2,0
102,2,2,0
103,2,2,0
104,2,2,0
105,2,2,0
106,2,2,0
107,2,2,0
108,2,2,0
109,2,2,0
110,2,2,0
111,2,2,0
112,2,2,0
113,2,2,0
114,2,2,0
115,2,2,0
116,2,2,0
117,2,2,0
118,2,2,0
119,2,2,0
120,2,2,0
121,2,2,0
122,2,2,0
123,2,2,0
124,2,2,0
125,2,2,0
126,2,2,0
127,2,2,0
128,2,2,0
129,2,2,0
130,2,2,0
131,2,2,0
132,2,2,0
133,2,2,0
134,2,2,0
135,2,2,0
136,2,2,0
137,2,2,0
138,2,2,0
139,2,2,0
140,2,2,0
141,2,2,0
142,2,2,0
143,2,2,0
144,2,2,0
145,2,2,0
146,2,2,0
147,2,2,0
148,2,2,0
149,2,2,0
150,2,2,0
151,2,2,0
152,2,2,0
153,2,2,0
154,2,2,0
155,2,2,0
156,2,2,0
157,2,2,0
158,2,2,0
159,2,2,0
160,2,2,0
161,2,2,0
162,2,2,0
163,2,2,0
164,2,2,0
165,2,2,0
166,2,2,0
167,2,2,0
168,2,2,0
169,2,2,0
170,2,2,0
171,2,2,0
172,2,2,0
173,2,2,0
174,2,2,0
175,2,2,0
176,2,2,0
177,2,2,0
178,2,2,0
179,2,2,0
180,2,2,0
181,2,2,0
182,2,2,0
183,2,2,0
184,2,2,0
185,2,2,0
186,2,2,0
187,2,2,0
188,2,2,0
189,2,2,0
190,2,2,0
191,2,2,0
192,2,2,0
193,2,2,0
194,2,2,0
195,2,2,0
196,2,2,0
197,2,2,0
198,2,2,0
199,2,2,0
200,2,2,0
201,2,2,0
202,2,2,0
203,2,2,0
204,2,2,0
205,2,2,0
206,2,2,0
207,2,2,0
208,2,2,0
209,2,2,0
210,2,2,0
211,2,2,0
212,2,2,0
213,2,2,0
214,2,2,0
215,2,2,0
216,2,2,0
217,2,2,0
218,2,2,0
219,2,2,0
220,2,2,0
221,2,2,0
222,2,2,0
223,2,2,0
224,2,2,0
225,2,2,0
226,2,2,0
227,2,2,0
228,2,2,0
229,2,2,0
230,2,2,0
231,2,2,0
232,2,2,0
233,2,2,0
234,2,2,0
235,2,2,0
236,2,2,0
237,2,2,0
238,2,2,0
239,2,2,0
240,2,2,0
241,2,2,0
242,2,2,0
243,2,2,0
244,2,2,0
245,2,2,0
246,2,2,0
247,2,2,0
248,2,2,0
249,2,2,0
250,2,2,0
251,2,2,0
252,2,2,0
253,2,2,0
254,2,2,0
255,2,2,0
256,2,2,0
257,2,2,0
258,2,2,0
259,2,2,0
260,2,2,0
261,2,2,0
262,2,2,0
263,2,2,0
264,2,2,0
265,2,2,0
266,2,2,0
267,2,2,0
268,2,2,0
269,2,2,0
270,2,2,0
271,2,2,0
272,2,2,0
273,2,2,0
274,2,2,0
275,2,2,0
276,2,2,0
277,2,2,0
278,2,2,0
279,2,2,0
280,2,2,0
281,2,2,0
282,2,2,0
283,2,2,0
284,2,2,0
285,2,2,0
286,2,2,0
287,2,2,0
288,2,2,0
289,2,2,0
290,2,2,0
291,2,2,0
292,2,2,0
293,2,2,0
294,2,2,0
295,2,2,0
296,2,2,0
297,2,2,0
298,2,2,0
299,2,2,0
300,2,2,0
301,2,2,0
302,2,2,0
303,2,2,0
304,2,2,0
305,2,2,0
306,2,2,0
307,2,2,0
308,2,2,0
309,2,2,0
310,2,2,0
311,2,2,0
312,2,2,0
313,2,2,0
314,2,2,0
315,2,2,0
316,2,2,0
317,2,2,0
318,2,2,0
319,2,2,0
320,2,2,0
321,2,2,0
322,2,2,0
323,2,2,0
324,2,2,0
325,2,2,0
326,2,2,0
327,2,2,0
328,2,2,0
329,2,2,0
330,2,2,0
331,2,2,0
332,2,2,0
333,2,2,0
334,2,2,0
335,2,2,0
336,2,2,0
337,2,2,1e-07
338,2,2,1e-07
339,2,2,1e-07
340,2,2,1e-07
341,2,2,1e-07
342,2,2,1e-07
343,2,2,1e-07
344,2,2,1e-07
345,2,2,0
346,2,2,0
347,2,2,0
348,2,2,0
349,2,2,0
350,2,2,0
351,2,2,0
352,2,2,0
353,2,2,0
354,2,2,0
355,2,2,0
356,2,2,0
357,2,2,0
358,2,2,0
359,2,2,0
360,2,2,0
361,2,2,0
362,2,2,0
363,2,2,0
364,2,2,0
365,2,2,0
366,2,2,0
367,2,2,0
368,2,2,0
369,2,2,0
370,2,2,0
371,2,2,0
372,2,2,0
373,2,2,0
374,2,2,0
375,2,2,0
376,2,2,0
377,2,2,0
378,2,2,0
379,2,2,0
380,2,2,0
381,2,2,0
382,2,2,0
383,2,2,0
384,2,2,0
385,2,2,0
386,2,2,0
387,2,2,0
388,2,2,0
389,2,2,0
390,2,2,0
391,2,2,0
392,2,2,0
393,2,2,0
394,2,2,0
395,2,2,0
396,2,2,0
397,2,2,0
398,2,2,0
399,2,2,0
400,2,2,0
401,2,2,0
402,2,2,0
403,2,2,0
404,2,2,0
405,2,2,0
406,2,2,0
407,2,2,0
408,2,2,0
409,2,2,0
410,2,2,0
411,2,2,0
412,2,2,0
413,2,2,0
414,2,2,0
415,2,2,0
416,2,2,0
417,2,2,0
418,2,2,0
419,2,2,0
420,2,2,0
421,2,2,0
422,2,2,0
423,2,2,0
424,2,2,0
425,2,2,0
426,2,2,0
427,2,2,0
428,2,2,0
429,2,2,0
430,2,2,0
431,2,2,0
432,2,2,0
433,2,2,0
434,2,2,0
435,2,2,0
436,2,2,0
437,2,2,0
438,2,2,0
439,2,2,0
440,2,2,0
441,2,2,0
442,2,2,0
443,2,2,0
444,2,2,0
445,2,2,0
446,2,2,0
447,2,2,0
448,2,2,0
449,2,2,0
450,2,2,0
451,2,2,0
452,2,2,0
453,2,2,0
454,2,2,0
455,2,2,0
456,2,2,0
457,2,2,0
458,2,2,0
459,2,2,0
460,2,2,0
461,2,2,0
462,2,2,0
463,2,2,0
464,2,2,0
465,2,2,0
466,2,2,0
467,2,2,0
468,2,2,0
469,2,2,0
470,2,2,0
471,2,2,0
472,2,2,0
473,2,2,0
474,2,2,0
475,2,2,0
476,2,2,0
477,2,2,0
478,2,2,0
479,2,2,0
480,2,2,0
481,2,2,0
482,2,2,0
483,2,2,0
484,2,2,0
485,2,2,0
486,2,2,0
487,2,2,0
488,2,2,0
489,2,2,0
490,2,2,0
491,2,2,0
492,2,2,0
493,2,2,0
494,2,2,0
495,2,2,0
496,2,2,0
497,2,2,0
498,2,2,0
499,2,2,0
500,2,2,0
501,2,2,0
502,2,2,0
503,2,2,0
504,2,2,0
505,2,2,0
506,2,2,0
507,2,2,0
508,2,2,0
509,2,2,0
510,2,2,0
511,2,2,0
512,2,2,0
*Output,field,frequency=1
*Node Output,nset=UPPERNODES
U,RF
*Contact Output
CDISP,CFORCE
*End Step
*Step,name=CELL44,nlgeom=YES,inc=10
*Coupled Temperature-Displacement,steady state
1,1,1,1
*Boundary,op=NEW
FIELD,1,1,0
FIELD,11,11,300
UPPERNODES,2,2,-.0002
CONTROLS,3,5,0
1,2,2,0
2,2,2,0
3,2,2,0
4,2,2,0
5,2,2,0
6,2,2,0
7,2,2,0
8,2,2,0
9,2,2,0
10,2,2,0
11,2,2,0
12,2,2,0
13,2,2,0
14,2,2,0
15,2,2,0
16,2,2,0
17,2,2,0
18,2,2,0
19,2,2,0
20,2,2,0
21,2,2,0
22,2,2,0
23,2,2,0
24,2,2,0
25,2,2,0
26,2,2,0
27,2,2,0
28,2,2,0
29,2,2,0
30,2,2,0
31,2,2,0
32,2,2,0
33,2,2,0
34,2,2,0
35,2,2,0
36,2,2,0
37,2,2,0
38,2,2,0
39,2,2,0
40,2,2,0
41,2,2,0
42,2,2,0
43,2,2,0
44,2,2,0
45,2,2,0
46,2,2,0
47,2,2,0
48,2,2,0
49,2,2,0
50,2,2,0
51,2,2,0
52,2,2,0
53,2,2,0
54,2,2,0
55,2,2,0
56,2,2,0
57,2,2,0
58,2,2,0
59,2,2,0
60,2,2,0
61,2,2,0
62,2,2,0
63,2,2,0
64,2,2,0
65,2,2,0
66,2,2,0
67,2,2,0
68,2,2,0
69,2,2,0
70,2,2,0
71,2,2,0
72,2,2,0
73,2,2,0
74,2,2,0
75,2,2,0
76,2,2,0
77,2,2,0
78,2,2,0
79,2,2,0
80,2,2,0
81,2,2,0
82,2,2,0
83,2,2,0
84,2,2,0
85,2,2,0
86,2,2,0
87,2,2,0
88,2,2,0
89,2,2,0
90,2,2,0
91,2,2,0
92,2,2,0
93,2,2,0
94,2,2,0
95,2,2,0
96,2,2,0
97,2,2,0
98,2,2,0
99,2,2,0
100,2,2,0
101,2,2,0
102,2,2,0
103,2,2,0
104,2,2,0
105,2,2,0
106,2,2,0
107,2,2,0
108,2,2,0
109,2,2,0
110,2,2,0
111,2,2,0
112,2,2,0
113,2,2,0
114,2,2,0
115,2,2,0
116,2,2,0
117,2,2,0
118,2,2,0
119,2,2,0
120,2,2,0
121,2,2,0
122,2,2,0
123,2,2,0
124,2,2,0
125,2,2,0
126,2,2,0
127,2,2,0
128,2,2,0
129,2,2,0
130,2,2,0
131,2,2,0
132,2,2,0
133,2,2,0
134,2,2,0
135,2,2,0
136,2,2,0
137,2,2,0
138,2,2,0
139,2,2,0
140,2,2,0
141,2,2,0
142,2,2,0
143,2,2,0
144,2,2,0
145,2,2,0
146,2,2,0
147,2,2,0
148,2,2,0
149,2,2,0
150,2,2,0
151,2,2,0
152,2,2,0
153,2,2,0
154,2,2,0
155,2,2,0
156,2,2,0
157,2,2,0
158,2,2,0
159,2,2,0
160,2,2,0
161,2,2,0
162,2,2,0
163,2,2,0
164,2,2,0
165,2,2,0
166,2,2,0
167,2,2,0
168,2,2,0
169,2,2,0
170,2,2,0
171,2,2,0
172,2,2,0
173,2,2,0
174,2,2,0
175,2,2,0
176,2,2,0
177,2,2,0
178,2,2,0
179,2,2,0
180,2,2,0
181,2,2,0
182,2,2,0
183,2,2,0
184,2,2,0
185,2,2,0
186,2,2,0
187,2,2,0
188,2,2,0
189,2,2,0
190,2,2,0
191,2,2,0
192,2,2,0
193,2,2,0
194,2,2,0
195,2,2,0
196,2,2,0
197,2,2,0
198,2,2,0
199,2,2,0
200,2,2,0
201,2,2,0
202,2,2,0
203,2,2,0
204,2,2,0
205,2,2,0
206,2,2,0
207,2,2,0
208,2,2,0
209,2,2,0
210,2,2,0
211,2,2,0
212,2,2,0
213,2,2,0
214,2,2,0
215,2,2,0
216,2,2,0
217,2,2,0
218,2,2,0
219,2,2,0
220,2,2,0
221,2,2,0
222,2,2,0
223,2,2,0
224,2,2,0
225,2,2,0
226,2,2,0
227,2,2,0
228,2,2,0
229,2,2,0
230,2,2,0
231,2,2,0
232,2,2,0
233,2,2,0
234,2,2,0
235,2,2,0
236,2,2,0
237,2,2,0
238,2,2,0
239,2,2,0
240,2,2,0
241,2,2,0
242,2,2,0
243,2,2,0
244,2,2,0
245,2,2,0
246,2,2,0
247,2,2,0
248,2,2,0
249,2,2,0
250,2,2,0
251,2,2,0
252,2,2,0
253,2,2,0
254,2,2,0
255,2,2,0
256,2,2,0
257,2,2,0
258,2,2,0
259,2,2,0
260,2,2,0
261,2,2,0
262,2,2,0
263,2,2,0
264,2,2,0
265,2,2,0
266,2,2,0
267,2,2,0
268,2,2,0
269,2,2,0
270,2,2,0
271,2,2,0
272,2,2,0
273,2,2,0
274,2,2,0
275,2,2,0
276,2,2,0
277,2,2,0
278,2,2,0
279,2,2,0
280,2,2,0
281,2,2,0
282,2,2,0
283,2,2,0
284,2,2,0
285,2,2,0
286,2,2,0
287,2,2,0
288,2,2,0
289,2,2,0
290,2,2,0
291,2,2,0
292,2,2,0
293,2,2,0
294,2,2,0
295,2,2,0
296,2,2,0
297,2,2,0
298,2,2,0
299,2,2,0
300,2,2,0
301,2,2,0
302,2,2,0
303,2,2,0
304,2,2,0
305,2,2,0
306,2,2,0
307,2,2,0
308,2,2,0
309,2,2,0
310,2,2,0
311,2,2,0
312,2,2,0
313,2,2,0
314,2,2,0
315,2,2,0
316,2,2,0
317,2,2,0
318,2,2,0
319,2,2,0
320,2,2,0
321,2,2,0
322,2,2,0
323,2,2,0
324,2,2,0
325,2,2,0
326,2,2,0
327,2,2,0
328,2,2,0
329,2,2,0
330,2,2,0
331,2,2,0
332,2,2,0
333,2,2,0
334,2,2,0
335,2,2,0
336,2,2,0
337,2,2,0
338,2,2,0
339,2,2,0
340,2,2,0
341,2,2,0
342,2,2,0
343,2,2,0
344,2,2,0
345,2,2,1e-07
346,2,2,1e-07
347,2,2,1e-07
348,2,2,1e-07
349,2,2,1e-07
350,2,2,1e-07
351,2,2,1e-07
352,2,2,1e-07
353,2,2,0
354,2,2,0
355,2,2,0
356,2,2,0
357,2,2,0
358,2,2,0
359,2,2,0
360,2,2,0
361,2,2,0
362,2,2,0
363,2,2,0
364,2,2,0
365,2,2,0
366,2,2,0
367,2,2,0
368,2,2,0
369,2,2,0
370,2,2,0
371,2,2,0
372,2,2,0
373,2,2,0
374,2,2,0
375,2,2,0
376,2,2,0
377,2,2,0
378,2,2,0
379,2,2,0
380,2,2,0
381,2,2,0
382,2,2,0
383,2,2,0
384,2,2,0
385,2,2,0
386,2,2,0
387,2,2,0
388,2,2,0
389,2,2,0
390,2,2,0
391,2,2,0
392,2,2,0
393,2,2,0
394,2,2,0
395,2,2,0
396,2,2,0
397,2,2,0
398,2,2,0
399,2,2,0
400,2,2,0
401,2,2,0
402,2,2,0
403,2,2,0
404,2,2,0
405,2,2,0
406,2,2,0
407,2,2,0
408,2,2,0
409,2,2,0
410,2,2,0
411,2,2,0
412,2,2,0
413,2,2,0
414,2,2,0
415,2,2,0
416,2,2,0
417,2,2,0
418,2,2,0
419,2,2,0
420,2,2,0
421,2,2,0
422,2,2,0
423,2,2,0
424,2,2,0
425,2,2,0
426,2,2,0
427,2,2,0
428,2,2,0
429,2,2,0
430,2,2,0
431,2,2,0
432,2,2,0
433,2,2,0
434,2,2,0
435,2,2,0
436,2,2,0
437,2,2,0
438,2,2,0
439,2,2,0
440,2,2,0
441,2,2,0
442,2,2,0
443,2,2,0
444,2,2,0
445,2,2,0
446,2,2,0
447,2,2,0
448,2,2,0
449,2,2,0
450,2,2,0
451,2,2,0
452,2,2,0
453,2,2,0
454,2,2,0
455,2,2,0
456,2,2,0
457,2,2,0
458,2,2,0
459,2,2,0
460,2,2,0
461,2,2,0
462,2,2,0
463,2,2,0
464,2,2,0
465,2,2,0
466,2,2,0
467,2,2,0
468,2,2,0
469,2,2,0
470,2,2,0
471,2,2,0
472,2,2,0
473,2,2,0
474,2,2,0
475,2,2,0
476,2,2,0
477,2,2,0
478,2,2,0
479,2,2,0
480,2,2,0
481,2,2,0
482,2,2,0
483,2,2,0
484,2,2,0
485,2,2,0
486,2,2,0
487,2,2,0
488,2,2,0
489,2,2,0
490,2,2,0
491,2,2,0
492,2,2,0
493,2,2,0
494,2,2,0
495,2,2,0
496,2,2,0
497,2,2,0
498,2,2,0
499,2,2,0
500,2,2,0
501,2,2,0
502,2,2,0
503,2,2,0
504,2,2,0
505,2,2,0
506,2,2,0
507,2,2,0
508,2,2,0
509,2,2,0
510,2,2,0
511,2,2,0
512,2,2,0
*Output,field,frequency=1
*Node Output,nset=UPPERNODES
U,RF
*Contact Output
CDISP,CFORCE
*End Step
*Step,name=CELL45,nlgeom=YES,inc=10
*Coupled Temperature-Displacement,steady state
1,1,1,1
*Boundary,op=NEW
FIELD,1,1,0
FIELD,11,11,300
UPPERNODES,2,2,-.0002
CONTROLS,3,5,0
1,2,2,0
2,2,2,0
3,2,2,0
4,2,2,0
5,2,2,0
6,2,2,0
7,2,2,0
8,2,2,0
9,2,2,0
10,2,2,0
11,2,2,0
12,2,2,0
13,2,2,0
14,2,2,0
15,2,2,0
16,2,2,0
17,2,2,0
18,2,2,0
19,2,2,0
20,2,2,0
21,2,2,0
22,2,2,0
23,2,2,0
24,2,2,0
25,2,2,0
26,2,2,0
27,2,2,0
28,2,2,0
29,2,2,0
30,2,2,0
31,2,2,0
32,2,2,0
33,2,2,0
34,2,2,0
35,2,2,0
36,2,2,0
37,2,2,0
38,2,2,0
39,2,2,0
40,2,2,0
41,2,2,0
42,2,2,0
43,2,2,0
44,2,2,0
45,2,2,0
46,2,2,0
47,2,2,0
48,2,2,0
49,2,2,0
50,2,2,0
51,2,2,0
52,2,2,0
53,2,2,0
54,2,2,0
55,2,2,0
56,2,2,0
57,2,2,0
58,2,2,0
59,2,2,0
60,2,2,0
61,2,2,0
62,2,2,0
63,2,2,0
64,2,2,0
65,2,2,0
66,2,2,0
67,2,2,0
68,2,2,0
69,2,2,0
70,2,2,0
71,2,2,0
72,2,2,0
73,2,2,0
74,2,2,0
75,2,2,0
76,2,2,0
77,2,2,0
78,2,2,0
79,2,2,0
80,2,2,0
81,2,2,0
82,2,2,0
83,2,2,0
84,2,2,0
85,2,2,0
86,2,2,0
87,2,2,0
88,2,2,0
89,2,2,0
90,2,2,0
91,2,2,0
92,2,2,0
93,2,2,0
94,2,2,0
95,2,2,0
96,2,2,0
97,2,2,0
98,2,2,0
99,2,2,0
100,2,2,0
101,2,2,0
102,2,2,0
103,2,2,0
104,2,2,0
105,2,2,0
106,2,2,0
107,2,2,0
108,2,2,0
109,2,2,0
110,2,2,0
111,2,2,0
112,2,2,0
113,2,2,0
114,2,2,0
115,2,2,0
116,2,2,0
117,2,2,0
118,2,2,0
119,2,2,0
120,2,2,0
121,2,2,0
122,2,2,0
123,2,2,0
124,2,2,0
125,2,2,0
126,2,2,0
127,2,2,0
128,2,2,0
129,2,2,0
130,2,2,0
131,2,2,0
132,2,2,0
133,2,2,0
134,2,2,0
135,2,2,0
136,2,2,0
137,2,2,0
138,2,2,0
139,2,2,0
140,2,2,0
141,2,2,0
142,2,2,0
143,2,2,0
144,2,2,0
145,2,2,0
146,2,2,0
147,2,2,0
148,2,2,0
149,2,2,0
150,2,2,0
151,2,2,0
152,2,2,0
153,2,2,0
154,2,2,0
155,2,2,0
156,2,2,0
157,2,2,0
158,2,2,0
159,2,2,0
160,2,2,0
161,2,2,0
162,2,2,0
163,2,2,0
164,2,2,0
165,2,2,0
166,2,2,0
167,2,2,0
168,2,2,0
169,2,2,0
170,2,2,0
171,2,2,0
172,2,2,0
173,2,2,0
174,2,2,0
175,2,2,0
176,2,2,0
177,2,2,0
178,2,2,0
179,2,2,0
180,2,2,0
181,2,2,0
182,2,2,0
183,2,2,0
184,2,2,0
185,2,2,0
186,2,2,0
187,2,2,0
188,2,2,0
189,2,2,0
190,2,2,0
191,2,2,0
192,2,2,0
193,2,2,0
194,2,2,0
195,2,2,0
196,2,2,0
197,2,2,0
198,2,2,0
199,2,2,0
200,2,2,0
201,2,2,0
202,2,2,0
203,2,2,0
204,2,2,0
205,2,2,0
206,2,2,0
207,2,2,0
208,2,2,0
209,2,2,0
210,2,2,0
211,2,2,0
212,2,2,0
213,2,2,0
214,2,2,0
215,2,2,0
216,2,2,0
217,2,2,0
218,2,2,0
219,2,2,0
220,2,2,0
221,2,2,0
222,2,2,0
223,2,2,0
224,2,2,0
225,2,2,0
226,2,2,0
227,2,2,0
228,2,2,0
229,2,2,0
230,2,2,0
231,2,2,0
232,2,2,0
233,2,2,0
234,2,2,0
235,2,2,0
236,2,2,0
237,2,2,0
238,2,2,0
239,2,2,0
240,2,2,0
241,2,2,0
242,2,2,0
243,2,2,0
244,2,2,0
245,2,2,0
246,2,2,0
247,2,2,0
248,2,2,0
249,2,2,0
250,2,2,0
251,2,2,0
252,2,2,0
253,2,2,0
254,2,2,0
255,2,2,0
256,2,2,0
257,2,2,0
258,2,2,0
259,2,2,0
260,2,2,0
261,2,2,0
262,2,2,0
263,2,2,0
264,2,2,0
265,2,2,0
266,2,2,0
267,2,2,0
268,2,2,0
269,2,2,0
270,2,2,0
271,2,2,0
272,2,2,0
273,2,2,0
274,2,2,0
275,2,2,0
276,2,2,0
277,2,2,0
278,2,2,0
279,2,2,0
280,2,2,0
281,2,2,0
282,2,2,0
283,2,2,0
284,2,2,0
285,2,2,0
286,2,2,0
287,2,2,0
288,2,2,0
289,2,2,0
290,2,2,0
291,2,2,0
292,2,2,0
293,2,2,0
294,2,2,0
295,2,2,0
296,2,2,0
297,2,2,0
298,2,2,0
299,2,2,0
300,2,2,0
301,2,2,0
302,2,2,0
303,2,2,0
304,2,2,0
305,2,2,0
306,2,2,0
307,2,2,0
308,2,2,0
309,2,2,0
310,2,2,0
311,2,2,0
312,2,2,0
313,2,2,0
314,2,2,0
315,2,2,0
316,2,2,0
317,2,2,0
318,2,2,0
319,2,2,0
320,2,2,0
321,2,2,0
322,2,2,0
323,2,2,0
324,2,2,0
325,2,2,0
326,2,2,0
327,2,2,0
328,2,2,0
329,2,2,0
330,2,2,0
331,2,2,0
332,2,2,0
333,2,2,0
334,2,2,0
335,2,2,0
336,2,2,0
337,2,2,0
338,2,2,0
339,2,2,0
340,2,2,0
341,2,2,0
342,2,2,0
343,2,2,0
344,2,2,0
345,2,2,0
346,2,2,0
347,2,2,0
348,2,2,0
349,2,2,0
350,2,2,0
351,2,2,0
352,2,2,0
353,2,2,1e-07
354,2,2,1e-07
355,2,2,1e-07
356,2,2,1e-07
357,2,2,1e-07
358,2,2,1e-07
359,2,2,1e-07
360,2,2,1e-07
361,2,2,0
362,2,2,0
363,2,2,0
364,2,2,0
365,2,2,0
366,2,2,0
367,2,2,0
368,2,2,0
369,2,2,0
370,2,2,0
371,2,2,0
372,2,2,0
373,2,2,0
374,2,2,0
375,2,2,0
376,2,2,0
377,2,2,0
378,2,2,0
379,2,2,0
380,2,2,0
381,2,2,0
382,2,2,0
383,2,2,0
384,2,2,0
385,2,2,0
386,2,2,0
387,2,2,0
388,2,2,0
389,2,2,0
390,2,2,0
391,2,2,0
392,2,2,0
393,2,2,0
394,2,2,0
395,2,2,0
396,2,2,0
397,2,2,0
398,2,2,0
399,2,2,0
400,2,2,0
401,2,2,0
402,2,2,0
403,2,2,0
404,2,2,0
405,2,2,0
406,2,2,0
407,2,2,0
408,2,2,0
409,2,2,0
410,2,2,0
411,2,2,0
412,2,2,0
413,2,2,0
414,2,2,0
415,2,2,0
416,2,2,0
417,2,2,0
418,2,2,0
419,2,2,0
420,2,2,0
421,2,2,0
422,2,2,0
423,2,2,0
424,2,2,0
425,2,2,0
426,2,2,0
427,2,2,0
428,2,2,0
429,2,2,0
430,2,2,0
431,2,2,0
432,2,2,0
433,2,2,0
434,2,2,0
435,2,2,0
436,2,2,0
437,2,2,0
438,2,2,0
439,2,2,0
440,2,2,0
441,2,2,0
442,2,2,0
443,2,2,0
444,2,2,0
445,2,2,0
446,2,2,0
447,2,2,0
448,2,2,0
449,2,2,0
450,2,2,0
451,2,2,0
452,2,2,0
453,2,2,0
454,2,2,0
455,2,2,0
456,2,2,0
457,2,2,0
458,2,2,0
459,2,2,0
460,2,2,0
461,2,2,0
462,2,2,0
463,2,2,0
464,2,2,0
465,2,2,0
466,2,2,0
467,2,2,0
468,2,2,0
469,2,2,0
470,2,2,0
471,2,2,0
472,2,2,0
473,2,2,0
474,2,2,0
475,2,2,0
476,2,2,0
477,2,2,0
478,2,2,0
479,2,2,0
480,2,2,0
481,2,2,0
482,2,2,0
483,2,2,0
484,2,2,0
485,2,2,0
486,2,2,0
487,2,2,0
488,2,2,0
489,2,2,0
490,2,2,0
491,2,2,0
492,2,2,0
493,2,2,0
494,2,2,0
495,2,2,0
496,2,2,0
497,2,2,0
498,2,2,0
499,2,2,0
500,2,2,0
501,2,2,0
502,2,2,0
503,2,2,0
504,2,2,0
505,2,2,0
506,2,2,0
507,2,2,0
508,2,2,0
509,2,2,0
510,2,2,0
511,2,2,0
512,2,2,0
*Output,field,frequency=1
*Node Output,nset=UPPERNODES
U,RF
*Contact Output
CDISP,CFORCE
*End Step
*Step,name=CELL46,nlgeom=YES,inc=10
*Coupled Temperature-Displacement,steady state
1,1,1,1
*Boundary,op=NEW
FIELD,1,1,0
FIELD,11,11,300
UPPERNODES,2,2,-.0002
CONTROLS,3,5,0
1,2,2,0
2,2,2,0
3,2,2,0
4,2,2,0
5,2,2,0
6,2,2,0
7,2,2,0
8,2,2,0
9,2,2,0
10,2,2,0
11,2,2,0
12,2,2,0
13,2,2,0
14,2,2,0
15,2,2,0
16,2,2,0
17,2,2,0
18,2,2,0
19,2,2,0
20,2,2,0
21,2,2,0
22,2,2,0
23,2,2,0
24,2,2,0
25,2,2,0
26,2,2,0
27,2,2,0
28,2,2,0
29,2,2,0
30,2,2,0
31,2,2,0
32,2,2,0
33,2,2,0
34,2,2,0
35,2,2,0
36,2,2,0
37,2,2,0
38,2,2,0
39,2,2,0
40,2,2,0
41,2,2,0
42,2,2,0
43,2,2,0
44,2,2,0
45,2,2,0
46,2,2,0
47,2,2,0
48,2,2,0
49,2,2,0
50,2,2,0
51,2,2,0
52,2,2,0
53,2,2,0
54,2,2,0
55,2,2,0
56,2,2,0
57,2,2,0
58,2,2,0
59,2,2,0
60,2,2,0
61,2,2,0
62,2,2,0
63,2,2,0
64,2,2,0
65,2,2,0
66,2,2,0
67,2,2,0
68,2,2,0
69,2,2,0
70,2,2,0
71,2,2,0
72,2,2,0
73,2,2,0
74,2,2,0
75,2,2,0
76,2,2,0
77,2,2,0
78,2,2,0
79,2,2,0
80,2,2,0
81,2,2,0
82,2,2,0
83,2,2,0
84,2,2,0
85,2,2,0
86,2,2,0
87,2,2,0
88,2,2,0
89,2,2,0
90,2,2,0
91,2,2,0
92,2,2,0
93,2,2,0
94,2,2,0
95,2,2,0
96,2,2,0
97,2,2,0
98,2,2,0
99,2,2,0
100,2,2,0
101,2,2,0
102,2,2,0
103,2,2,0
104,2,2,0
105,2,2,0
106,2,2,0
107,2,2,0
108,2,2,0
109,2,2,0
110,2,2,0
111,2,2,0
112,2,2,0
113,2,2,0
114,2,2,0
115,2,2,0
116,2,2,0
117,2,2,0
118,2,2,0
119,2,2,0
120,2,2,0
121,2,2,0
122,2,2,0
123,2,2,0
124,2,2,0
125,2,2,0
126,2,2,0
127,2,2,0
128,2,2,0
129,2,2,0
130,2,2,0
131,2,2,0
132,2,2,0
133,2,2,0
134,2,2,0
135,2,2,0
136,2,2,0
137,2,2,0
138,2,2,0
139,2,2,0
140,2,2,0
141,2,2,0
142,2,2,0
143,2,2,0
144,2,2,0
145,2,2,0
146,2,2,0
147,2,2,0
148,2,2,0
149,2,2,0
150,2,2,0
151,2,2,0
152,2,2,0
153,2,2,0
154,2,2,0
155,2,2,0
156,2,2,0
157,2,2,0
158,2,2,0
159,2,2,0
160,2,2,0
161,2,2,0
162,2,2,0
163,2,2,0
164,2,2,0
165,2,2,0
166,2,2,0
167,2,2,0
168,2,2,0
169,2,2,0
170,2,2,0
171,2,2,0
172,2,2,0
173,2,2,0
174,2,2,0
175,2,2,0
176,2,2,0
177,2,2,0
178,2,2,0
179,2,2,0
180,2,2,0
181,2,2,0
182,2,2,0
183,2,2,0
184,2,2,0
185,2,2,0
186,2,2,0
187,2,2,0
188,2,2,0
189,2,2,0
190,2,2,0
191,2,2,0
192,2,2,0
193,2,2,0
194,2,2,0
195,2,2,0
196,2,2,0
197,2,2,0
198,2,2,0
199,2,2,0
200,2,2,0
201,2,2,0
202,2,2,0
203,2,2,0
204,2,2,0
205,2,2,0
206,2,2,0
207,2,2,0
208,2,2,0
209,2,2,0
210,2,2,0
211,2,2,0
212,2,2,0
213,2,2,0
214,2,2,0
215,2,2,0
216,2,2,0
217,2,2,0
218,2,2,0
219,2,2,0
220,2,2,0
221,2,2,0
222,2,2,0
223,2,2,0
224,2,2,0
225,2,2,0
226,2,2,0
227,2,2,0
228,2,2,0
229,2,2,0
230,2,2,0
231,2,2,0
232,2,2,0
233,2,2,0
234,2,2,0
235,2,2,0
236,2,2,0
237,2,2,0
238,2,2,0
239,2,2,0
240,2,2,0
241,2,2,0
242,2,2,0
243,2,2,0
244,2,2,0
245,2,2,0
246,2,2,0
247,2,2,0
248,2,2,0
249,2,2,0
250,2,2,0
251,2,2,0
252,2,2,0
253,2,2,0
254,2,2,0
255,2,2,0
256,2,2,0
257,2,2,0
258,2,2,0
259,2,2,0
260,2,2,0
261,2,2,0
262,2,2,0
263,2,2,0
264,2,2,0
265,2,2,0
266,2,2,0
267,2,2,0
268,2,2,0
269,2,2,0
270,2,2,0
271,2,2,0
272,2,2,0
273,2,2,0
274,2,2,0
275,2,2,0
276,2,2,0
277,2,2,0
278,2,2,0
279,2,2,0
280,2,2,0
281,2,2,0
282,2,2,0
283,2,2,0
284,2,2,0
285,2,2,0
286,2,2,0
287,2,2,0
288,2,2,0
289,2,2,0
290,2,2,0
291,2,2,0
292,2,2,0
293,2,2,0
294,2,2,0
295,2,2,0
296,2,2,0
297,2,2,0
298,2,2,0
299,2,2,0
300,2,2,0
301,2,2,0
302,2,2,0
303,2,2,0
304,2,2,0
305,2,2,0
306,2,2,0
307,2,2,0
308,2,2,0
309,2,2,0
310,2,2,0
311,2,2,0
312,2,2,0
313,2,2,0
314,2,2,0
315,2,2,0
316,2,2,0
317,2,2,0
318,2,2,0
319,2,2,0
320,2,2,0
321,2,2,0
322,2,2,0
323,2,2,0
324,2,2,0
325,2,2,0
326,2,2,0
327,2,2,0
328,2,2,0
329,2,2,0
330,2,2,0
331,2,2,0
332,2,2,0
333,2,2,0
334,2,2,0
335,2,2,0
336,2,2,0
337,2,2,0
338,2,2,0
339,2,2,0
340,2,2,0
341,2,2,0
342,2,2,0
343,2,2,0
344,2,2,0
345,2,2,0
346,2,2,0
347,2,2,0
348,2,2,0
349,2,2,0
350,2,2,0
351,2,2,0
352,2,2,0
353,2,2,0
354,2,2,0
355,2,2,0
356,2,2,0
357,2,2,0
358,2,2,0
359,2,2,0
360,2,2,0
361,2,2,1e-07
362,2,2,1e-07
363,2,2,1e-07
364,2,2,1e-07
365,2,2,1e-07
366,2,2,1e-07
367,2,2,1e-07
368,2,2,1e-07
369,2,2,0
370,2,2,0
371,2,2,0
372,2,2,0
373,2,2,0
374,2,2,0
375,2,2,0
376,2,2,0
377,2,2,0
378,2,2,0
379,2,2,0
380,2,2,0
381,2,2,0
382,2,2,0
383,2,2,0
384,2,2,0
385,2,2,0
386,2,2,0
387,2,2,0
388,2,2,0
389,2,2,0
390,2,2,0
391,2,2,0
392,2,2,0
393,2,2,0
394,2,2,0
395,2,2,0
396,2,2,0
397,2,2,0
398,2,2,0
399,2,2,0
400,2,2,0
401,2,2,0
402,2,2,0
403,2,2,0
404,2,2,0
405,2,2,0
406,2,2,0
407,2,2,0
408,2,2,0
409,2,2,0
410,2,2,0
411,2,2,0
412,2,2,0
413,2,2,0
414,2,2,0
415,2,2,0
416,2,2,0
417,2,2,0
418,2,2,0
419,2,2,0
420,2,2,0
421,2,2,0
422,2,2,0
423,2,2,0
424,2,2,0
425,2,2,0
426,2,2,0
427,2,2,0
428,2,2,0
429,2,2,0
430,2,2,0
431,2,2,0
432,2,2,0
433,2,2,0
434,2,2,0
435,2,2,0
436,2,2,0
437,2,2,0
438,2,2,0
439,2,2,0
440,2,2,0
441,2,2,0
442,2,2,0
443,2,2,0
444,2,2,0
445,2,2,0
446,2,2,0
447,2,2,0
448,2,2,0
449,2,2,0
450,2,2,0
451,2,2,0
452,2,2,0
453,2,2,0
454,2,2,0
455,2,2,0
456,2,2,0
457,2,2,0
458,2,2,0
459,2,2,0
460,2,2,0
461,2,2,0
462,2,2,0
463,2,2,0
464,2,2,0
465,2,2,0
466,2,2,0
467,2,2,0
468,2,2,0
469,2,2,0
470,2,2,0
471,2,2,0
472,2,2,0
473,2,2,0
474,2,2,0
475,2,2,0
476,2,2,0
477,2,2,0
478,2,2,0
479,2,2,0
480,2,2,0
481,2,2,0
482,2,2,0
483,2,2,0
484,2,2,0
485,2,2,0
486,2,2,0
487,2,2,0
488,2,2,0
489,2,2,0
490,2,2,0
491,2,2,0
492,2,2,0
493,2,2,0
494,2,2,0
495,2,2,0
496,2,2,0
497,2,2,0
498,2,2,0
499,2,2,0
500,2,2,0
501,2,2,0
502,2,2,0
503,2,2,0
504,2,2,0
505,2,2,0
506,2,2,0
507,2,2,0
508,2,2,0
509,2,2,0
510,2,2,0
511,2,2,0
512,2,2,0
*Output,field,frequency=1
*Node Output,nset=UPPERNODES
U,RF
*Contact Output
CDISP,CFORCE
*End Step
*Step,name=CELL47,nlgeom=YES,inc=10
*Coupled Temperature-Displacement,steady state
1,1,1,1
*Boundary,op=NEW
FIELD,1,1,0
FIELD,11,11,300
UPPERNODES,2,2,-.0002
CONTROLS,3,5,0
1,2,2,0
2,2,2,0
3,2,2,0
4,2,2,0
5,2,2,0
6,2,2,0
7,2,2,0
8,2,2,0
9,2,2,0
10,2,2,0
11,2,2,0
12,2,2,0
13,2,2,0
14,2,2,0
15,2,2,0
16,2,2,0
17,2,2,0
18,2,2,0
19,2,2,0
20,2,2,0
21,2,2,0
22,2,2,0
23,2,2,0
24,2,2,0
25,2,2,0
26,2,2,0
27,2,2,0
28,2,2,0
29,2,2,0
30,2,2,0
31,2,2,0
32,2,2,0
33,2,2,0
34,2,2,0
35,2,2,0
36,2,2,0
37,2,2,0
38,2,2,0
39,2,2,0
40,2,2,0
41,2,2,0
42,2,2,0
43,2,2,0
44,2,2,0
45,2,2,0
46,2,2,0
47,2,2,0
48,2,2,0
49,2,2,0
50,2,2,0
51,2,2,0
52,2,2,0
53,2,2,0
54,2,2,0
55,2,2,0
56,2,2,0
57,2,2,0
58,2,2,0
59,2,2,0
60,2,2,0
61,2,2,0
62,2,2,0
63,2,2,0
64,2,2,0
65,2,2,0
66,2,2,0
67,2,2,0
68,2,2,0
69,2,2,0
70,2,2,0
71,2,2,0
72,2,2,0
73,2,2,0
74,2,2,0
75,2,2,0
76,2,2,0
77,2,2,0
78,2,2,0
79,2,2,0
80,2,2,0
81,2,2,0
82,2,2,0
83,2,2,0
84,2,2,0
85,2,2,0
86,2,2,0
87,2,2,0
88,2,2,0
89,2,2,0
90,2,2,0
91,2,2,0
92,2,2,0
93,2,2,0
94,2,2,0
95,2,2,0
96,2,2,0
97,2,2,0
98,2,2,0
99,2,2,0
100,2,2,0
101,2,2,0
102,2,2,0
103,2,2,0
104,2,2,0
105,2,2,0
106,2,2,0
107,2,2,0
108,2,2,0
109,2,2,0
110,2,2,0
111,2,2,0
112,2,2,0
113,2,2,0
114,2,2,0
115,2,2,0
116,2,2,0
117,2,2,0
118,2,2,0
119,2,2,0
120,2,2,0
121,2,2,0
122,2,2,0
123,2,2,0
124,2,2,0
125,2,2,0
126,2,2,0
127,2,2,0
128,2,2,0
129,2,2,0
130,2,2,0
131,2,2,0
132,2,2,0
133,2,2,0
134,2,2,0
135,2,2,0
136,2,2,0
137,2,2,0
138,2,2,0
139,2,2,0
140,2,2,0
141,2,2,0
142,2,2,0
143,2,2,0
144,2,2,0
145,2,2,0
146,2,2,0
147,2,2,0
148,2,2,0
149,2,2,0
150,2,2,0
151,2,2,0
152,2,2,0
153,2,2,0
154,2,2,0
155,2,2,0
156,2,2,0
157,2,2,0
158,2,2,0
159,2,2,0
160,2,2,0
161,2,2,0
162,2,2,0
163,2,2,0
164,2,2,0
165,2,2,0
166,2,2,0
167,2,2,0
168,2,2,0
169,2,2,0
170,2,2,0
171,2,2,0
172,2,2,0
173,2,2,0
174,2,2,0
175,2,2,0
176,2,2,0
177,2,2,0
178,2,2,0
179,2,2,0
180,2,2,0
181,2,2,0
182,2,2,0
183,2,2,0
184,2,2,0
185,2,2,0
186,2,2,0
187,2,2,0
188,2,2,0
189,2,2,0
190,2,2,0
191,2,2,0
192,2,2,0
193,2,2,0
194,2,2,0
195,2,2,0
196,2,2,0
197,2,2,0
198,2,2,0
199,2,2,0
200,2,2,0
201,2,2,0
202,2,2,0
203,2,2,0
204,2,2,0
205,2,2,0
206,2,2,0
207,2,2,0
208,2,2,0
209,2,2,0
210,2,2,0
211,2,2,0
212,2,2,0
213,2,2,0
214,2,2,0
215,2,2,0
216,2,2,0
217,2,2,0
218,2,2,0
219,2,2,0
220,2,2,0
221,2,2,0
222,2,2,0
223,2,2,0
224,2,2,0
225,2,2,0
226,2,2,0
227,2,2,0
228,2,2,0
229,2,2,0
230,2,2,0
231,2,2,0
232,2,2,0
233,2,2,0
234,2,2,0
235,2,2,0
236,2,2,0
237,2,2,0
238,2,2,0
239,2,2,0
240,2,2,0
241,2,2,0
242,2,2,0
243,2,2,0
244,2,2,0
245,2,2,0
246,2,2,0
247,2,2,0
248,2,2,0
249,2,2,0
250,2,2,0
251,2,2,0
252,2,2,0
253,2,2,0
254,2,2,0
255,2,2,0
256,2,2,0
257,2,2,0
258,2,2,0
259,2,2,0
260,2,2,0
261,2,2,0
262,2,2,0
263,2,2,0
264,2,2,0
265,2,2,0
266,2,2,0
267,2,2,0
268,2,2,0
269,2,2,0
270,2,2,0
271,2,2,0
272,2,2,0
273,2,2,0
274,2,2,0
275,2,2,0
276,2,2,0
277,2,2,0
278,2,2,0
279,2,2,0
280,2,2,0
281,2,2,0
282,2,2,0
283,2,2,0
284,2,2,0
285,2,2,0
286,2,2,0
287,2,2,0
288,2,2,0
289,2,2,0
290,2,2,0
291,2,2,0
292,2,2,0
293,2,2,0
294,2,2,0
295,2,2,0
296,2,2,0
297,2,2,0
298,2,2,0
299,2,2,0
300,2,2,0
301,2,2,0
302,2,2,0
303,2,2,0
304,2,2,0
305,2,2,0
306,2,2,0
307,2,2,0
308,2,2,0
309,2,2,0
310,2,2,0
311,2,2,0
312,2,2,0
313,2,2,0
314,2,2,0
315,2,2,0
316,2,2,0
317,2,2,0
318,2,2,0
319,2,2,0
320,2,2,0
321,2,2,0
322,2,2,0
323,2,2,0
324,2,2,0
325,2,2,0
326,2,2,0
327,2,2,0
328,2,2,0
329,2,2,0
330,2,2,0
331,2,2,0
332,2,2,0
333,2,2,0
334,2,2,0
335,2,2,0
336,2,2,0
337,2,2,0
338,2,2,0
339,2,2,0
340,2,2,0
341,2,2,0
342,2,2,0
343,2,2,0
344,2,2,0
345,2,2,0
346,2,2,0
347,2,2,0
348,2,2,0
349,2,2,0
350,2,2,0
351,2,2,0
352,2,2,0
353,2,2,0
354,2,2,0
355,2,2,0
356,2,2,0
357,2,2,0
358,2,2,0
359,2,2,0
360,2,2,0
361,2,2,0
362,2,2,0
363,2,2,0
364,2,2,0
365,2,2,0
366,2,2,0
367,2,2,0
368,2,2,0
369,2,2,1e-07
370,2,2,1e-07
371,2,2,1e-07
372,2,2,1e-07
373,2,2,1e-07
374,2,2,1e-07
375,2,2,1e-07
376,2,2,1e-07
377,2,2,0
378,2,2,0
379,2,2,0
380,2,2,0
381,2,2,0
382,2,2,0
383,2,2,0
384,2,2,0
385,2,2,0
386,2,2,0
387,2,2,0
388,2,2,0
389,2,2,0
390,2,2,0
391,2,2,0
392,2,2,0
393,2,2,0
394,2,2,0
395,2,2,0
396,2,2,0
397,2,2,0
398,2,2,0
399,2,2,0
400,2,2,0
401,2,2,0
402,2,2,0
403,2,2,0
404,2,2,0
405,2,2,0
406,2,2,0
407,2,2,0
408,2,2,0
409,2,2,0
410,2,2,0
411,2,2,0
412,2,2,0
413,2,2,0
414,2,2,0
415,2,2,0
416,2,2,0
417,2,2,0
418,2,2,0
419,2,2,0
420,2,2,0
421,2,2,0
422,2,2,0
423,2,2,0
424,2,2,0
425,2,2,0
426,2,2,0
427,2,2,0
428,2,2,0
429,2,2,0
430,2,2,0
431,2,2,0
432,2,2,0
433,2,2,0
434,2,2,0
435,2,2,0
436,2,2,0
437,2,2,0
438,2,2,0
439,2,2,0
440,2,2,0
441,2,2,0
442,2,2,0
443,2,2,0
444,2,2,0
445,2,2,0
446,2,2,0
447,2,2,0
448,2,2,0
449,2,2,0
450,2,2,0
451,2,2,0
452,2,2,0
453,2,2,0
454,2,2,0
455,2,2,0
456,2,2,0
457,2,2,0
458,2,2,0
459,2,2,0
460,2,2,0
461,2,2,0
462,2,2,0
463,2,2,0
464,2,2,0
465,2,2,0
466,2,2,0
467,2,2,0
468,2,2,0
469,2,2,0
470,2,2,0
471,2,2,0
472,2,2,0
473,2,2,0
474,2,2,0
475,2,2,0
476,2,2,0
477,2,2,0
478,2,2,0
479,2,2,0
480,2,2,0
481,2,2,0
482,2,2,0
483,2,2,0
484,2,2,0
485,2,2,0
486,2,2,0
487,2,2,0
488,2,2,0
489,2,2,0
490,2,2,0
491,2,2,0
492,2,2,0
493,2,2,0
494,2,2,0
495,2,2,0
496,2,2,0
497,2,2,0
498,2,2,0
499,2,2,0
500,2,2,0
501,2,2,0
502,2,2,0
503,2,2,0
504,2,2,0
505,2,2,0
506,2,2,0
507,2,2,0
508,2,2,0
509,2,2,0
510,2,2,0
511,2,2,0
512,2,2,0
*Output,field,frequency=1
*Node Output,nset=UPPERNODES
U,RF
*Contact Output
CDISP,CFORCE
*End Step
*Step,name=CELL48,nlgeom=YES,inc=10
*Coupled Temperature-Displacement,steady state
1,1,1,1
*Boundary,op=NEW
FIELD,1,1,0
FIELD,11,11,300
UPPERNODES,2,2,-.0002
CONTROLS,3,5,0
1,2,2,0
2,2,2,0
3,2,2,0
4,2,2,0
5,2,2,0
6,2,2,0
7,2,2,0
8,2,2,0
9,2,2,0
10,2,2,0
11,2,2,0
12,2,2,0
13,2,2,0
14,2,2,0
15,2,2,0
16,2,2,0
17,2,2,0
18,2,2,0
19,2,2,0
20,2,2,0
21,2,2,0
22,2,2,0
23,2,2,0
24,2,2,0
25,2,2,0
26,2,2,0
27,2,2,0
28,2,2,0
29,2,2,0
30,2,2,0
31,2,2,0
32,2,2,0
33,2,2,0
34,2,2,0
35,2,2,0
36,2,2,0
37,2,2,0
38,2,2,0
39,2,2,0
40,2,2,0
41,2,2,0
42,2,2,0
43,2,2,0
44,2,2,0
45,2,2,0
46,2,2,0
47,2,2,0
48,2,2,0
49,2,2,0
50,2,2,0
51,2,2,0
52,2,2,0
53,2,2,0
54,2,2,0
55,2,2,0
56,2,2,0
57,2,2,0
58,2,2,0
59,2,2,0
60,2,2,0
61,2,2,0
62,2,2,0
63,2,2,0
64,2,2,0
65,2,2,0
66,2,2,0
67,2,2,0
68,2,2,0
69,2,2,0
70,2,2,0
71,2,2,0
72,2,2,0
73,2,2,0
74,2,2,0
75,2,2,0
76,2,2,0
77,2,2,0
78,2,2,0
79,2,2,0
80,2,2,0
81,2,2,0
82,2,2,0
83,2,2,0
84,2,2,0
85,2,2,0
86,2,2,0
87,2,2,0
88,2,2,0
89,2,2,0
90,2,2,0
91,2,2,0
92,2,2,0
93,2,2,0
94,2,2,0
95,2,2,0
96,2,2,0
97,2,2,0
98,2,2,0
99,2,2,0
100,2,2,0
101,2,2,0
102,2,2,0
103,2,2,0
104,2,2,0
105,2,2,0
106,2,2,0
107,2,2,0
108,2,2,0
109,2,2,0
110,2,2,0
111,2,2,0
112,2,2,0
113,2,2,0
114,2,2,0
115,2,2,0
116,2,2,0
117,2,2,0
118,2,2,0
119,2,2,0
120,2,2,0
121,2,2,0
122,2,2,0
123,2,2,0
124,2,2,0
125,2,2,0
126,2,2,0
127,2,2,0
128,2,2,0
129,2,2,0
130,2,2,0
131,2,2,0
132,2,2,0
133,2,2,0
134,2,2,0
135,2,2,0
136,2,2,0
137,2,2,0
138,2,2,0
139,2,2,0
140,2,2,0
141,2,2,0
142,2,2,0
143,2,2,0
144,2,2,0
145,2,2,0
146,2,2,0
147,2,2,0
148,2,2,0
149,2,2,0
150,2,2,0
151,2,2,0
152,2,2,0
153,2,2,0
154,2,2,0
155,2,2,0
156,2,2,0
157,2,2,0
158,2,2,0
159,2,2,0
160,2,2,0
161,2,2,0
162,2,2,0
163,2,2,0
164,2,2,0
165,2,2,0
166,2,2,0
167,2,2,0
168,2,2,0
169,2,2,0
170,2,2,0
171,2,2,0
172,2,2,0
173,2,2,0
174,2,2,0
175,2,2,0
176,2,2,0
177,2,2,0
178,2,2,0
179,2,2,0
180,2,2,0
181,2,2,0
182,2,2,0
183,2,2,0
184,2,2,0
185,2,2,0
186,2,2,0
187,2,2,0
188,2,2,0
189,2,2,0
190,2,2,0
191,2,2,0
192,2,2,0
193,2,2,0
194,2,2,0
195,2,2,0
196,2,2,0
197,2,2,0
198,2,2,0
199,2,2,0
200,2,2,0
201,2,2,0
202,2,2,0
203,2,2,0
204,2,2,0
205,2,2,0
206,2,2,0
207,2,2,0
208,2,2,0
209,2,2,0
210,2,2,0
211,2,2,0
212,2,2,0
213,2,2,0
214,2,2,0
215,2,2,0
216,2,2,0
217,2,2,0
218,2,2,0
219,2,2,0
220,2,2,0
221,2,2,0
222,2,2,0
223,2,2,0
224,2,2,0
225,2,2,0
226,2,2,0
227,2,2,0
228,2,2,0
229,2,2,0
230,2,2,0
231,2,2,0
232,2,2,0
233,2,2,0
234,2,2,0
235,2,2,0
236,2,2,0
237,2,2,0
238,2,2,0
239,2,2,0
240,2,2,0
241,2,2,0
242,2,2,0
243,2,2,0
244,2,2,0
245,2,2,0
246,2,2,0
247,2,2,0
248,2,2,0
249,2,2,0
250,2,2,0
251,2,2,0
252,2,2,0
253,2,2,0
254,2,2,0
255,2,2,0
256,2,2,0
257,2,2,0
258,2,2,0
259,2,2,0
260,2,2,0
261,2,2,0
262,2,2,0
263,2,2,0
264,2,2,0
265,2,2,0
266,2,2,0
267,2,2,0
268,2,2,0
269,2,2,0
270,2,2,0
271,2,2,0
272,2,2,0
273,2,2,0
274,2,2,0
275,2,2,0
276,2,2,0
277,2,2,0
278,2,2,0
279,2,2,0
280,2,2,0
281,2,2,0
282,2,2,0
283,2,2,0
284,2,2,0
285,2,2,0
286,2,2,0
287,2,2,0
288,2,2,0
289,2,2,0
290,2,2,0
291,2,2,0
292,2,2,0
293,2,2,0
294,2,2,0
295,2,2,0
296,2,2,0
297,2,2,0
298,2,2,0
299,2,2,0
300,2,2,0
301,2,2,0
302,2,2,0
303,2,2,0
304,2,2,0
305,2,2,0
306,2,2,0
307,2,2,0
308,2,2,0
309,2,2,0
310,2,2,0
311,2,2,0
312,2,2,0
313,2,2,0
314,2,2,0
315,2,2,0
316,2,2,0
317,2,2,0
318,2,2,0
319,2,2,0
320,2,2,0
321,2,2,0
322,2,2,0
323,2,2,0
324,2,2,0
325,2,2,0
326,2,2,0
327,2,2,0
328,2,2,0
329,2,2,0
330,2,2,0
331,2,2,0
332,2,2,0
333,2,2,0
334,2,2,0
335,2,2,0
336,2,2,0
337,2,2,0
338,2,2,0
339,2,2,0
340,2,2,0
341,2,2,0
342,2,2,0
343,2,2,0
344,2,2,0
345,2,2,0
346,2,2,0
347,2,2,0
348,2,2,0
349,2,2,0
350,2,2,0
351,2,2,0
352,2,2,0
353,2,2,0
354,2,2,0
355,2,2,0
356,2,2,0
357,2,2,0
358,2,2,0
359,2,2,0
360,2,2,0
361,2,2,0
362,2,2,0
363,2,2,0
364,2,2,0
365,2,2,0
366,2,2,0
367,2,2,0
368,2,2,0
369,2,2,0
370,2,2,0
371,2,2,0
372,2,2,0
373,2,2,0
374,2,2,0
375,2,2,0
376,2,2,0
377,2,2,1e-07
378,2,2,1e-07
379,2,2,1e-07
380,2,2,1e-07
381,2,2,1e-07
382,2,2,1e-07
383,2,2,1e-07
384,2,2,1e-07
385,2,2,0
386,2,2,0
387,2,2,0
388,2,2,0
389,2,2,0
390,2,2,0
391,2,2,0
392,2,2,0
393,2,2,0
394,2,2,0
395,2,2,0
396,2,2,0
397,2,2,0
398,2,2,0
399,2,2,0
400,2,2,0
401,2,2,0
402,2,2,0
403,2,2,0
404,2,2,0
405,2,2,0
406,2,2,0
407,2,2,0
408,2,2,0
409,2,2,0
410,2,2,0
411,2,2,0
412,2,2,0
413,2,2,0
414,2,2,0
415,2,2,0
416,2,2,0
417,2,2,0
418,2,2,0
419,2,2,0
420,2,2,0
421,2,2,0
422,2,2,0
423,2,2,0
424,2,2,0
425,2,2,0
426,2,2,0
427,2,2,0
428,2,2,0
429,2,2,0
430,2,2,0
431,2,2,0
432,2,2,0
433,2,2,0
434,2,2,0
435,2,2,0
436,2,2,0
437,2,2,0
438,2,2,0
439,2,2,0
440,2,2,0
441,2,2,0
442,2,2,0
443,2,2,0
444,2,2,0
445,2,2,0
446,2,2,0
447,2,2,0
448,2,2,0
449,2,2,0
450,2,2,0
451,2,2,0
452,2,2,0
453,2,2,0
454,2,2,0
455,2,2,0
456,2,2,0
457,2,2,0
458,2,2,0
459,2,2,0
460,2,2,0
461,2,2,0
462,2,2,0
463,2,2,0
464,2,2,0
465,2,2,0
466,2,2,0
467,2,2,0
468,2,2,0
469,2,2,0
470,2,2,0
471,2,2,0
472,2,2,0
473,2,2,0
474,2,2,0
475,2,2,0
476,2,2,0
477,2,2,0
478,2,2,0
479,2,2,0
480,2,2,0
481,2,2,0
482,2,2,0
483,2,2,0
484,2,2,0
485,2,2,0
486,2,2,0
487,2,2,0
488,2,2,0
489,2,2,0
490,2,2,0
491,2,2,0
492,2,2,0
493,2,2,0
494,2,2,0
495,2,2,0
496,2,2,0
497,2,2,0
498,2,2,0
499,2,2,0
500,2,2,0
501,2,2,0
502,2,2,0
503,2,2,0
504,2,2,0
505,2,2,0
506,2,2,0
507,2,2,0
508,2,2,0
509,2,2,0
510,2,2,0
511,2,2,0
512,2,2,0
*Output,field,frequency=1
*Node Output,nset=UPPERNODES
U,RF
*Contact Output
CDISP,CFORCE
*End Step
*Step,name=CELL49,nlgeom=YES,inc=10
*Coupled Temperature-Displacement,steady state
1,1,1,1
*Boundary,op=NEW
FIELD,1,1,0
FIELD,11,11,300
UPPERNODES,2,2,-.0002
CONTROLS,3,5,0
1,2,2,0
2,2,2,0
3,2,2,0
4,2,2,0
5,2,2,0
6,2,2,0
7,2,2,0
8,2,2,0
9,2,2,0
10,2,2,0
11,2,2,0
12,2,2,0
13,2,2,0
14,2,2,0
15,2,2,0
16,2,2,0
17,2,2,0
18,2,2,0
19,2,2,0
20,2,2,0
21,2,2,0
22,2,2,0
23,2,2,0
24,2,2,0
25,2,2,0
26,2,2,0
27,2,2,0
28,2,2,0
29,2,2,0
30,2,2,0
31,2,2,0
32,2,2,0
33,2,2,0
34,2,2,0
35,2,2,0
36,2,2,0
37,2,2,0
38,2,2,0
39,2,2,0
40,2,2,0
41,2,2,0
42,2,2,0
43,2,2,0
44,2,2,0
45,2,2,0
46,2,2,0
47,2,2,0
48,2,2,0
49,2,2,0
50,2,2,0
51,2,2,0
52,2,2,0
53,2,2,0
54,2,2,0
55,2,2,0
56,2,2,0
57,2,2,0
58,2,2,0
59,2,2,0
60,2,2,0
61,2,2,0
62,2,2,0
63,2,2,0
64,2,2,0
65,2,2,0
66,2,2,0
67,2,2,0
68,2,2,0
69,2,2,0
70,2,2,0
71,2,2,0
72,2,2,0
73,2,2,0
74,2,2,0
75,2,2,0
76,2,2,0
77,2,2,0
78,2,2,0
79,2,2,0
80,2,2,0
81,2,2,0
82,2,2,0
83,2,2,0
84,2,2,0
85,2,2,0
86,2,2,0
87,2,2,0
88,2,2,0
89,2,2,0
90,2,2,0
91,2,2,0
92,2,2,0
93,2,2,0
94,2,2,0
95,2,2,0
96,2,2,0
97,2,2,0
98,2,2,0
99,2,2,0
100,2,2,0
101,2,2,0
102,2,2,0
103,2,2,0
104,2,2,0
105,2,2,0
106,2,2,0
107,2,2,0
108,2,2,0
109,2,2,0
110,2,2,0
111,2,2,0
112,2,2,0
113,2,2,0
114,2,2,0
115,2,2,0
116,2,2,0
117,2,2,0
118,2,2,0
119,2,2,0
120,2,2,0
121,2,2,0
122,2,2,0
123,2,2,0
124,2,2,0
125,2,2,0
126,2,2,0
127,2,2,0
128,2,2,0
129,2,2,0
130,2,2,0
131,2,2,0
132,2,2,0
133,2,2,0
134,2,2,0
135,2,2,0
136,2,2,0
137,2,2,0
138,2,2,0
139,2,2,0
140,2,2,0
141,2,2,0
142,2,2,0
143,2,2,0
144,2,2,0
145,2,2,0
146,2,2,0
147,2,2,0
148,2,2,0
149,2,2,0
150,2,2,0
151,2,2,0
152,2,2,0
153,2,2,0
154,2,2,0
155,2,2,0
156,2,2,0
157,2,2,0
158,2,2,0
159,2,2,0
160,2,2,0
161,2,2,0
162,2,2,0
163,2,2,0
164,2,2,0
165,2,2,0
166,2,2,0
167,2,2,0
168,2,2,0
169,2,2,0
170,2,2,0
171,2,2,0
172,2,2,0
173,2,2,0
174,2,2,0
175,2,2,0
176,2,2,0
177,2,2,0
178,2,2,0
179,2,2,0
180,2,2,0
181,2,2,0
182,2,2,0
183,2,2,0
184,2,2,0
185,2,2,0
186,2,2,0
187,2,2,0
188,2,2,0
189,2,2,0
190,2,2,0
191,2,2,0
192,2,2,0
193,2,2,0
194,2,2,0
195,2,2,0
196,2,2,0
197,2,2,0
198,2,2,0
199,2,2,0
200,2,2,0
201,2,2,0
202,2,2,0
203,2,2,0
204,2,2,0
205,2,2,0
206,2,2,0
207,2,2,0
208,2,2,0
209,2,2,0
210,2,2,0
211,2,2,0
212,2,2,0
213,2,2,0
214,2,2,0
215,2,2,0
216,2,2,0
217,2,2,0
218,2,2,0
219,2,2,0
220,2,2,0
221,2,2,0
222,2,2,0
223,2,2,0
224,2,2,0
225,2,2,0
226,2,2,0
227,2,2,0
228,2,2,0
229,2,2,0
230,2,2,0
231,2,2,0
232,2,2,0
233,2,2,0
234,2,2,0
235,2,2,0
236,2,2,0
237,2,2,0
238,2,2,0
239,2,2,0
240,2,2,0
241,2,2,0
242,2,2,0
243,2,2,0
244,2,2,0
245,2,2,0
246,2,2,0
247,2,2,0
248,2,2,0
249,2,2,0
250,2,2,0
251,2,2,0
252,2,2,0
253,2,2,0
254,2,2,0
255,2,2,0
256,2,2,0
257,2,2,0
258,2,2,0
259,2,2,0
260,2,2,0
261,2,2,0
262,2,2,0
263,2,2,0
264,2,2,0
265,2,2,0
266,2,2,0
267,2,2,0
268,2,2,0
269,2,2,0
270,2,2,0
271,2,2,0
272,2,2,0
273,2,2,0
274,2,2,0
275,2,2,0
276,2,2,0
277,2,2,0
278,2,2,0
279,2,2,0
280,2,2,0
281,2,2,0
282,2,2,0
283,2,2,0
284,2,2,0
285,2,2,0
286,2,2,0
287,2,2,0
288,2,2,0
289,2,2,0
290,2,2,0
291,2,2,0
292,2,2,0
293,2,2,0
294,2,2,0
295,2,2,0
296,2,2,0
297,2,2,0
298,2,2,0
299,2,2,0
300,2,2,0
301,2,2,0
302,2,2,0
303,2,2,0
304,2,2,0
305,2,2,0
306,2,2,0
307,2,2,0
308,2,2,0
309,2,2,0
310,2,2,0
311,2,2,0
312,2,2,0
313,2,2,0
314,2,2,0
315,2,2,0
316,2,2,0
317,2,2,0
318,2,2,0
319,2,2,0
320,2,2,0
321,2,2,0
322,2,2,0
323,2,2,0
324,2,2,0
325,2,2,0
326,2,2,0
327,2,2,0
328,2,2,0
329,2,2,0
330,2,2,0
331,2,2,0
332,2,2,0
333,2,2,0
334,2,2,0
335,2,2,0
336,2,2,0
337,2,2,0
338,2,2,0
339,2,2,0
340,2,2,0
341,2,2,0
342,2,2,0
343,2,2,0
344,2,2,0
345,2,2,0
346,2,2,0
347,2,2,0
348,2,2,0
349,2,2,0
350,2,2,0
351,2,2,0
352,2,2,0
353,2,2,0
354,2,2,0
355,2,2,0
356,2,2,0
357,2,2,0
358,2,2,0
359,2,2,0
360,2,2,0
361,2,2,0
362,2,2,0
363,2,2,0
364,2,2,0
365,2,2,0
366,2,2,0
367,2,2,0
368,2,2,0
369,2,2,0
370,2,2,0
371,2,2,0
372,2,2,0
373,2,2,0
374,2,2,0
375,2,2,0
376,2,2,0
377,2,2,0
378,2,2,0
379,2,2,0
380,2,2,0
381,2,2,0
382,2,2,0
383,2,2,0
384,2,2,0
385,2,2,1e-07
386,2,2,1e-07
387,2,2,1e-07
388,2,2,1e-07
389,2,2,1e-07
390,2,2,1e-07
391,2,2,1e-07
392,2,2,1e-07
393,2,2,0
394,2,2,0
395,2,2,0
396,2,2,0
397,2,2,0
398,2,2,0
399,2,2,0
400,2,2,0
401,2,2,0
402,2,2,0
403,2,2,0
404,2,2,0
405,2,2,0
406,2,2,0
407,2,2,0
408,2,2,0
409,2,2,0
410,2,2,0
411,2,2,0
412,2,2,0
413,2,2,0
414,2,2,0
415,2,2,0
416,2,2,0
417,2,2,0
418,2,2,0
419,2,2,0
420,2,2,0
421,2,2,0
422,2,2,0
423,2,2,0
424,2,2,0
425,2,2,0
426,2,2,0
427,2,2,0
428,2,2,0
429,2,2,0
430,2,2,0
431,2,2,0
432,2,2,0
433,2,2,0
434,2,2,0
435,2,2,0
436,2,2,0
437,2,2,0
438,2,2,0
439,2,2,0
440,2,2,0
441,2,2,0
442,2,2,0
443,2,2,0
444,2,2,0
445,2,2,0
446,2,2,0
447,2,2,0
448,2,2,0
449,2,2,0
450,2,2,0
451,2,2,0
452,2,2,0
453,2,2,0
454,2,2,0
455,2,2,0
456,2,2,0
457,2,2,0
458,2,2,0
459,2,2,0
460,2,2,0
461,2,2,0
462,2,2,0
463,2,2,0
464,2,2,0
465,2,2,0
466,2,2,0
467,2,2,0
468,2,2,0
469,2,2,0
470,2,2,0
471,2,2,0
472,2,2,0
473,2,2,0
474,2,2,0
475,2,2,0
476,2,2,0
477,2,2,0
478,2,2,0
479,2,2,0
480,2,2,0
481,2,2,0
482,2,2,0
483,2,2,0
484,2,2,0
485,2,2,0
486,2,2,0
487,2,2,0
488,2,2,0
489,2,2,0
490,2,2,0
491,2,2,0
492,2,2,0
493,2,2,0
494,2,2,0
495,2,2,0
496,2,2,0
497,2,2,0
498,2,2,0
499,2,2,0
500,2,2,0
501,2,2,0
502,2,2,0
503,2,2,0
504,2,2,0
505,2,2,0
506,2,2,0
507,2,2,0
508,2,2,0
509,2,2,0
510,2,2,0
511,2,2,0
512,2,2,0
*Output,field,frequency=1
*Node Output,nset=UPPERNODES
U,RF
*Contact Output
CDISP,CFORCE
*End Step
*Step,name=CELL50,nlgeom=YES,inc=10
*Coupled Temperature-Displacement,steady state
1,1,1,1
*Boundary,op=NEW
FIELD,1,1,0
FIELD,11,11,300
UPPERNODES,2,2,-.0002
CONTROLS,3,5,0
1,2,2,0
2,2,2,0
3,2,2,0
4,2,2,0
5,2,2,0
6,2,2,0
7,2,2,0
8,2,2,0
9,2,2,0
10,2,2,0
11,2,2,0
12,2,2,0
13,2,2,0
14,2,2,0
15,2,2,0
16,2,2,0
17,2,2,0
18,2,2,0
19,2,2,0
20,2,2,0
21,2,2,0
22,2,2,0
23,2,2,0
24,2,2,0
25,2,2,0
26,2,2,0
27,2,2,0
28,2,2,0
29,2,2,0
30,2,2,0
31,2,2,0
32,2,2,0
33,2,2,0
34,2,2,0
35,2,2,0
36,2,2,0
37,2,2,0
38,2,2,0
39,2,2,0
40,2,2,0
41,2,2,0
42,2,2,0
43,2,2,0
44,2,2,0
45,2,2,0
46,2,2,0
47,2,2,0
48,2,2,0
49,2,2,0
50,2,2,0
51,2,2,0
52,2,2,0
53,2,2,0
54,2,2,0
55,2,2,0
56,2,2,0
57,2,2,0
58,2,2,0
59,2,2,0
60,2,2,0
61,2,2,0
62,2,2,0
63,2,2,0
64,2,2,0
65,2,2,0
66,2,2,0
67,2,2,0
68,2,2,0
69,2,2,0
70,2,2,0
71,2,2,0
72,2,2,0
73,2,2,0
74,2,2,0
75,2,2,0
76,2,2,0
77,2,2,0
78,2,2,0
79,2,2,0
80,2,2,0
81,2,2,0
82,2,2,0
83,2,2,0
84,2,2,0
85,2,2,0
86,2,2,0
87,2,2,0
88,2,2,0
89,2,2,0
90,2,2,0
91,2,2,0
92,2,2,0
93,2,2,0
94,2,2,0
95,2,2,0
96,2,2,0
97,2,2,0
98,2,2,0
99,2,2,0
100,2,2,0
101,2,2,0
102,2,2,0
103,2,2,0
104,2,2,0
105,2,2,0
106,2,2,0
107,2,2,0
108,2,2,0
109,2,2,0
110,2,2,0
111,2,2,0
112,2,2,0
113,2,2,0
114,2,2,0
115,2,2,0
116,2,2,0
117,2,2,0
118,2,2,0
119,2,2,0
120,2,2,0
121,2,2,0
122,2,2,0
123,2,2,0
124,2,2,0
125,2,2,0
126,2,2,0
127,2,2,0
128,2,2,0
129,2,2,0
130,2,2,0
131,2,2,0
132,2,2,0
133,2,2,0
134,2,2,0
135,2,2,0
136,2,2,0
137,2,2,0
138,2,2,0
139,2,2,0
140,2,2,0
141,2,2,0
142,2,2,0
143,2,2,0
144,2,2,0
145,2,2,0
146,2,2,0
147,2,2,0
148,2,2,0
149,2,2,0
150,2,2,0
151,2,2,0
152,2,2,0
153,2,2,0
154,2,2,0
155,2,2,0
156,2,2,0
157,2,2,0
158,2,2,0
159,2,2,0
160,2,2,0
161,2,2,0
162,2,2,0
163,2,2,0
164,2,2,0
165,2,2,0
166,2,2,0
167,2,2,0
168,2,2,0
169,2,2,0
170,2,2,0
171,2,2,0
172,2,2,0
173,2,2,0
174,2,2,0
175,2,2,0
176,2,2,0
177,2,2,0
178,2,2,0
179,2,2,0
180,2,2,0
181,2,2,0
182,2,2,0
183,2,2,0
184,2,2,0
185,2,2,0
186,2,2,0
187,2,2,0
188,2,2,0
189,2,2,0
190,2,2,0
191,2,2,0
192,2,2,0
193,2,2,0
194,2,2,0
195,2,2,0
196,2,2,0
197,2,2,0
198,2,2,0
199,2,2,0
200,2,2,0
201,2,2,0
202,2,2,0
203,2,2,0
204,2,2,0
205,2,2,0
206,2,2,0
207,2,2,0
208,2,2,0
209,2,2,0
210,2,2,0
211,2,2,0
212,2,2,0
213,2,2,0
214,2,2,0
215,2,2,0
216,2,2,0
217,2,2,0
218,2,2,0
219,2,2,0
220,2,2,0
221,2,2,0
222,2,2,0
223,2,2,0
224,2,2,0
225,2,2,0
226,2,2,0
227,2,2,0
228,2,2,0
229,2,2,0
230,2,2,0
231,2,2,0
232,2,2,0
233,2,2,0
234,2,2,0
235,2,2,0
236,2,2,0
237,2,2,0
238,2,2,0
239,2,2,0
240,2,2,0
241,2,2,0
242,2,2,0
243,2,2,0
244,2,2,0
245,2,2,0
246,2,2,0
247,2,2,0
248,2,2,0
249,2,2,0
250,2,2,0
251,2,2,0
252,2,2,0
253,2,2,0
254,2,2,0
255,2,2,0
256,2,2,0
257,2,2,0
258,2,2,0
259,2,2,0
260,2,2,0
261,2,2,0
262,2,2,0
263,2,2,0
264,2,2,0
265,2,2,0
266,2,2,0
267,2,2,0
268,2,2,0
269,2,2,0
270,2,2,0
271,2,2,0
272,2,2,0
273,2,2,0
274,2,2,0
275,2,2,0
276,2,2,0
277,2,2,0
278,2,2,0
279,2,2,0
280,2,2,0
281,2,2,0
282,2,2,0
283,2,2,0
284,2,2,0
285,2,2,0
286,2,2,0
287,2,2,0
288,2,2,0
289,2,2,0
290,2,2,0
291,2,2,0
292,2,2,0
293,2,2,0
294,2,2,0
295,2,2,0
296,2,2,0
297,2,2,0
298,2,2,0
299,2,2,0
300,2,2,0
301,2,2,0
302,2,2,0
303,2,2,0
304,2,2,0
305,2,2,0
306,2,2,0
307,2,2,0
308,2,2,0
309,2,2,0
310,2,2,0
311,2,2,0
312,2,2,0
313,2,2,0
314,2,2,0
315,2,2,0
316,2,2,0
317,2,2,0
318,2,2,0
319,2,2,0
320,2,2,0
321,2,2,0
322,2,2,0
323,2,2,0
324,2,2,0
325,2,2,0
326,2,2,0
327,2,2,0
328,2,2,0
329,2,2,0
330,2,2,0
331,2,2,0
332,2,2,0
333,2,2,0
334,2,2,0
335,2,2,0
336,2,2,0
337,2,2,0
338,2,2,0
339,2,2,0
340,2,2,0
341,2,2,0
342,2,2,0
343,2,2,0
344,2,2,0
345,2,2,0
346,2,2,0
347,2,2,0
348,2,2,0
349,2,2,0
350,2,2,0
351,2,2,0
352,2,2,0
353,2,2,0
354,2,2,0
355,2,2,0
356,2,2,0
357,2,2,0
358,2,2,0
359,2,2,0
360,2,2,0
361,2,2,0
362,2,2,0
363,2,2,0
364,2,2,0
365,2,2,0
366,2,2,0
367,2,2,0
368,2,2,0
369,2,2,0
370,2,2,0
371,2,2,0
372,2,2,0
373,2,2,0
374,2,2,0
375,2,2,0
376,2,2,0
377,2,2,0
378,2,2,0
379,2,2,0
380,2,2,0
381,2,2,0
382,2,2,0
383,2,2,0
384,2,2,0
385,2,2,0
386,2,2,0
387,2,2,0
388,2,2,0
389,2,2,0
390,2,2,0
391,2,2,0
392,2,2,0
393,2,2,1e-07
394,2,2,1e-07
395,2,2,1e-07
396,2,2,1e-07
397,2,2,1e-07
398,2,2,1e-07
399,2,2,1e-07
400,2,2,1e-07
401,2,2,0
402,2,2,0
403,2,2,0
404,2,2,0
405,2,2,0
406,2,2,0
407,2,2,0
408,2,2,0
409,2,2,0
410,2,2,0
411,2,2,0
412,2,2,0
413,2,2,0
414,2,2,0
415,2,2,0
416,2,2,0
417,2,2,0
418,2,2,0
419,2,2,0
420,2,2,0
421,2,2,0
422,2,2,0
423,2,2,0
424,2,2,0
425,2,2,0
426,2,2,0
427,2,2,0
428,2,2,0
429,2,2,0
430,2,2,0
431,2,2,0
432,2,2,0
433,2,2,0
434,2,2,0
435,2,2,0
436,2,2,0
437,2,2,0
438,2,2,0
439,2,2,0
440,2,2,0
441,2,2,0
442,2,2,0
443,2,2,0
444,2,2,0
445,2,2,0
446,2,2,0
447,2,2,0
448,2,2,0
449,2,2,0
450,2,2,0
451,2,2,0
452,2,2,0
453,2,2,0
454,2,2,0
455,2,2,0
456,2,2,0
457,2,2,0
458,2,2,0
459,2,2,0
460,2,2,0
461,2,2,0
462,2,2,0
463,2,2,0
464,2,2,0
465,2,2,0
466,2,2,0
467,2,2,0
468,2,2,0
469,2,2,0
470,2,2,0
471,2,2,0
472,2,2,0
473,2,2,0
474,2,2,0
475,2,2,0
476,2,2,0
477,2,2,0
478,2,2,0
479,2,2,0
480,2,2,0
481,2,2,0
482,2,2,0
483,2,2,0
484,2,2,0
485,2,2,0
486,2,2,0
487,2,2,0
488,2,2,0
489,2,2,0
490,2,2,0
491,2,2,0
492,2,2,0
493,2,2,0
494,2,2,0
495,2,2,0
496,2,2,0
497,2,2,0
498,2,2,0
499,2,2,0
500,2,2,0
501,2,2,0
502,2,2,0
503,2,2,0
504,2,2,0
505,2,2,0
506,2,2,0
507,2,2,0
508,2,2,0
509,2,2,0
510,2,2,0
511,2,2,0
512,2,2,0
*Output,field,frequency=1
*Node Output,nset=UPPERNODES
U,RF
*Contact Output
CDISP,CFORCE
*End Step
*Step,name=CELL51,nlgeom=YES,inc=10
*Coupled Temperature-Displacement,steady state
1,1,1,1
*Boundary,op=NEW
FIELD,1,1,0
FIELD,11,11,300
UPPERNODES,2,2,-.0002
CONTROLS,3,5,0
1,2,2,0
2,2,2,0
3,2,2,0
4,2,2,0
5,2,2,0
6,2,2,0
7,2,2,0
8,2,2,0
9,2,2,0
10,2,2,0
11,2,2,0
12,2,2,0
13,2,2,0
14,2,2,0
15,2,2,0
16,2,2,0
17,2,2,0
18,2,2,0
19,2,2,0
20,2,2,0
21,2,2,0
22,2,2,0
23,2,2,0
24,2,2,0
25,2,2,0
26,2,2,0
27,2,2,0
28,2,2,0
29,2,2,0
30,2,2,0
31,2,2,0
32,2,2,0
33,2,2,0
34,2,2,0
35,2,2,0
36,2,2,0
37,2,2,0
38,2,2,0
39,2,2,0
40,2,2,0
41,2,2,0
42,2,2,0
43,2,2,0
44,2,2,0
45,2,2,0
46,2,2,0
47,2,2,0
48,2,2,0
49,2,2,0
50,2,2,0
51,2,2,0
52,2,2,0
53,2,2,0
54,2,2,0
55,2,2,0
56,2,2,0
57,2,2,0
58,2,2,0
59,2,2,0
60,2,2,0
61,2,2,0
62,2,2,0
63,2,2,0
64,2,2,0
65,2,2,0
66,2,2,0
67,2,2,0
68,2,2,0
69,2,2,0
70,2,2,0
71,2,2,0
72,2,2,0
73,2,2,0
74,2,2,0
75,2,2,0
76,2,2,0
77,2,2,0
78,2,2,0
79,2,2,0
80,2,2,0
81,2,2,0
82,2,2,0
83,2,2,0
84,2,2,0
85,2,2,0
86,2,2,0
87,2,2,0
88,2,2,0
89,2,2,0
90,2,2,0
91,2,2,0
92,2,2,0
93,2,2,0
94,2,2,0
95,2,2,0
96,2,2,0
97,2,2,0
98,2,2,0
99,2,2,0
100,2,2,0
101,2,2,0
102,2,2,0
103,2,2,0
104,2,2,0
105,2,2,0
106,2,2,0
107,2,2,0
108,2,2,0
109,2,2,0
110,2,2,0
111,2,2,0
112,2,2,0
113,2,2,0
114,2,2,0
115,2,2,0
116,2,2,0
117,2,2,0
118,2,2,0
119,2,2,0
120,2,2,0
121,2,2,0
122,2,2,0
123,2,2,0
124,2,2,0
125,2,2,0
126,2,2,0
127,2,2,0
128,2,2,0
129,2,2,0
130,2,2,0
131,2,2,0
132,2,2,0
133,2,2,0
134,2,2,0
135,2,2,0
136,2,2,0
137,2,2,0
138,2,2,0
139,2,2,0
140,2,2,0
141,2,2,0
142,2,2,0
143,2,2,0
144,2,2,0
145,2,2,0
146,2,2,0
147,2,2,0
148,2,2,0
149,2,2,0
150,2,2,0
151,2,2,0
152,2,2,0
153,2,2,0
154,2,2,0
155,2,2,0
156,2,2,0
157,2,2,0
158,2,2,0
159,2,2,0
160,2,2,0
161,2,2,0
162,2,2,0
163,2,2,0
164,2,2,0
165,2,2,0
166,2,2,0
167,2,2,0
168,2,2,0
169,2,2,0
170,2,2,0
171,2,2,0
172,2,2,0
173,2,2,0
174,2,2,0
175,2,2,0
176,2,2,0
177,2,2,0
178,2,2,0
179,2,2,0
180,2,2,0
181,2,2,0
182,2,2,0
183,2,2,0
184,2,2,0
185,2,2,0
186,2,2,0
187,2,2,0
188,2,2,0
189,2,2,0
190,2,2,0
191,2,2,0
192,2,2,0
193,2,2,0
194,2,2,0
195,2,2,0
196,2,2,0
197,2,2,0
198,2,2,0
199,2,2,0
200,2,2,0
201,2,2,0
202,2,2,0
203,2,2,0
204,2,2,0
205,2,2,0
206,2,2,0
207,2,2,0
208,2,2,0
209,2,2,0
210,2,2,0
211,2,2,0
212,2,2,0
213,2,2,0
214,2,2,0
215,2,2,0
216,2,2,0
217,2,2,0
218,2,2,0
219,2,2,0
220,2,2,0
221,2,2,0
222,2,2,0
223,2,2,0
224,2,2,0
225,2,2,0
226,2,2,0
227,2,2,0
228,2,2,0
229,2,2,0
230,2,2,0
231,2,2,0
232,2,2,0
233,2,2,0
234,2,2,0
235,2,2,0
236,2,2,0
237,2,2,0
238,2,2,0
239,2,2,0
240,2,2,0
241,2,2,0
242,2,2,0
243,2,2,0
244,2,2,0
245,2,2,0
246,2,2,0
247,2,2,0
248,2,2,0
249,2,2,0
250,2,2,0
251,2,2,0
252,2,2,0
253,2,2,0
254,2,2,0
255,2,2,0
256,2,2,0
257,2,2,0
258,2,2,0
259,2,2,0
260,2,2,0
261,2,2,0
262,2,2,0
263,2,2,0
264,2,2,0
265,2,2,0
266,2,2,0
267,2,2,0
268,2,2,0
269,2,2,0
270,2,2,0
271,2,2,0
272,2,2,0
273,2,2,0
274,2,2,0
275,2,2,0
276,2,2,0
277,2,2,0
278,2,2,0
279,2,2,0
280,2,2,0
281,2,2,0
282,2,2,0
283,2,2,0
284,2,2,0
285,2,2,0
286,2,2,0
287,2,2,0
288,2,2,0
289,2,2,0
290,2,2,0
291,2,2,0
292,2,2,0
293,2,2,0
294,2,2,0
295,2,2,0
296,2,2,0
297,2,2,0
298,2,2,0
299,2,2,0
300,2,2,0
301,2,2,0
302,2,2,0
303,2,2,0
304,2,2,0
305,2,2,0
306,2,2,0
307,2,2,0
308,2,2,0
309,2,2,0
310,2,2,0
311,2,2,0
312,2,2,0
313,2,2,0
314,2,2,0
315,2,2,0
316,2,2,0
317,2,2,0
318,2,2,0
319,2,2,0
320,2,2,0
321,2,2,0
322,2,2,0
323,2,2,0
324,2,2,0
325,2,2,0
326,2,2,0
327,2,2,0
328,2,2,0
329,2,2,0
330,2,2,0
331,2,2,0
332,2,2,0
333,2,2,0
334,2,2,0
335,2,2,0
336,2,2,0
337,2,2,0
338,2,2,0
339,2,2,0
340,2,2,0
341,2,2,0
342,2,2,0
343,2,2,0
344,2,2,0
345,2,2,0
346,2,2,0
347,2,2,0
348,2,2,0
349,2,2,0
350,2,2,0
351,2,2,0
352,2,2,0
353,2,2,0
354,2,2,0
355,2,2,0
356,2,2,0
357,2,2,0
358,2,2,0
359,2,2,0
360,2,2,0
361,2,2,0
362,2,2,0
363,2,2,0
364,2,2,0
365,2,2,0
366,2,2,0
367,2,2,0
368,2,2,0
369,2,2,0
370,2,2,0
371,2,2,0
372,2,2,0
373,2,2,0
374,2,2,0
375,2,2,0
376,2,2,0
377,2,2,0
378,2,2,0
379,2,2,0
380,2,2,0
381,2,2,0
382,2,2,0
383,2,2,0
384,2,2,0
385,2,2,0
386,2,2,0
387,2,2,0
388,2,2,0
389,2,2,0
390,2,2,0
391,2,2,0
392,2,2,0
393,2,2,0
394,2,2,0
395,2,2,0
396,2,2,0
397,2,2,0
398,2,2,0
399,2,2,0
400,2,2,0
401,2,2,1e-07
402,2,2,1e-07
403,2,2,1e-07
404,2,2,1e-07
405,2,2,1e-07
406,2,2,1e-07
407,2,2,1e-07
408,2,2,1e-07
409,2,2,0
410,2,2,0
411,2,2,0
412,2,2,0
413,2,2,0
414,2,2,0
415,2,2,0
416,2,2,0
417,2,2,0
418,2,2,0
419,2,2,0
420,2,2,0
421,2,2,0
422,2,2,0
423,2,2,0
424,2,2,0
425,2,2,0
426,2,2,0
427,2,2,0
428,2,2,0
429,2,2,0
430,2,2,0
431,2,2,0
432,2,2,0
433,2,2,0
434,2,2,0
435,2,2,0
436,2,2,0
437,2,2,0
438,2,2,0
439,2,2,0
440,2,2,0
441,2,2,0
442,2,2,0
443,2,2,0
444,2,2,0
445,2,2,0
446,2,2,0
447,2,2,0
448,2,2,0
449,2,2,0
450,2,2,0
451,2,2,0
452,2,2,0
453,2,2,0
454,2,2,0
455,2,2,0
456,2,2,0
457,2,2,0
458,2,2,0
459,2,2,0
460,2,2,0
461,2,2,0
462,2,2,0
463,2,2,0
464,2,2,0
465,2,2,0
466,2,2,0
467,2,2,0
468,2,2,0
469,2,2,0
470,2,2,0
471,2,2,0
472,2,2,0
473,2,2,0
474,2,2,0
475,2,2,0
476,2,2,0
477,2,2,0
478,2,2,0
479,2,2,0
480,2,2,0
481,2,2,0
482,2,2,0
483,2,2,0
484,2,2,0
485,2,2,0
486,2,2,0
487,2,2,0
488,2,2,0
489,2,2,0
490,2,2,0
491,2,2,0
492,2,2,0
493,2,2,0
494,2,2,0
495,2,2,0
496,2,2,0
497,2,2,0
498,2,2,0
499,2,2,0
500,2,2,0
501,2,2,0
502,2,2,0
503,2,2,0
504,2,2,0
505,2,2,0
506,2,2,0
507,2,2,0
508,2,2,0
509,2,2,0
510,2,2,0
511,2,2,0
512,2,2,0
*Output,field,frequency=1
*Node Output,nset=UPPERNODES
U,RF
*Contact Output
CDISP,CFORCE
*End Step
*Step,name=CELL52,nlgeom=YES,inc=10
*Coupled Temperature-Displacement,steady state
1,1,1,1
*Boundary,op=NEW
FIELD,1,1,0
FIELD,11,11,300
UPPERNODES,2,2,-.0002
CONTROLS,3,5,0
1,2,2,0
2,2,2,0
3,2,2,0
4,2,2,0
5,2,2,0
6,2,2,0
7,2,2,0
8,2,2,0
9,2,2,0
10,2,2,0
11,2,2,0
12,2,2,0
13,2,2,0
14,2,2,0
15,2,2,0
16,2,2,0
17,2,2,0
18,2,2,0
19,2,2,0
20,2,2,0
21,2,2,0
22,2,2,0
23,2,2,0
24,2,2,0
25,2,2,0
26,2,2,0
27,2,2,0
28,2,2,0
29,2,2,0
30,2,2,0
31,2,2,0
32,2,2,0
33,2,2,0
34,2,2,0
35,2,2,0
36,2,2,0
37,2,2,0
38,2,2,0
39,2,2,0
40,2,2,0
41,2,2,0
42,2,2,0
43,2,2,0
44,2,2,0
45,2,2,0
46,2,2,0
47,2,2,0
48,2,2,0
49,2,2,0
50,2,2,0
51,2,2,0
52,2,2,0
53,2,2,0
54,2,2,0
55,2,2,0
56,2,2,0
57,2,2,0
58,2,2,0
59,2,2,0
60,2,2,0
61,2,2,0
62,2,2,0
63,2,2,0
64,2,2,0
65,2,2,0
66,2,2,0
67,2,2,0
68,2,2,0
69,2,2,0
70,2,2,0
71,2,2,0
72,2,2,0
73,2,2,0
74,2,2,0
75,2,2,0
76,2,2,0
77,2,2,0
78,2,2,0
79,2,2,0
80,2,2,0
81,2,2,0
82,2,2,0
83,2,2,0
84,2,2,0
85,2,2,0
86,2,2,0
87,2,2,0
88,2,2,0
89,2,2,0
90,2,2,0
91,2,2,0
92,2,2,0
93,2,2,0
94,2,2,0
95,2,2,0
96,2,2,0
97,2,2,0
98,2,2,0
99,2,2,0
100,2,2,0
101,2,2,0
102,2,2,0
103,2,2,0
104,2,2,0
105,2,2,0
106,2,2,0
107,2,2,0
108,2,2,0
109,2,2,0
110,2,2,0
111,2,2,0
112,2,2,0
113,2,2,0
114,2,2,0
115,2,2,0
116,2,2,0
117,2,2,0
118,2,2,0
119,2,2,0
120,2,2,0
121,2,2,0
122,2,2,0
123,2,2,0
124,2,2,0
125,2,2,0
126,2,2,0
127,2,2,0
128,2,2,0
129,2,2,0
130,2,2,0
131,2,2,0
132,2,2,0
133,2,2,0
134,2,2,0
135,2,2,0
136,2,2,0
137,2,2,0
138,2,2,0
139,2,2,0
140,2,2,0
141,2,2,0
142,2,2,0
143,2,2,0
144,2,2,0
145,2,2,0
146,2,2,0
147,2,2,0
148,2,2,0
149,2,2,0
150,2,2,0
151,2,2,0
152,2,2,0
153,2,2,0
154,2,2,0
155,2,2,0
156,2,2,0
157,2,2,0
158,2,2,0
159,2,2,0
160,2,2,0
161,2,2,0
162,2,2,0
163,2,2,0
164,2,2,0
165,2,2,0
166,2,2,0
167,2,2,0
168,2,2,0
169,2,2,0
170,2,2,0
171,2,2,0
172,2,2,0
173,2,2,0
174,2,2,0
175,2,2,0
176,2,2,0
177,2,2,0
178,2,2,0
179,2,2,0
180,2,2,0
181,2,2,0
182,2,2,0
183,2,2,0
184,2,2,0
185,2,2,0
186,2,2,0
187,2,2,0
188,2,2,0
189,2,2,0
190,2,2,0
191,2,2,0
192,2,2,0
193,2,2,0
194,2,2,0
195,2,2,0
196,2,2,0
197,2,2,0
198,2,2,0
199,2,2,0
200,2,2,0
201,2,2,0
202,2,2,0
203,2,2,0
204,2,2,0
205,2,2,0
206,2,2,0
207,2,2,0
208,2,2,0
209,2,2,0
210,2,2,0
211,2,2,0
212,2,2,0
213,2,2,0
214,2,2,0
215,2,2,0
216,2,2,0
217,2,2,0
218,2,2,0
219,2,2,0
220,2,2,0
221,2,2,0
222,2,2,0
223,2,2,0
224,2,2,0
225,2,2,0
226,2,2,0
227,2,2,0
228,2,2,0
229,2,2,0
230,2,2,0
231,2,2,0
232,2,2,0
233,2,2,0
234,2,2,0
235,2,2,0
236,2,2,0
237,2,2,0
238,2,2,0
239,2,2,0
240,2,2,0
241,2,2,0
242,2,2,0
243,2,2,0
244,2,2,0
245,2,2,0
246,2,2,0
247,2,2,0
248,2,2,0
249,2,2,0
250,2,2,0
251,2,2,0
252,2,2,0
253,2,2,0
254,2,2,0
255,2,2,0
256,2,2,0
257,2,2,0
258,2,2,0
259,2,2,0
260,2,2,0
261,2,2,0
262,2,2,0
263,2,2,0
264,2,2,0
265,2,2,0
266,2,2,0
267,2,2,0
268,2,2,0
269,2,2,0
270,2,2,0
271,2,2,0
272,2,2,0
273,2,2,0
274,2,2,0
275,2,2,0
276,2,2,0
277,2,2,0
278,2,2,0
279,2,2,0
280,2,2,0
281,2,2,0
282,2,2,0
283,2,2,0
284,2,2,0
285,2,2,0
286,2,2,0
287,2,2,0
288,2,2,0
289,2,2,0
290,2,2,0
291,2,2,0
292,2,2,0
293,2,2,0
294,2,2,0
295,2,2,0
296,2,2,0
297,2,2,0
298,2,2,0
299,2,2,0
300,2,2,0
301,2,2,0
302,2,2,0
303,2,2,0
304,2,2,0
305,2,2,0
306,2,2,0
307,2,2,0
308,2,2,0
309,2,2,0
310,2,2,0
311,2,2,0
312,2,2,0
313,2,2,0
314,2,2,0
315,2,2,0
316,2,2,0
317,2,2,0
318,2,2,0
319,2,2,0
320,2,2,0
321,2,2,0
322,2,2,0
323,2,2,0
324,2,2,0
325,2,2,0
326,2,2,0
327,2,2,0
328,2,2,0
329,2,2,0
330,2,2,0
331,2,2,0
332,2,2,0
333,2,2,0
334,2,2,0
335,2,2,0
336,2,2,0
337,2,2,0
338,2,2,0
339,2,2,0
340,2,2,0
341,2,2,0
342,2,2,0
343,2,2,0
344,2,2,0
345,2,2,0
346,2,2,0
347,2,2,0
348,2,2,0
349,2,2,0
350,2,2,0
351,2,2,0
352,2,2,0
353,2,2,0
354,2,2,0
355,2,2,0
356,2,2,0
357,2,2,0
358,2,2,0
359,2,2,0
360,2,2,0
361,2,2,0
362,2,2,0
363,2,2,0
364,2,2,0
365,2,2,0
366,2,2,0
367,2,2,0
368,2,2,0
369,2,2,0
370,2,2,0
371,2,2,0
372,2,2,0
373,2,2,0
374,2,2,0
375,2,2,0
376,2,2,0
377,2,2,0
378,2,2,0
379,2,2,0
380,2,2,0
381,2,2,0
382,2,2,0
383,2,2,0
384,2,2,0
385,2,2,0
386,2,2,0
387,2,2,0
388,2,2,0
389,2,2,0
390,2,2,0
391,2,2,0
392,2,2,0
393,2,2,0
394,2,2,0
395,2,2,0
396,2,2,0
397,2,2,0
398,2,2,0
399,2,2,0
400,2,2,0
401,2,2,0
402,2,2,0
403,2,2,0
404,2,2,0
405,2,2,0
406,2,2,0
407,2,2,0
408,2,2,0
409,2,2,1e-07
410,2,2,1e-07
411,2,2,1e-07
412,2,2,1e-07
413,2,2,1e-07
414,2,2,1e-07
415,2,2,1e-07
416,2,2,1e-07
417,2,2,0
418,2,2,0
419,2,2,0
420,2,2,0
421,2,2,0
422,2,2,0
423,2,2,0
424,2,2,0
425,2,2,0
426,2,2,0
427,2,2,0
428,2,2,0
429,2,2,0
430,2,2,0
431,2,2,0
432,2,2,0
433,2,2,0
434,2,2,0
435,2,2,0
436,2,2,0
437,2,2,0
438,2,2,0
439,2,2,0
440,2,2,0
441,2,2,0
442,2,2,0
443,2,2,0
444,2,2,0
445,2,2,0
446,2,2,0
447,2,2,0
448,2,2,0
449,2,2,0
450,2,2,0
451,2,2,0
452,2,2,0
453,2,2,0
454,2,2,0
455,2,2,0
456,2,2,0
457,2,2,0
458,2,2,0
459,2,2,0
460,2,2,0
461,2,2,0
462,2,2,0
463,2,2,0
464,2,2,0
465,2,2,0
466,2,2,0
467,2,2,0
468,2,2,0
469,2,2,0
470,2,2,0
471,2,2,0
472,2,2,0
473,2,2,0
474,2,2,0
475,2,2,0
476,2,2,0
477,2,2,0
478,2,2,0
479,2,2,0
480,2,2,0
481,2,2,0
482,2,2,0
483,2,2,0
484,2,2,0
485,2,2,0
486,2,2,0
487,2,2,0
488,2,2,0
489,2,2,0
490,2,2,0
491,2,2,0
492,2,2,0
493,2,2,0
494,2,2,0
495,2,2,0
496,2,2,0
497,2,2,0
498,2,2,0
499,2,2,0
500,2,2,0
501,2,2,0
502,2,2,0
503,2,2,0
504,2,2,0
505,2,2,0
506,2,2,0
507,2,2,0
508,2,2,0
509,2,2,0
510,2,2,0
511,2,2,0
512,2,2,0
*Output,field,frequency=1
*Node Output,nset=UPPERNODES
U,RF
*Contact Output
CDISP,CFORCE
*End Step
*Step,name=CELL53,nlgeom=YES,inc=10
*Coupled Temperature-Displacement,steady state
1,1,1,1
*Boundary,op=NEW
FIELD,1,1,0
FIELD,11,11,300
UPPERNODES,2,2,-.0002
CONTROLS,3,5,0
1,2,2,0
2,2,2,0
3,2,2,0
4,2,2,0
5,2,2,0
6,2,2,0
7,2,2,0
8,2,2,0
9,2,2,0
10,2,2,0
11,2,2,0
12,2,2,0
13,2,2,0
14,2,2,0
15,2,2,0
16,2,2,0
17,2,2,0
18,2,2,0
19,2,2,0
20,2,2,0
21,2,2,0
22,2,2,0
23,2,2,0
24,2,2,0
25,2,2,0
26,2,2,0
27,2,2,0
28,2,2,0
29,2,2,0
30,2,2,0
31,2,2,0
32,2,2,0
33,2,2,0
34,2,2,0
35,2,2,0
36,2,2,0
37,2,2,0
38,2,2,0
39,2,2,0
40,2,2,0
41,2,2,0
42,2,2,0
43,2,2,0
44,2,2,0
45,2,2,0
46,2,2,0
47,2,2,0
48,2,2,0
49,2,2,0
50,2,2,0
51,2,2,0
52,2,2,0
53,2,2,0
54,2,2,0
55,2,2,0
56,2,2,0
57,2,2,0
58,2,2,0
59,2,2,0
60,2,2,0
61,2,2,0
62,2,2,0
63,2,2,0
64,2,2,0
65,2,2,0
66,2,2,0
67,2,2,0
68,2,2,0
69,2,2,0
70,2,2,0
71,2,2,0
72,2,2,0
73,2,2,0
74,2,2,0
75,2,2,0
76,2,2,0
77,2,2,0
78,2,2,0
79,2,2,0
80,2,2,0
81,2,2,0
82,2,2,0
83,2,2,0
84,2,2,0
85,2,2,0
86,2,2,0
87,2,2,0
88,2,2,0
89,2,2,0
90,2,2,0
91,2,2,0
92,2,2,0
93,2,2,0
94,2,2,0
95,2,2,0
96,2,2,0
97,2,2,0
98,2,2,0
99,2,2,0
100,2,2,0
101,2,2,0
102,2,2,0
103,2,2,0
104,2,2,0
105,2,2,0
106,2,2,0
107,2,2,0
108,2,2,0
109,2,2,0
110,2,2,0
111,2,2,0
112,2,2,0
113,2,2,0
114,2,2,0
115,2,2,0
116,2,2,0
117,2,2,0
118,2,2,0
119,2,2,0
120,2,2,0
121,2,2,0
122,2,2,0
123,2,2,0
124,2,2,0
125,2,2,0
126,2,2,0
127,2,2,0
128,2,2,0
129,2,2,0
130,2,2,0
131,2,2,0
132,2,2,0
133,2,2,0
134,2,2,0
135,2,2,0
136,2,2,0
137,2,2,0
138,2,2,0
139,2,2,0
140,2,2,0
141,2,2,0
142,2,2,0
143,2,2,0
144,2,2,0
145,2,2,0
146,2,2,0
147,2,2,0
148,2,2,0
149,2,2,0
150,2,2,0
151,2,2,0
152,2,2,0
153,2,2,0
154,2,2,0
155,2,2,0
156,2,2,0
157,2,2,0
158,2,2,0
159,2,2,0
160,2,2,0
161,2,2,0
162,2,2,0
163,2,2,0
164,2,2,0
165,2,2,0
166,2,2,0
167,2,2,0
168,2,2,0
169,2,2,0
170,2,2,0
171,2,2,0
172,2,2,0
173,2,2,0
174,2,2,0
175,2,2,0
176,2,2,0
177,2,2,0
178,2,2,0
179,2,2,0
180,2,2,0
181,2,2,0
182,2,2,0
183,2,2,0
184,2,2,0
185,2,2,0
186,2,2,0
187,2,2,0
188,2,2,0
189,2,2,0
190,2,2,0
191,2,2,0
192,2,2,0
193,2,2,0
194,2,2,0
195,2,2,0
196,2,2,0
197,2,2,0
198,2,2,0
199,2,2,0
200,2,2,0
201,2,2,0
202,2,2,0
203,2,2,0
204,2,2,0
205,2,2,0
206,2,2,0
207,2,2,0
208,2,2,0
209,2,2,0
210,2,2,0
211,2,2,0
212,2,2,0
213,2,2,0
214,2,2,0
215,2,2,0
216,2,2,0
217,2,2,0
218,2,2,0
219,2,2,0
220,2,2,0
221,2,2,0
222,2,2,0
223,2,2,0
224,2,2,0
225,2,2,0
226,2,2,0
227,2,2,0
228,2,2,0
229,2,2,0
230,2,2,0
231,2,2,0
232,2,2,0
233,2,2,0
234,2,2,0
235,2,2,0
236,2,2,0
237,2,2,0
238,2,2,0
239,2,2,0
240,2,2,0
241,2,2,0
242,2,2,0
243,2,2,0
244,2,2,0
245,2,2,0
246,2,2,0
247,2,2,0
248,2,2,0
249,2,2,0
250,2,2,0
251,2,2,0
252,2,2,0
253,2,2,0
254,2,2,0
255,2,2,0
256,2,2,0
257,2,2,0
258,2,2,0
259,2,2,0
260,2,2,0
261,2,2,0
262,2,2,0
263,2,2,0
264,2,2,0
265,2,2,0
266,2,2,0
267,2,2,0
268,2,2,0
269,2,2,0
270,2,2,0
271,2,2,0
272,2,2,0
273,2,2,0
274,2,2,0
275,2,2,0
276,2,2,0
277,2,2,0
278,2,2,0
279,2,2,0
280,2,2,0
281,2,2,0
282,2,2,0
283,2,2,0
284,2,2,0
285,2,2,0
286,2,2,0
287,2,2,0
288,2,2,0
289,2,2,0
290,2,2,0
291,2,2,0
292,2,2,0
293,2,2,0
294,2,2,0
295,2,2,0
296,2,2,0
297,2,2,0
298,2,2,0
299,2,2,0
300,2,2,0
301,2,2,0
302,2,2,0
303,2,2,0
304,2,2,0
305,2,2,0
306,2,2,0
307,2,2,0
308,2,2,0
309,2,2,0
310,2,2,0
311,2,2,0
312,2,2,0
313,2,2,0
314,2,2,0
315,2,2,0
316,2,2,0
317,2,2,0
318,2,2,0
319,2,2,0
320,2,2,0
321,2,2,0
322,2,2,0
323,2,2,0
324,2,2,0
325,2,2,0
326,2,2,0
327,2,2,0
328,2,2,0
329,2,2,0
330,2,2,0
331,2,2,0
332,2,2,0
333,2,2,0
334,2,2,0
335,2,2,0
336,2,2,0
337,2,2,0
338,2,2,0
339,2,2,0
340,2,2,0
341,2,2,0
342,2,2,0
343,2,2,0
344,2,2,0
345,2,2,0
346,2,2,0
347,2,2,0
348,2,2,0
349,2,2,0
350,2,2,0
351,2,2,0
352,2,2,0
353,2,2,0
354,2,2,0
355,2,2,0
356,2,2,0
357,2,2,0
358,2,2,0
359,2,2,0
360,2,2,0
361,2,2,0
362,2,2,0
363,2,2,0
364,2,2,0
365,2,2,0
366,2,2,0
367,2,2,0
368,2,2,0
369,2,2,0
370,2,2,0
371,2,2,0
372,2,2,0
373,2,2,0
374,2,2,0
375,2,2,0
376,2,2,0
377,2,2,0
378,2,2,0
379,2,2,0
380,2,2,0
381,2,2,0
382,2,2,0
383,2,2,0
384,2,2,0
385,2,2,0
386,2,2,0
387,2,2,0
388,2,2,0
389,2,2,0
390,2,2,0
391,2,2,0
392,2,2,0
393,2,2,0
394,2,2,0
395,2,2,0
396,2,2,0
397,2,2,0
398,2,2,0
399,2,2,0
400,2,2,0
401,2,2,0
402,2,2,0
403,2,2,0
404,2,2,0
405,2,2,0
406,2,2,0
407,2,2,0
408,2,2,0
409,2,2,0
410,2,2,0
411,2,2,0
412,2,2,0
413,2,2,0
414,2,2,0
415,2,2,0
416,2,2,0
417,2,2,1e-07
418,2,2,1e-07
419,2,2,1e-07
420,2,2,1e-07
421,2,2,1e-07
422,2,2,1e-07
423,2,2,1e-07
424,2,2,1e-07
425,2,2,0
426,2,2,0
427,2,2,0
428,2,2,0
429,2,2,0
430,2,2,0
431,2,2,0
432,2,2,0
433,2,2,0
434,2,2,0
435,2,2,0
436,2,2,0
437,2,2,0
438,2,2,0
439,2,2,0
440,2,2,0
441,2,2,0
442,2,2,0
443,2,2,0
444,2,2,0
445,2,2,0
446,2,2,0
447,2,2,0
448,2,2,0
449,2,2,0
450,2,2,0
451,2,2,0
452,2,2,0
453,2,2,0
454,2,2,0
455,2,2,0
456,2,2,0
457,2,2,0
458,2,2,0
459,2,2,0
460,2,2,0
461,2,2,0
462,2,2,0
463,2,2,0
464,2,2,0
465,2,2,0
466,2,2,0
467,2,2,0
468,2,2,0
469,2,2,0
470,2,2,0
471,2,2,0
472,2,2,0
473,2,2,0
474,2,2,0
475,2,2,0
476,2,2,0
477,2,2,0
478,2,2,0
479,2,2,0
480,2,2,0
481,2,2,0
482,2,2,0
483,2,2,0
484,2,2,0
485,2,2,0
486,2,2,0
487,2,2,0
488,2,2,0
489,2,2,0
490,2,2,0
491,2,2,0
492,2,2,0
493,2,2,0
494,2,2,0
495,2,2,0
496,2,2,0
497,2,2,0
498,2,2,0
499,2,2,0
500,2,2,0
501,2,2,0
502,2,2,0
503,2,2,0
504,2,2,0
505,2,2,0
506,2,2,0
507,2,2,0
508,2,2,0
509,2,2,0
510,2,2,0
511,2,2,0
512,2,2,0
*Output,field,frequency=1
*Node Output,nset=UPPERNODES
U,RF
*Contact Output
CDISP,CFORCE
*End Step
*Step,name=CELL54,nlgeom=YES,inc=10
*Coupled Temperature-Displacement,steady state
1,1,1,1
*Boundary,op=NEW
FIELD,1,1,0
FIELD,11,11,300
UPPERNODES,2,2,-.0002
CONTROLS,3,5,0
1,2,2,0
2,2,2,0
3,2,2,0
4,2,2,0
5,2,2,0
6,2,2,0
7,2,2,0
8,2,2,0
9,2,2,0
10,2,2,0
11,2,2,0
12,2,2,0
13,2,2,0
14,2,2,0
15,2,2,0
16,2,2,0
17,2,2,0
18,2,2,0
19,2,2,0
20,2,2,0
21,2,2,0
22,2,2,0
23,2,2,0
24,2,2,0
25,2,2,0
26,2,2,0
27,2,2,0
28,2,2,0
29,2,2,0
30,2,2,0
31,2,2,0
32,2,2,0
33,2,2,0
34,2,2,0
35,2,2,0
36,2,2,0
37,2,2,0
38,2,2,0
39,2,2,0
40,2,2,0
41,2,2,0
42,2,2,0
43,2,2,0
44,2,2,0
45,2,2,0
46,2,2,0
47,2,2,0
48,2,2,0
49,2,2,0
50,2,2,0
51,2,2,0
52,2,2,0
53,2,2,0
54,2,2,0
55,2,2,0
56,2,2,0
57,2,2,0
58,2,2,0
59,2,2,0
60,2,2,0
61,2,2,0
62,2,2,0
63,2,2,0
64,2,2,0
65,2,2,0
66,2,2,0
67,2,2,0
68,2,2,0
69,2,2,0
70,2,2,0
71,2,2,0
72,2,2,0
73,2,2,0
74,2,2,0
75,2,2,0
76,2,2,0
77,2,2,0
78,2,2,0
79,2,2,0
80,2,2,0
81,2,2,0
82,2,2,0
83,2,2,0
84,2,2,0
85,2,2,0
86,2,2,0
87,2,2,0
88,2,2,0
89,2,2,0
90,2,2,0
91,2,2,0
92,2,2,0
93,2,2,0
94,2,2,0
95,2,2,0
96,2,2,0
97,2,2,0
98,2,2,0
99,2,2,0
100,2,2,0
101,2,2,0
102,2,2,0
103,2,2,0
104,2,2,0
105,2,2,0
106,2,2,0
107,2,2,0
108,2,2,0
109,2,2,0
110,2,2,0
111,2,2,0
112,2,2,0
113,2,2,0
114,2,2,0
115,2,2,0
116,2,2,0
117,2,2,0
118,2,2,0
119,2,2,0
120,2,2,0
121,2,2,0
122,2,2,0
123,2,2,0
124,2,2,0
125,2,2,0
126,2,2,0
127,2,2,0
128,2,2,0
129,2,2,0
130,2,2,0
131,2,2,0
132,2,2,0
133,2,2,0
134,2,2,0
135,2,2,0
136,2,2,0
137,2,2,0
138,2,2,0
139,2,2,0
140,2,2,0
141,2,2,0
142,2,2,0
143,2,2,0
144,2,2,0
145,2,2,0
146,2,2,0
147,2,2,0
148,2,2,0
149,2,2,0
150,2,2,0
151,2,2,0
152,2,2,0
153,2,2,0
154,2,2,0
155,2,2,0
156,2,2,0
157,2,2,0
158,2,2,0
159,2,2,0
160,2,2,0
161,2,2,0
162,2,2,0
163,2,2,0
164,2,2,0
165,2,2,0
166,2,2,0
167,2,2,0
168,2,2,0
169,2,2,0
170,2,2,0
171,2,2,0
172,2,2,0
173,2,2,0
174,2,2,0
175,2,2,0
176,2,2,0
177,2,2,0
178,2,2,0
179,2,2,0
180,2,2,0
181,2,2,0
182,2,2,0
183,2,2,0
184,2,2,0
185,2,2,0
186,2,2,0
187,2,2,0
188,2,2,0
189,2,2,0
190,2,2,0
191,2,2,0
192,2,2,0
193,2,2,0
194,2,2,0
195,2,2,0
196,2,2,0
197,2,2,0
198,2,2,0
199,2,2,0
200,2,2,0
201,2,2,0
202,2,2,0
203,2,2,0
204,2,2,0
205,2,2,0
206,2,2,0
207,2,2,0
208,2,2,0
209,2,2,0
210,2,2,0
211,2,2,0
212,2,2,0
213,2,2,0
214,2,2,0
215,2,2,0
216,2,2,0
217,2,2,0
218,2,2,0
219,2,2,0
220,2,2,0
221,2,2,0
222,2,2,0
223,2,2,0
224,2,2,0
225,2,2,0
226,2,2,0
227,2,2,0
228,2,2,0
229,2,2,0
230,2,2,0
231,2,2,0
232,2,2,0
233,2,2,0
234,2,2,0
235,2,2,0
236,2,2,0
237,2,2,0
238,2,2,0
239,2,2,0
240,2,2,0
241,2,2,0
242,2,2,0
243,2,2,0
244,2,2,0
245,2,2,0
246,2,2,0
247,2,2,0
248,2,2,0
249,2,2,0
250,2,2,0
251,2,2,0
252,2,2,0
253,2,2,0
254,2,2,0
255,2,2,0
256,2,2,0
257,2,2,0
258,2,2,0
259,2,2,0
260,2,2,0
261,2,2,0
262,2,2,0
263,2,2,0
264,2,2,0
265,2,2,0
266,2,2,0
267,2,2,0
268,2,2,0
269,2,2,0
270,2,2,0
271,2,2,0
272,2,2,0
273,2,2,0
274,2,2,0
275,2,2,0
276,2,2,0
277,2,2,0
278,2,2,0
279,2,2,0
280,2,2,0
281,2,2,0
282,2,2,0
283,2,2,0
284,2,2,0
285,2,2,0
286,2,2,0
287,2,2,0
288,2,2,0
289,2,2,0
290,2,2,0
291,2,2,0
292,2,2,0
293,2,2,0
294,2,2,0
295,2,2,0
296,2,2,0
297,2,2,0
298,2,2,0
299,2,2,0
300,2,2,0
301,2,2,0
302,2,2,0
303,2,2,0
304,2,2,0
305,2,2,0
306,2,2,0
307,2,2,0
308,2,2,0
309,2,2,0
310,2,2,0
311,2,2,0
312,2,2,0
313,2,2,0
314,2,2,0
315,2,2,0
316,2,2,0
317,2,2,0
318,2,2,0
319,2,2,0
320,2,2,0
321,2,2,0
322,2,2,0
323,2,2,0
324,2,2,0
325,2,2,0
326,2,2,0
327,2,2,0
328,2,2,0
329,2,2,0
330,2,2,0
331,2,2,0
332,2,2,0
333,2,2,0
334,2,2,0
335,2,2,0
336,2,2,0
337,2,2,0
338,2,2,0
339,2,2,0
340,2,2,0
341,2,2,0
342,2,2,0
343,2,2,0
344,2,2,0
345,2,2,0
346,2,2,0
347,2,2,0
348,2,2,0
349,2,2,0
350,2,2,0
351,2,2,0
352,2,2,0
353,2,2,0
354,2,2,0
355,2,2,0
356,2,2,0
357,2,2,0
358,2,2,0
359,2,2,0
360,2,2,0
361,2,2,0
362,2,2,0
363,2,2,0
364,2,2,0
365,2,2,0
366,2,2,0
367,2,2,0
368,2,2,0
369,2,2,0
370,2,2,0
371,2,2,0
372,2,2,0
373,2,2,0
374,2,2,0
375,2,2,0
376,2,2,0
377,2,2,0
378,2,2,0
379,2,2,0
380,2,2,0
381,2,2,0
382,2,2,0
383,2,2,0
384,2,2,0
385,2,2,0
386,2,2,0
387,2,2,0
388,2,2,0
389,2,2,0
390,2,2,0
391,2,2,0
392,2,2,0
393,2,2,0
394,2,2,0
395,2,2,0
396,2,2,0
397,2,2,0
398,2,2,0
399,2,2,0
400,2,2,0
401,2,2,0
402,2,2,0
403,2,2,0
404,2,2,0
405,2,2,0
406,2,2,0
407,2,2,0
408,2,2,0
409,2,2,0
410,2,2,0
411,2,2,0
412,2,2,0
413,2,2,0
414,2,2,0
415,2,2,0
416,2,2,0
417,2,2,0
418,2,2,0
419,2,2,0
420,2,2,0
421,2,2,0
422,2,2,0
423,2,2,0
424,2,2,0
425,2,2,1e-07
426,2,2,1e-07
427,2,2,1e-07
428,2,2,1e-07
429,2,2,1e-07
430,2,2,1e-07
431,2,2,1e-07
432,2,2,1e-07
433,2,2,0
434,2,2,0
435,2,2,0
436,2,2,0
437,2,2,0
438,2,2,0
439,2,2,0
440,2,2,0
441,2,2,0
442,2,2,0
443,2,2,0
444,2,2,0
445,2,2,0
446,2,2,0
447,2,2,0
448,2,2,0
449,2,2,0
450,2,2,0
451,2,2,0
452,2,2,0
453,2,2,0
454,2,2,0
455,2,2,0
456,2,2,0
457,2,2,0
458,2,2,0
459,2,2,0
460,2,2,0
461,2,2,0
462,2,2,0
463,2,2,0
464,2,2,0
465,2,2,0
466,2,2,0
467,2,2,0
468,2,2,0
469,2,2,0
470,2,2,0
471,2,2,0
472,2,2,0
473,2,2,0
474,2,2,0
475,2,2,0
476,2,2,0
477,2,2,0
478,2,2,0
479,2,2,0
480,2,2,0
481,2,2,0
482,2,2,0
483,2,2,0
484,2,2,0
485,2,2,0
486,2,2,0
487,2,2,0
488,2,2,0
489,2,2,0
490,2,2,0
491,2,2,0
492,2,2,0
493,2,2,0
494,2,2,0
495,2,2,0
496,2,2,0
497,2,2,0
498,2,2,0
499,2,2,0
500,2,2,0
501,2,2,0
502,2,2,0
503,2,2,0
504,2,2,0
505,2,2,0
506,2,2,0
507,2,2,0
508,2,2,0
509,2,2,0
510,2,2,0
511,2,2,0
512,2,2,0
*Output,field,frequency=1
*Node Output,nset=UPPERNODES
U,RF
*Contact Output
CDISP,CFORCE
*End Step
*Step,name=CELL55,nlgeom=YES,inc=10
*Coupled Temperature-Displacement,steady state
1,1,1,1
*Boundary,op=NEW
FIELD,1,1,0
FIELD,11,11,300
UPPERNODES,2,2,-.0002
CONTROLS,3,5,0
1,2,2,0
2,2,2,0
3,2,2,0
4,2,2,0
5,2,2,0
6,2,2,0
7,2,2,0
8,2,2,0
9,2,2,0
10,2,2,0
11,2,2,0
12,2,2,0
13,2,2,0
14,2,2,0
15,2,2,0
16,2,2,0
17,2,2,0
18,2,2,0
19,2,2,0
20,2,2,0
21,2,2,0
22,2,2,0
23,2,2,0
24,2,2,0
25,2,2,0
26,2,2,0
27,2,2,0
28,2,2,0
29,2,2,0
30,2,2,0
31,2,2,0
32,2,2,0
33,2,2,0
34,2,2,0
35,2,2,0
36,2,2,0
37,2,2,0
38,2,2,0
39,2,2,0
40,2,2,0
41,2,2,0
42,2,2,0
43,2,2,0
44,2,2,0
45,2,2,0
46,2,2,0
47,2,2,0
48,2,2,0
49,2,2,0
50,2,2,0
51,2,2,0
52,2,2,0
53,2,2,0
54,2,2,0
55,2,2,0
56,2,2,0
57,2,2,0
58,2,2,0
59,2,2,0
60,2,2,0
61,2,2,0
62,2,2,0
63,2,2,0
64,2,2,0
65,2,2,0
66,2,2,0
67,2,2,0
68,2,2,0
69,2,2,0
70,2,2,0
71,2,2,0
72,2,2,0
73,2,2,0
74,2,2,0
75,2,2,0
76,2,2,0
77,2,2,0
78,2,2,0
79,2,2,0
80,2,2,0
81,2,2,0
82,2,2,0
83,2,2,0
84,2,2,0
85,2,2,0
86,2,2,0
87,2,2,0
88,2,2,0
89,2,2,0
90,2,2,0
91,2,2,0
92,2,2,0
93,2,2,0
94,2,2,0
95,2,2,0
96,2,2,0
97,2,2,0
98,2,2,0
99,2,2,0
100,2,2,0
101,2,2,0
102,2,2,0
103,2,2,0
104,2,2,0
105,2,2,0
106,2,2,0
107,2,2,0
108,2,2,0
109,2,2,0
110,2,2,0
111,2,2,0
112,2,2,0
113,2,2,0
114,2,2,0
115,2,2,0
116,2,2,0
117,2,2,0
118,2,2,0
119,2,2,0
120,2,2,0
121,2,2,0
122,2,2,0
123,2,2,0
124,2,2,0
125,2,2,0
126,2,2,0
127,2,2,0
128,2,2,0
129,2,2,0
130,2,2,0
131,2,2,0
132,2,2,0
133,2,2,0
134,2,2,0
135,2,2,0
136,2,2,0
137,2,2,0
138,2,2,0
139,2,2,0
140,2,2,0
141,2,2,0
142,2,2,0
143,2,2,0
144,2,2,0
145,2,2,0
146,2,2,0
147,2,2,0
148,2,2,0
149,2,2,0
150,2,2,0
151,2,2,0
152,2,2,0
153,2,2,0
154,2,2,0
155,2,2,0
156,2,2,0
157,2,2,0
158,2,2,0
159,2,2,0
160,2,2,0
161,2,2,0
162,2,2,0
163,2,2,0
164,2,2,0
165,2,2,0
166,2,2,0
167,2,2,0
168,2,2,0
169,2,2,0
170,2,2,0
171,2,2,0
172,2,2,0
173,2,2,0
174,2,2,0
175,2,2,0
176,2,2,0
177,2,2,0
178,2,2,0
179,2,2,0
180,2,2,0
181,2,2,0
182,2,2,0
183,2,2,0
184,2,2,0
185,2,2,0
186,2,2,0
187,2,2,0
188,2,2,0
189,2,2,0
190,2,2,0
191,2,2,0
192,2,2,0
193,2,2,0
194,2,2,0
195,2,2,0
196,2,2,0
197,2,2,0
198,2,2,0
199,2,2,0
200,2,2,0
201,2,2,0
202,2,2,0
203,2,2,0
204,2,2,0
205,2,2,0
206,2,2,0
207,2,2,0
208,2,2,0
209,2,2,0
210,2,2,0
211,2,2,0
212,2,2,0
213,2,2,0
214,2,2,0
215,2,2,0
216,2,2,0
217,2,2,0
218,2,2,0
219,2,2,0
220,2,2,0
221,2,2,0
222,2,2,0
223,2,2,0
224,2,2,0
225,2,2,0
226,2,2,0
227,2,2,0
228,2,2,0
229,2,2,0
230,2,2,0
231,2,2,0
232,2,2,0
233,2,2,0
234,2,2,0
235,2,2,0
236,2,2,0
237,2,2,0
238,2,2,0
239,2,2,0
240,2,2,0
241,2,2,0
242,2,2,0
243,2,2,0
244,2,2,0
245,2,2,0
246,2,2,0
247,2,2,0
248,2,2,0
249,2,2,0
250,2,2,0
251,2,2,0
252,2,2,0
253,2,2,0
254,2,2,0
255,2,2,0
256,2,2,0
257,2,2,0
258,2,2,0
259,2,2,0
260,2,2,0
261,2,2,0
262,2,2,0
263,2,2,0
264,2,2,0
265,2,2,0
266,2,2,0
267,2,2,0
268,2,2,0
269,2,2,0
270,2,2,0
271,2,2,0
272,2,2,0
273,2,2,0
274,2,2,0
275,2,2,0
276,2,2,0
277,2,2,0
278,2,2,0
279,2,2,0
280,2,2,0
281,2,2,0
282,2,2,0
283,2,2,0
284,2,2,0
285,2,2,0
286,2,2,0
287,2,2,0
288,2,2,0
289,2,2,0
290,2,2,0
291,2,2,0
292,2,2,0
293,2,2,0
294,2,2,0
295,2,2,0
296,2,2,0
297,2,2,0
298,2,2,0
299,2,2,0
300,2,2,0
301,2,2,0
302,2,2,0
303,2,2,0
304,2,2,0
305,2,2,0
306,2,2,0
307,2,2,0
308,2,2,0
309,2,2,0
310,2,2,0
311,2,2,0
312,2,2,0
313,2,2,0
314,2,2,0
315,2,2,0
316,2,2,0
317,2,2,0
318,2,2,0
319,2,2,0
320,2,2,0
321,2,2,0
322,2,2,0
323,2,2,0
324,2,2,0
325,2,2,0
326,2,2,0
327,2,2,0
328,2,2,0
329,2,2,0
330,2,2,0
331,2,2,0
332,2,2,0
333,2,2,0
334,2,2,0
335,2,2,0
336,2,2,0
337,2,2,0
338,2,2,0
339,2,2,0
340,2,2,0
341,2,2,0
342,2,2,0
343,2,2,0
344,2,2,0
345,2,2,0
346,2,2,0
347,2,2,0
348,2,2,0
349,2,2,0
350,2,2,0
351,2,2,0
352,2,2,0
353,2,2,0
354,2,2,0
355,2,2,0
356,2,2,0
357,2,2,0
358,2,2,0
359,2,2,0
360,2,2,0
361,2,2,0
362,2,2,0
363,2,2,0
364,2,2,0
365,2,2,0
366,2,2,0
367,2,2,0
368,2,2,0
369,2,2,0
370,2,2,0
371,2,2,0
372,2,2,0
373,2,2,0
374,2,2,0
375,2,2,0
376,2,2,0
377,2,2,0
378,2,2,0
379,2,2,0
380,2,2,0
381,2,2,0
382,2,2,0
383,2,2,0
384,2,2,0
385,2,2,0
386,2,2,0
387,2,2,0
388,2,2,0
389,2,2,0
390,2,2,0
391,2,2,0
392,2,2,0
393,2,2,0
394,2,2,0
395,2,2,0
396,2,2,0
397,2,2,0
398,2,2,0
399,2,2,0
400,2,2,0
401,2,2,0
402,2,2,0
403,2,2,0
404,2,2,0
405,2,2,0
406,2,2,0
407,2,2,0
408,2,2,0
409,2,2,0
410,2,2,0
411,2,2,0
412,2,2,0
413,2,2,0
414,2,2,0
415,2,2,0
416,2,2,0
417,2,2,0
418,2,2,0
419,2,2,0
420,2,2,0
421,2,2,0
422,2,2,0
423,2,2,0
424,2,2,0
425,2,2,0
426,2,2,0
427,2,2,0
428,2,2,0
429,2,2,0
430,2,2,0
431,2,2,0
432,2,2,0
433,2,2,1e-07
434,2,2,1e-07
435,2,2,1e-07
436,2,2,1e-07
437,2,2,1e-07
438,2,2,1e-07
439,2,2,1e-07
440,2,2,1e-07
441,2,2,0
442,2,2,0
443,2,2,0
444,2,2,0
445,2,2,0
446,2,2,0
447,2,2,0
448,2,2,0
449,2,2,0
450,2,2,0
451,2,2,0
452,2,2,0
453,2,2,0
454,2,2,0
455,2,2,0
456,2,2,0
457,2,2,0
458,2,2,0
459,2,2,0
460,2,2,0
461,2,2,0
462,2,2,0
463,2,2,0
464,2,2,0
465,2,2,0
466,2,2,0
467,2,2,0
468,2,2,0
469,2,2,0
470,2,2,0
471,2,2,0
472,2,2,0
473,2,2,0
474,2,2,0
475,2,2,0
476,2,2,0
477,2,2,0
478,2,2,0
479,2,2,0
480,2,2,0
481,2,2,0
482,2,2,0
483,2,2,0
484,2,2,0
485,2,2,0
486,2,2,0
487,2,2,0
488,2,2,0
489,2,2,0
490,2,2,0
491,2,2,0
492,2,2,0
493,2,2,0
494,2,2,0
495,2,2,0
496,2,2,0
497,2,2,0
498,2,2,0
499,2,2,0
500,2,2,0
501,2,2,0
502,2,2,0
503,2,2,0
504,2,2,0
505,2,2,0
506,2,2,0
507,2,2,0
508,2,2,0
509,2,2,0
510,2,2,0
511,2,2,0
512,2,2,0
*Output,field,frequency=1
*Node Output,nset=UPPERNODES
U,RF
*Contact Output
CDISP,CFORCE
*End Step
*Step,name=CELL56,nlgeom=YES,inc=10
*Coupled Temperature-Displacement,steady state
1,1,1,1
*Boundary,op=NEW
FIELD,1,1,0
FIELD,11,11,300
UPPERNODES,2,2,-.0002
CONTROLS,3,5,0
1,2,2,0
2,2,2,0
3,2,2,0
4,2,2,0
5,2,2,0
6,2,2,0
7,2,2,0
8,2,2,0
9,2,2,0
10,2,2,0
11,2,2,0
12,2,2,0
13,2,2,0
14,2,2,0
15,2,2,0
16,2,2,0
17,2,2,0
18,2,2,0
19,2,2,0
20,2,2,0
21,2,2,0
22,2,2,0
23,2,2,0
24,2,2,0
25,2,2,0
26,2,2,0
27,2,2,0
28,2,2,0
29,2,2,0
30,2,2,0
31,2,2,0
32,2,2,0
33,2,2,0
34,2,2,0
35,2,2,0
36,2,2,0
37,2,2,0
38,2,2,0
39,2,2,0
40,2,2,0
41,2,2,0
42,2,2,0
43,2,2,0
44,2,2,0
45,2,2,0
46,2,2,0
47,2,2,0
48,2,2,0
49,2,2,0
50,2,2,0
51,2,2,0
52,2,2,0
53,2,2,0
54,2,2,0
55,2,2,0
56,2,2,0
57,2,2,0
58,2,2,0
59,2,2,0
60,2,2,0
61,2,2,0
62,2,2,0
63,2,2,0
64,2,2,0
65,2,2,0
66,2,2,0
67,2,2,0
68,2,2,0
69,2,2,0
70,2,2,0
71,2,2,0
72,2,2,0
73,2,2,0
74,2,2,0
75,2,2,0
76,2,2,0
77,2,2,0
78,2,2,0
79,2,2,0
80,2,2,0
81,2,2,0
82,2,2,0
83,2,2,0
84,2,2,0
85,2,2,0
86,2,2,0
87,2,2,0
88,2,2,0
89,2,2,0
90,2,2,0
91,2,2,0
92,2,2,0
93,2,2,0
94,2,2,0
95,2,2,0
96,2,2,0
97,2,2,0
98,2,2,0
99,2,2,0
100,2,2,0
101,2,2,0
102,2,2,0
103,2,2,0
104,2,2,0
105,2,2,0
106,2,2,0
107,2,2,0
108,2,2,0
109,2,2,0
110,2,2,0
111,2,2,0
112,2,2,0
113,2,2,0
114,2,2,0
115,2,2,0
116,2,2,0
117,2,2,0
118,2,2,0
119,2,2,0
120,2,2,0
121,2,2,0
122,2,2,0
123,2,2,0
124,2,2,0
125,2,2,0
126,2,2,0
127,2,2,0
128,2,2,0
129,2,2,0
130,2,2,0
131,2,2,0
132,2,2,0
133,2,2,0
134,2,2,0
135,2,2,0
136,2,2,0
137,2,2,0
138,2,2,0
139,2,2,0
140,2,2,0
141,2,2,0
142,2,2,0
143,2,2,0
144,2,2,0
145,2,2,0
146,2,2,0
147,2,2,0
148,2,2,0
149,2,2,0
150,2,2,0
151,2,2,0
152,2,2,0
153,2,2,0
154,2,2,0
155,2,2,0
156,2,2,0
157,2,2,0
158,2,2,0
159,2,2,0
160,2,2,0
161,2,2,0
162,2,2,0
163,2,2,0
164,2,2,0
165,2,2,0
166,2,2,0
167,2,2,0
168,2,2,0
169,2,2,0
170,2,2,0
171,2,2,0
172,2,2,0
173,2,2,0
174,2,2,0
175,2,2,0
176,2,2,0
177,2,2,0
178,2,2,0
179,2,2,0
180,2,2,0
181,2,2,0
182,2,2,0
183,2,2,0
184,2,2,0
185,2,2,0
186,2,2,0
187,2,2,0
188,2,2,0
189,2,2,0
190,2,2,0
191,2,2,0
192,2,2,0
193,2,2,0
194,2,2,0
195,2,2,0
196,2,2,0
197,2,2,0
198,2,2,0
199,2,2,0
200,2,2,0
201,2,2,0
202,2,2,0
203,2,2,0
204,2,2,0
205,2,2,0
206,2,2,0
207,2,2,0
208,2,2,0
209,2,2,0
210,2,2,0
211,2,2,0
212,2,2,0
213,2,2,0
214,2,2,0
215,2,2,0
216,2,2,0
217,2,2,0
218,2,2,0
219,2,2,0
220,2,2,0
221,2,2,0
222,2,2,0
223,2,2,0
224,2,2,0
225,2,2,0
226,2,2,0
227,2,2,0
228,2,2,0
229,2,2,0
230,2,2,0
231,2,2,0
232,2,2,0
233,2,2,0
234,2,2,0
235,2,2,0
236,2,2,0
237,2,2,0
238,2,2,0
239,2,2,0
240,2,2,0
241,2,2,0
242,2,2,0
243,2,2,0
244,2,2,0
245,2,2,0
246,2,2,0
247,2,2,0
248,2,2,0
249,2,2,0
250,2,2,0
251,2,2,0
252,2,2,0
253,2,2,0
254,2,2,0
255,2,2,0
256,2,2,0
257,2,2,0
258,2,2,0
259,2,2,0
260,2,2,0
261,2,2,0
262,2,2,0
263,2,2,0
264,2,2,0
265,2,2,0
266,2,2,0
267,2,2,0
268,2,2,0
269,2,2,0
270,2,2,0
271,2,2,0
272,2,2,0
273,2,2,0
274,2,2,0
275,2,2,0
276,2,2,0
277,2,2,0
278,2,2,0
279,2,2,0
280,2,2,0
281,2,2,0
282,2,2,0
283,2,2,0
284,2,2,0
285,2,2,0
286,2,2,0
287,2,2,0
288,2,2,0
289,2,2,0
290,2,2,0
291,2,2,0
292,2,2,0
293,2,2,0
294,2,2,0
295,2,2,0
296,2,2,0
297,2,2,0
298,2,2,0
299,2,2,0
300,2,2,0
301,2,2,0
302,2,2,0
303,2,2,0
304,2,2,0
305,2,2,0
306,2,2,0
307,2,2,0
308,2,2,0
309,2,2,0
310,2,2,0
311,2,2,0
312,2,2,0
313,2,2,0
314,2,2,0
315,2,2,0
316,2,2,0
317,2,2,0
318,2,2,0
319,2,2,0
320,2,2,0
321,2,2,0
322,2,2,0
323,2,2,0
324,2,2,0
325,2,2,0
326,2,2,0
327,2,2,0
328,2,2,0
329,2,2,0
330,2,2,0
331,2,2,0
332,2,2,0
333,2,2,0
334,2,2,0
335,2,2,0
336,2,2,0
337,2,2,0
338,2,2,0
339,2,2,0
340,2,2,0
341,2,2,0
342,2,2,0
343,2,2,0
344,2,2,0
345,2,2,0
346,2,2,0
347,2,2,0
348,2,2,0
349,2,2,0
350,2,2,0
351,2,2,0
352,2,2,0
353,2,2,0
354,2,2,0
355,2,2,0
356,2,2,0
357,2,2,0
358,2,2,0
359,2,2,0
360,2,2,0
361,2,2,0
362,2,2,0
363,2,2,0
364,2,2,0
365,2,2,0
366,2,2,0
367,2,2,0
368,2,2,0
369,2,2,0
370,2,2,0
371,2,2,0
372,2,2,0
373,2,2,0
374,2,2,0
375,2,2,0
376,2,2,0
377,2,2,0
378,2,2,0
379,2,2,0
380,2,2,0
381,2,2,0
382,2,2,0
383,2,2,0
384,2,2,0
385,2,2,0
386,2,2,0
387,2,2,0
388,2,2,0
389,2,2,0
390,2,2,0
391,2,2,0
392,2,2,0
393,2,2,0
394,2,2,0
395,2,2,0
396,2,2,0
397,2,2,0
398,2,2,0
399,2,2,0
400,2,2,0
401,2,2,0
402,2,2,0
403,2,2,0
404,2,2,0
405,2,2,0
406,2,2,0
407,2,2,0
408,2,2,0
409,2,2,0
410,2,2,0
411,2,2,0
412,2,2,0
413,2,2,0
414,2,2,0
415,2,2,0
416,2,2,0
417,2,2,0
418,2,2,0
419,2,2,0
420,2,2,0
421,2,2,0
422,2,2,0
423,2,2,0
424,2,2,0
425,2,2,0
426,2,2,0
427,2,2,0
428,2,2,0
429,2,2,0
430,2,2,0
431,2,2,0
432,2,2,0
433,2,2,0
434,2,2,0
435,2,2,0
436,2,2,0
437,2,2,0
438,2,2,0
439,2,2,0
440,2,2,0
441,2,2,1e-07
442,2,2,1e-07
443,2,2,1e-07
444,2,2,1e-07
445,2,2,1e-07
446,2,2,1e-07
447,2,2,1e-07
448,2,2,1e-07
449,2,2,0
450,2,2,0
451,2,2,0
452,2,2,0
453,2,2,0
454,2,2,0
455,2,2,0
456,2,2,0
457,2,2,0
458,2,2,0
459,2,2,0
460,2,2,0
461,2,2,0
462,2,2,0
463,2,2,0
464,2,2,0
465,2,2,0
466,2,2,0
467,2,2,0
468,2,2,0
469,2,2,0
470,2,2,0
471,2,2,0
472,2,2,0
473,2,2,0
474,2,2,0
475,2,2,0
476,2,2,0
477,2,2,0
478,2,2,0
479,2,2,0
480,2,2,0
481,2,2,0
482,2,2,0
483,2,2,0
484,2,2,0
485,2,2,0
486,2,2,0
487,2,2,0
488,2,2,0
489,2,2,0
490,2,2,0
491,2,2,0
492,2,2,0
493,2,2,0
494,2,2,0
495,2,2,0
496,2,2,0
497,2,2,0
498,2,2,0
499,2,2,0
500,2,2,0
501,2,2,0
502,2,2,0
503,2,2,0
504,2,2,0
505,2,2,0
506,2,2,0
507,2,2,0
508,2,2,0
509,2,2,0
510,2,2,0
511,2,2,0
512,2,2,0
*Output,field,frequency=1
*Node Output,nset=UPPERNODES
U,RF
*Contact Output
CDISP,CFORCE
*End Step
*Step,name=CELL57,nlgeom=YES,inc=10
*Coupled Temperature-Displacement,steady state
1,1,1,1
*Boundary,op=NEW
FIELD,1,1,0
FIELD,11,11,300
UPPERNODES,2,2,-.0002
CONTROLS,3,5,0
1,2,2,0
2,2,2,0
3,2,2,0
4,2,2,0
5,2,2,0
6,2,2,0
7,2,2,0
8,2,2,0
9,2,2,0
10,2,2,0
11,2,2,0
12,2,2,0
13,2,2,0
14,2,2,0
15,2,2,0
16,2,2,0
17,2,2,0
18,2,2,0
19,2,2,0
20,2,2,0
21,2,2,0
22,2,2,0
23,2,2,0
24,2,2,0
25,2,2,0
26,2,2,0
27,2,2,0
28,2,2,0
29,2,2,0
30,2,2,0
31,2,2,0
32,2,2,0
33,2,2,0
34,2,2,0
35,2,2,0
36,2,2,0
37,2,2,0
38,2,2,0
39,2,2,0
40,2,2,0
41,2,2,0
42,2,2,0
43,2,2,0
44,2,2,0
45,2,2,0
46,2,2,0
47,2,2,0
48,2,2,0
49,2,2,0
50,2,2,0
51,2,2,0
52,2,2,0
53,2,2,0
54,2,2,0
55,2,2,0
56,2,2,0
57,2,2,0
58,2,2,0
59,2,2,0
60,2,2,0
61,2,2,0
62,2,2,0
63,2,2,0
64,2,2,0
65,2,2,0
66,2,2,0
67,2,2,0
68,2,2,0
69,2,2,0
70,2,2,0
71,2,2,0
72,2,2,0
73,2,2,0
74,2,2,0
75,2,2,0
76,2,2,0
77,2,2,0
78,2,2,0
79,2,2,0
80,2,2,0
81,2,2,0
82,2,2,0
83,2,2,0
84,2,2,0
85,2,2,0
86,2,2,0
87,2,2,0
88,2,2,0
89,2,2,0
90,2,2,0
91,2,2,0
92,2,2,0
93,2,2,0
94,2,2,0
95,2,2,0
96,2,2,0
97,2,2,0
98,2,2,0
99,2,2,0
100,2,2,0
101,2,2,0
102,2,2,0
103,2,2,0
104,2,2,0
105,2,2,0
106,2,2,0
107,2,2,0
108,2,2,0
109,2,2,0
110,2,2,0
111,2,2,0
112,2,2,0
113,2,2,0
114,2,2,0
115,2,2,0
116,2,2,0
117,2,2,0
118,2,2,0
119,2,2,0
120,2,2,0
121,2,2,0
122,2,2,0
123,2,2,0
124,2,2,0
125,2,2,0
126,2,2,0
127,2,2,0
128,2,2,0
129,2,2,0
130,2,2,0
131,2,2,0
132,2,2,0
133,2,2,0
134,2,2,0
135,2,2,0
136,2,2,0
137,2,2,0
138,2,2,0
139,2,2,0
140,2,2,0
141,2,2,0
142,2,2,0
143,2,2,0
144,2,2,0
145,2,2,0
146,2,2,0
147,2,2,0
148,2,2,0
149,2,2,0
150,2,2,0
151,2,2,0
152,2,2,0
153,2,2,0
154,2,2,0
155,2,2,0
156,2,2,0
157,2,2,0
158,2,2,0
159,2,2,0
160,2,2,0
161,2,2,0
162,2,2,0
163,2,2,0
164,2,2,0
165,2,2,0
166,2,2,0
167,2,2,0
168,2,2,0
169,2,2,0
170,2,2,0
171,2,2,0
172,2,2,0
173,2,2,0
174,2,2,0
175,2,2,0
176,2,2,0
177,2,2,0
178,2,2,0
179,2,2,0
180,2,2,0
181,2,2,0
182,2,2,0
183,2,2,0
184,2,2,0
185,2,2,0
186,2,2,0
187,2,2,0
188,2,2,0
189,2,2,0
190,2,2,0
191,2,2,0
192,2,2,0
193,2,2,0
194,2,2,0
195,2,2,0
196,2,2,0
197,2,2,0
198,2,2,0
199,2,2,0
200,2,2,0
201,2,2,0
202,2,2,0
203,2,2,0
204,2,2,0
205,2,2,0
206,2,2,0
207,2,2,0
208,2,2,0
209,2,2,0
210,2,2,0
211,2,2,0
212,2,2,0
213,2,2,0
214,2,2,0
215,2,2,0
216,2,2,0
217,2,2,0
218,2,2,0
219,2,2,0
220,2,2,0
221,2,2,0
222,2,2,0
223,2,2,0
224,2,2,0
225,2,2,0
226,2,2,0
227,2,2,0
228,2,2,0
229,2,2,0
230,2,2,0
231,2,2,0
232,2,2,0
233,2,2,0
234,2,2,0
235,2,2,0
236,2,2,0
237,2,2,0
238,2,2,0
239,2,2,0
240,2,2,0
241,2,2,0
242,2,2,0
243,2,2,0
244,2,2,0
245,2,2,0
246,2,2,0
247,2,2,0
248,2,2,0
249,2,2,0
250,2,2,0
251,2,2,0
252,2,2,0
253,2,2,0
254,2,2,0
255,2,2,0
256,2,2,0
257,2,2,0
258,2,2,0
259,2,2,0
260,2,2,0
261,2,2,0
262,2,2,0
263,2,2,0
264,2,2,0
265,2,2,0
266,2,2,0
267,2,2,0
268,2,2,0
269,2,2,0
270,2,2,0
271,2,2,0
272,2,2,0
273,2,2,0
274,2,2,0
275,2,2,0
276,2,2,0
277,2,2,0
278,2,2,0
279,2,2,0
280,2,2,0
281,2,2,0
282,2,2,0
283,2,2,0
284,2,2,0
285,2,2,0
286,2,2,0
287,2,2,0
288,2,2,0
289,2,2,0
290,2,2,0
291,2,2,0
292,2,2,0
293,2,2,0
294,2,2,0
295,2,2,0
296,2,2,0
297,2,2,0
298,2,2,0
299,2,2,0
300,2,2,0
301,2,2,0
302,2,2,0
303,2,2,0
304,2,2,0
305,2,2,0
306,2,2,0
307,2,2,0
308,2,2,0
309,2,2,0
310,2,2,0
311,2,2,0
312,2,2,0
313,2,2,0
314,2,2,0
315,2,2,0
316,2,2,0
317,2,2,0
318,2,2,0
319,2,2,0
320,2,2,0
321,2,2,0
322,2,2,0
323,2,2,0
324,2,2,0
325,2,2,0
326,2,2,0
327,2,2,0
328,2,2,0
329,2,2,0
330,2,2,0
331,2,2,0
332,2,2,0
333,2,2,0
334,2,2,0
335,2,2,0
336,2,2,0
337,2,2,0
338,2,2,0
339,2,2,0
340,2,2,0
341,2,2,0
342,2,2,0
343,2,2,0
344,2,2,0
345,2,2,0
346,2,2,0
347,2,2,0
348,2,2,0
349,2,2,0
350,2,2,0
351,2,2,0
352,2,2,0
353,2,2,0
354,2,2,0
355,2,2,0
356,2,2,0
357,2,2,0
358,2,2,0
359,2,2,0
360,2,2,0
361,2,2,0
362,2,2,0
363,2,2,0
364,2,2,0
365,2,2,0
366,2,2,0
367,2,2,0
368,2,2,0
369,2,2,0
370,2,2,0
371,2,2,0
372,2,2,0
373,2,2,0
374,2,2,0
375,2,2,0
376,2,2,0
377,2,2,0
378,2,2,0
379,2,2,0
380,2,2,0
381,2,2,0
382,2,2,0
383,2,2,0
384,2,2,0
385,2,2,0
386,2,2,0
387,2,2,0
388,2,2,0
389,2,2,0
390,2,2,0
391,2,2,0
392,2,2,0
393,2,2,0
394,2,2,0
395,2,2,0
396,2,2,0
397,2,2,0
398,2,2,0
399,2,2,0
400,2,2,0
401,2,2,0
402,2,2,0
403,2,2,0
404,2,2,0
405,2,2,0
406,2,2,0
407,2,2,0
408,2,2,0
409,2,2,0
410,2,2,0
411,2,2,0
412,2,2,0
413,2,2,0
414,2,2,0
415,2,2,0
416,2,2,0
417,2,2,0
418,2,2,0
419,2,2,0
420,2,2,0
421,2,2,0
422,2,2,0
423,2,2,0
424,2,2,0
425,2,2,0
426,2,2,0
427,2,2,0
428,2,2,0
429,2,2,0
430,2,2,0
431,2,2,0
432,2,2,0
433,2,2,0
434,2,2,0
435,2,2,0
436,2,2,0
437,2,2,0
438,2,2,0
439,2,2,0
440,2,2,0
441,2,2,0
442,2,2,0
443,2,2,0
444,2,2,0
445,2,2,0
446,2,2,0
447,2,2,0
448,2,2,0
449,2,2,1e-07
450,2,2,1e-07
451,2,2,1e-07
452,2,2,1e-07
453,2,2,1e-07
454,2,2,1e-07
455,2,2,1e-07
456,2,2,1e-07
457,2,2,0
458,2,2,0
459,2,2,0
460,2,2,0
461,2,2,0
462,2,2,0
463,2,2,0
464,2,2,0
465,2,2,0
466,2,2,0
467,2,2,0
468,2,2,0
469,2,2,0
470,2,2,0
471,2,2,0
472,2,2,0
473,2,2,0
474,2,2,0
475,2,2,0
476,2,2,0
477,2,2,0
478,2,2,0
479,2,2,0
480,2,2,0
481,2,2,0
482,2,2,0
483,2,2,0
484,2,2,0
485,2,2,0
486,2,2,0
487,2,2,0
488,2,2,0
489,2,2,0
490,2,2,0
491,2,2,0
492,2,2,0
493,2,2,0
494,2,2,0
495,2,2,0
496,2,2,0
497,2,2,0
498,2,2,0
499,2,2,0
500,2,2,0
501,2,2,0
502,2,2,0
503,2,2,0
504,2,2,0
505,2,2,0
506,2,2,0
507,2,2,0
508,2,2,0
509,2,2,0
510,2,2,0
511,2,2,0
512,2,2,0
*Output,field,frequency=1
*Node Output,nset=UPPERNODES
U,RF
*Contact Output
CDISP,CFORCE
*End Step
*Step,name=CELL58,nlgeom=YES,inc=10
*Coupled Temperature-Displacement,steady state
1,1,1,1
*Boundary,op=NEW
FIELD,1,1,0
FIELD,11,11,300
UPPERNODES,2,2,-.0002
CONTROLS,3,5,0
1,2,2,0
2,2,2,0
3,2,2,0
4,2,2,0
5,2,2,0
6,2,2,0
7,2,2,0
8,2,2,0
9,2,2,0
10,2,2,0
11,2,2,0
12,2,2,0
13,2,2,0
14,2,2,0
15,2,2,0
16,2,2,0
17,2,2,0
18,2,2,0
19,2,2,0
20,2,2,0
21,2,2,0
22,2,2,0
23,2,2,0
24,2,2,0
25,2,2,0
26,2,2,0
27,2,2,0
28,2,2,0
29,2,2,0
30,2,2,0
31,2,2,0
32,2,2,0
33,2,2,0
34,2,2,0
35,2,2,0
36,2,2,0
37,2,2,0
38,2,2,0
39,2,2,0
40,2,2,0
41,2,2,0
42,2,2,0
43,2,2,0
44,2,2,0
45,2,2,0
46,2,2,0
47,2,2,0
48,2,2,0
49,2,2,0
50,2,2,0
51,2,2,0
52,2,2,0
53,2,2,0
54,2,2,0
55,2,2,0
56,2,2,0
57,2,2,0
58,2,2,0
59,2,2,0
60,2,2,0
61,2,2,0
62,2,2,0
63,2,2,0
64,2,2,0
65,2,2,0
66,2,2,0
67,2,2,0
68,2,2,0
69,2,2,0
70,2,2,0
71,2,2,0
72,2,2,0
73,2,2,0
74,2,2,0
75,2,2,0
76,2,2,0
77,2,2,0
78,2,2,0
79,2,2,0
80,2,2,0
81,2,2,0
82,2,2,0
83,2,2,0
84,2,2,0
85,2,2,0
86,2,2,0
87,2,2,0
88,2,2,0
89,2,2,0
90,2,2,0
91,2,2,0
92,2,2,0
93,2,2,0
94,2,2,0
95,2,2,0
96,2,2,0
97,2,2,0
98,2,2,0
99,2,2,0
100,2,2,0
101,2,2,0
102,2,2,0
103,2,2,0
104,2,2,0
105,2,2,0
106,2,2,0
107,2,2,0
108,2,2,0
109,2,2,0
110,2,2,0
111,2,2,0
112,2,2,0
113,2,2,0
114,2,2,0
115,2,2,0
116,2,2,0
117,2,2,0
118,2,2,0
119,2,2,0
120,2,2,0
121,2,2,0
122,2,2,0
123,2,2,0
124,2,2,0
125,2,2,0
126,2,2,0
127,2,2,0
128,2,2,0
129,2,2,0
130,2,2,0
131,2,2,0
132,2,2,0
133,2,2,0
134,2,2,0
135,2,2,0
136,2,2,0
137,2,2,0
138,2,2,0
139,2,2,0
140,2,2,0
141,2,2,0
142,2,2,0
143,2,2,0
144,2,2,0
145,2,2,0
146,2,2,0
147,2,2,0
148,2,2,0
149,2,2,0
150,2,2,0
151,2,2,0
152,2,2,0
153,2,2,0
154,2,2,0
155,2,2,0
156,2,2,0
157,2,2,0
158,2,2,0
159,2,2,0
160,2,2,0
161,2,2,0
162,2,2,0
163,2,2,0
164,2,2,0
165,2,2,0
166,2,2,0
167,2,2,0
168,2,2,0
169,2,2,0
170,2,2,0
171,2,2,0
172,2,2,0
173,2,2,0
174,2,2,0
175,2,2,0
176,2,2,0
177,2,2,0
178,2,2,0
179,2,2,0
180,2,2,0
181,2,2,0
182,2,2,0
183,2,2,0
184,2,2,0
185,2,2,0
186,2,2,0
187,2,2,0
188,2,2,0
189,2,2,0
190,2,2,0
191,2,2,0
192,2,2,0
193,2,2,0
194,2,2,0
195,2,2,0
196,2,2,0
197,2,2,0
198,2,2,0
199,2,2,0
200,2,2,0
201,2,2,0
202,2,2,0
203,2,2,0
204,2,2,0
205,2,2,0
206,2,2,0
207,2,2,0
208,2,2,0
209,2,2,0
210,2,2,0
211,2,2,0
212,2,2,0
213,2,2,0
214,2,2,0
215,2,2,0
216,2,2,0
217,2,2,0
218,2,2,0
219,2,2,0
220,2,2,0
221,2,2,0
222,2,2,0
223,2,2,0
224,2,2,0
225,2,2,0
226,2,2,0
227,2,2,0
228,2,2,0
229,2,2,0
230,2,2,0
231,2,2,0
232,2,2,0
233,2,2,0
234,2,2,0
235,2,2,0
236,2,2,0
237,2,2,0
238,2,2,0
239,2,2,0
240,2,2,0
241,2,2,0
242,2,2,0
243,2,2,0
244,2,2,0
245,2,2,0
246,2,2,0
247,2,2,0
248,2,2,0
249,2,2,0
250,2,2,0
251,2,2,0
252,2,2,0
253,2,2,0
254,2,2,0
255,2,2,0
256,2,2,0
257,2,2,0
258,2,2,0
259,2,2,0
260,2,2,0
261,2,2,0
262,2,2,0
263,2,2,0
264,2,2,0
265,2,2,0
266,2,2,0
267,2,2,0
268,2,2,0
269,2,2,0
270,2,2,0
271,2,2,0
272,2,2,0
273,2,2,0
274,2,2,0
275,2,2,0
276,2,2,0
277,2,2,0
278,2,2,0
279,2,2,0
280,2,2,0
281,2,2,0
282,2,2,0
283,2,2,0
284,2,2,0
285,2,2,0
286,2,2,0
287,2,2,0
288,2,2,0
289,2,2,0
290,2,2,0
291,2,2,0
292,2,2,0
293,2,2,0
294,2,2,0
295,2,2,0
296,2,2,0
297,2,2,0
298,2,2,0
299,2,2,0
300,2,2,0
301,2,2,0
302,2,2,0
303,2,2,0
304,2,2,0
305,2,2,0
306,2,2,0
307,2,2,0
308,2,2,0
309,2,2,0
310,2,2,0
311,2,2,0
312,2,2,0
313,2,2,0
314,2,2,0
315,2,2,0
316,2,2,0
317,2,2,0
318,2,2,0
319,2,2,0
320,2,2,0
321,2,2,0
322,2,2,0
323,2,2,0
324,2,2,0
325,2,2,0
326,2,2,0
327,2,2,0
328,2,2,0
329,2,2,0
330,2,2,0
331,2,2,0
332,2,2,0
333,2,2,0
334,2,2,0
335,2,2,0
336,2,2,0
337,2,2,0
338,2,2,0
339,2,2,0
340,2,2,0
341,2,2,0
342,2,2,0
343,2,2,0
344,2,2,0
345,2,2,0
346,2,2,0
347,2,2,0
348,2,2,0
349,2,2,0
350,2,2,0
351,2,2,0
352,2,2,0
353,2,2,0
354,2,2,0
355,2,2,0
356,2,2,0
357,2,2,0
358,2,2,0
359,2,2,0
360,2,2,0
361,2,2,0
362,2,2,0
363,2,2,0
364,2,2,0
365,2,2,0
366,2,2,0
367,2,2,0
368,2,2,0
369,2,2,0
370,2,2,0
371,2,2,0
372,2,2,0
373,2,2,0
374,2,2,0
375,2,2,0
376,2,2,0
377,2,2,0
378,2,2,0
379,2,2,0
380,2,2,0
381,2,2,0
382,2,2,0
383,2,2,0
384,2,2,0
385,2,2,0
386,2,2,0
387,2,2,0
388,2,2,0
389,2,2,0
390,2,2,0
391,2,2,0
392,2,2,0
393,2,2,0
394,2,2,0
395,2,2,0
396,2,2,0
397,2,2,0
398,2,2,0
399,2,2,0
400,2,2,0
401,2,2,0
402,2,2,0
403,2,2,0
404,2,2,0
405,2,2,0
406,2,2,0
407,2,2,0
408,2,2,0
409,2,2,0
410,2,2,0
411,2,2,0
412,2,2,0
413,2,2,0
414,2,2,0
415,2,2,0
416,2,2,0
417,2,2,0
418,2,2,0
419,2,2,0
420,2,2,0
421,2,2,0
422,2,2,0
423,2,2,0
424,2,2,0
425,2,2,0
426,2,2,0
427,2,2,0
428,2,2,0
429,2,2,0
430,2,2,0
431,2,2,0
432,2,2,0
433,2,2,0
434,2,2,0
435,2,2,0
436,2,2,0
437,2,2,0
438,2,2,0
439,2,2,0
440,2,2,0
441,2,2,0
442,2,2,0
443,2,2,0
444,2,2,0
445,2,2,0
446,2,2,0
447,2,2,0
448,2,2,0
449,2,2,0
450,2,2,0
451,2,2,0
452,2,2,0
453,2,2,0
454,2,2,0
455,2,2,0
456,2,2,0
457,2,2,1e-07
458,2,2,1e-07
459,2,2,1e-07
460,2,2,1e-07
461,2,2,1e-07
462,2,2,1e-07
463,2,2,1e-07
464,2,2,1e-07
465,2,2,0
466,2,2,0
467,2,2,0
468,2,2,0
469,2,2,0
470,2,2,0
471,2,2,0
472,2,2,0
473,2,2,0
474,2,2,0
475,2,2,0
476,2,2,0
477,2,2,0
478,2,2,0
479,2,2,0
480,2,2,0
481,2,2,0
482,2,2,0
483,2,2,0
484,2,2,0
485,2,2,0
486,2,2,0
487,2,2,0
488,2,2,0
489,2,2,0
490,2,2,0
491,2,2,0
492,2,2,0
493,2,2,0
494,2,2,0
495,2,2,0
496,2,2,0
497,2,2,0
498,2,2,0
499,2,2,0
500,2,2,0
501,2,2,0
502,2,2,0
503,2,2,0
504,2,2,0
505,2,2,0
506,2,2,0
507,2,2,0
508,2,2,0
509,2,2,0
510,2,2,0
511,2,2,0
512,2,2,0
*Output,field,frequency=1
*Node Output,nset=UPPERNODES
U,RF
*Contact Output
CDISP,CFORCE
*End Step
*Step,name=CELL59,nlgeom=YES,inc=10
*Coupled Temperature-Displacement,steady state
1,1,1,1
*Boundary,op=NEW
FIELD,1,1,0
FIELD,11,11,300
UPPERNODES,2,2,-.0002
CONTROLS,3,5,0
1,2,2,0
2,2,2,0
3,2,2,0
4,2,2,0
5,2,2,0
6,2,2,0
7,2,2,0
8,2,2,0
9,2,2,0
10,2,2,0
11,2,2,0
12,2,2,0
13,2,2,0
14,2,2,0
15,2,2,0
16,2,2,0
17,2,2,0
18,2,2,0
19,2,2,0
20,2,2,0
21,2,2,0
22,2,2,0
23,2,2,0
24,2,2,0
25,2,2,0
26,2,2,0
27,2,2,0
28,2,2,0
29,2,2,0
30,2,2,0
31,2,2,0
32,2,2,0
33,2,2,0
34,2,2,0
35,2,2,0
36,2,2,0
37,2,2,0
38,2,2,0
39,2,2,0
40,2,2,0
41,2,2,0
42,2,2,0
43,2,2,0
44,2,2,0
45,2,2,0
46,2,2,0
47,2,2,0
48,2,2,0
49,2,2,0
50,2,2,0
51,2,2,0
52,2,2,0
53,2,2,0
54,2,2,0
55,2,2,0
56,2,2,0
57,2,2,0
58,2,2,0
59,2,2,0
60,2,2,0
61,2,2,0
62,2,2,0
63,2,2,0
64,2,2,0
65,2,2,0
66,2,2,0
67,2,2,0
68,2,2,0
69,2,2,0
70,2,2,0
71,2,2,0
72,2,2,0
73,2,2,0
74,2,2,0
75,2,2,0
76,2,2,0
77,2,2,0
78,2,2,0
79,2,2,0
80,2,2,0
81,2,2,0
82,2,2,0
83,2,2,0
84,2,2,0
85,2,2,0
86,2,2,0
87,2,2,0
88,2,2,0
89,2,2,0
90,2,2,0
91,2,2,0
92,2,2,0
93,2,2,0
94,2,2,0
95,2,2,0
96,2,2,0
97,2,2,0
98,2,2,0
99,2,2,0
100,2,2,0
101,2,2,0
102,2,2,0
103,2,2,0
104,2,2,0
105,2,2,0
106,2,2,0
107,2,2,0
108,2,2,0
109,2,2,0
110,2,2,0
111,2,2,0
112,2,2,0
113,2,2,0
114,2,2,0
115,2,2,0
116,2,2,0
117,2,2,0
118,2,2,0
119,2,2,0
120,2,2,0
121,2,2,0
122,2,2,0
123,2,2,0
124,2,2,0
125,2,2,0
126,2,2,0
127,2,2,0
128,2,2,0
129,2,2,0
130,2,2,0
131,2,2,0
132,2,2,0
133,2,2,0
134,2,2,0
135,2,2,0
136,2,2,0
137,2,2,0
138,2,2,0
139,2,2,0
140,2,2,0
141,2,2,0
142,2,2,0
143,2,2,0
144,2,2,0
145,2,2,0
146,2,2,0
147,2,2,0
148,2,2,0
149,2,2,0
150,2,2,0
151,2,2,0
152,2,2,0
153,2,2,0
154,2,2,0
155,2,2,0
156,2,2,0
157,2,2,0
158,2,2,0
159,2,2,0
160,2,2,0
161,2,2,0
162,2,2,0
163,2,2,0
164,2,2,0
165,2,2,0
166,2,2,0
167,2,2,0
168,2,2,0
169,2,2,0
170,2,2,0
171,2,2,0
172,2,2,0
173,2,2,0
174,2,2,0
175,2,2,0
176,2,2,0
177,2,2,0
178,2,2,0
179,2,2,0
180,2,2,0
181,2,2,0
182,2,2,0
183,2,2,0
184,2,2,0
185,2,2,0
186,2,2,0
187,2,2,0
188,2,2,0
189,2,2,0
190,2,2,0
191,2,2,0
192,2,2,0
193,2,2,0
194,2,2,0
195,2,2,0
196,2,2,0
197,2,2,0
198,2,2,0
199,2,2,0
200,2,2,0
201,2,2,0
202,2,2,0
203,2,2,0
204,2,2,0
205,2,2,0
206,2,2,0
207,2,2,0
208,2,2,0
209,2,2,0
210,2,2,0
211,2,2,0
212,2,2,0
213,2,2,0
214,2,2,0
215,2,2,0
216,2,2,0
217,2,2,0
218,2,2,0
219,2,2,0
220,2,2,0
221,2,2,0
222,2,2,0
223,2,2,0
224,2,2,0
225,2,2,0
226,2,2,0
227,2,2,0
228,2,2,0
229,2,2,0
230,2,2,0
231,2,2,0
232,2,2,0
233,2,2,0
234,2,2,0
235,2,2,0
236,2,2,0
237,2,2,0
238,2,2,0
239,2,2,0
240,2,2,0
241,2,2,0
242,2,2,0
243,2,2,0
244,2,2,0
245,2,2,0
246,2,2,0
247,2,2,0
248,2,2,0
249,2,2,0
250,2,2,0
251,2,2,0
252,2,2,0
253,2,2,0
254,2,2,0
255,2,2,0
256,2,2,0
257,2,2,0
258,2,2,0
259,2,2,0
260,2,2,0
261,2,2,0
262,2,2,0
263,2,2,0
264,2,2,0
265,2,2,0
266,2,2,0
267,2,2,0
268,2,2,0
269,2,2,0
270,2,2,0
271,2,2,0
272,2,2,0
273,2,2,0
274,2,2,0
275,2,2,0
276,2,2,0
277,2,2,0
278,2,2,0
279,2,2,0
280,2,2,0
281,2,2,0
282,2,2,0
283,2,2,0
284,2,2,0
285,2,2,0
286,2,2,0
287,2,2,0
288,2,2,0
289,2,2,0
290,2,2,0
291,2,2,0
292,2,2,0
293,2,2,0
294,2,2,0
295,2,2,0
296,2,2,0
297,2,2,0
298,2,2,0
299,2,2,0
300,2,2,0
301,2,2,0
302,2,2,0
303,2,2,0
304,2,2,0
305,2,2,0
306,2,2,0
307,2,2,0
308,2,2,0
309,2,2,0
310,2,2,0
311,2,2,0
312,2,2,0
313,2,2,0
314,2,2,0
315,2,2,0
316,2,2,0
317,2,2,0
318,2,2,0
319,2,2,0
320,2,2,0
321,2,2,0
322,2,2,0
323,2,2,0
324,2,2,0
325,2,2,0
326,2,2,0
327,2,2,0
328,2,2,0
329,2,2,0
330,2,2,0
331,2,2,0
332,2,2,0
333,2,2,0
334,2,2,0
335,2,2,0
336,2,2,0
337,2,2,0
338,2,2,0
339,2,2,0
340,2,2,0
341,2,2,0
342,2,2,0
343,2,2,0
344,2,2,0
345,2,2,0
346,2,2,0
347,2,2,0
348,2,2,0
349,2,2,0
350,2,2,0
351,2,2,0
352,2,2,0
353,2,2,0
354,2,2,0
355,2,2,0
356,2,2,0
357,2,2,0
358,2,2,0
359,2,2,0
360,2,2,0
361,2,2,0
362,2,2,0
363,2,2,0
364,2,2,0
365,2,2,0
366,2,2,0
367,2,2,0
368,2,2,0
369,2,2,0
370,2,2,0
371,2,2,0
372,2,2,0
373,2,2,0
374,2,2,0
375,2,2,0
376,2,2,0
377,2,2,0
378,2,2,0
379,2,2,0
380,2,2,0
381,2,2,0
382,2,2,0
383,2,2,0
384,2,2,0
385,2,2,0
386,2,2,0
387,2,2,0
388,2,2,0
389,2,2,0
390,2,2,0
391,2,2,0
392,2,2,0
393,2,2,0
394,2,2,0
395,2,2,0
396,2,2,0
397,2,2,0
398,2,2,0
399,2,2,0
400,2,2,0
401,2,2,0
402,2,2,0
403,2,2,0
404,2,2,0
405,2,2,0
406,2,2,0
407,2,2,0
408,2,2,0
409,2,2,0
410,2,2,0
411,2,2,0
412,2,2,0
413,2,2,0
414,2,2,0
415,2,2,0
416,2,2,0
417,2,2,0
418,2,2,0
419,2,2,0
420,2,2,0
421,2,2,0
422,2,2,0
423,2,2,0
424,2,2,0
425,2,2,0
426,2,2,0
427,2,2,0
428,2,2,0
429,2,2,0
430,2,2,0
431,2,2,0
432,2,2,0
433,2,2,0
434,2,2,0
435,2,2,0
436,2,2,0
437,2,2,0
438,2,2,0
439,2,2,0
440,2,2,0
441,2,2,0
442,2,2,0
443,2,2,0
444,2,2,0
445,2,2,0
446,2,2,0
447,2,2,0
448,2,2,0
449,2,2,0
450,2,2,0
451,2,2,0
452,2,2,0
453,2,2,0
454,2,2,0
455,2,2,0
456,2,2,0
457,2,2,0
458,2,2,0
459,2,2,0
460,2,2,0
461,2,2,0
462,2,2,0
463,2,2,0
464,2,2,0
465,2,2,1e-07
466,2,2,1e-07
467,2,2,1e-07
468,2,2,1e-07
469,2,2,1e-07
470,2,2,1e-07
471,2,2,1e-07
472,2,2,1e-07
473,2,2,0
474,2,2,0
475,2,2,0
476,2,2,0
477,2,2,0
478,2,2,0
479,2,2,0
480,2,2,0
481,2,2,0
482,2,2,0
483,2,2,0
484,2,2,0
485,2,2,0
486,2,2,0
487,2,2,0
488,2,2,0
489,2,2,0
490,2,2,0
491,2,2,0
492,2,2,0
493,2,2,0
494,2,2,0
495,2,2,0
496,2,2,0
497,2,2,0
498,2,2,0
499,2,2,0
500,2,2,0
501,2,2,0
502,2,2,0
503,2,2,0
504,2,2,0
505,2,2,0
506,2,2,0
507,2,2,0
508,2,2,0
509,2,2,0
510,2,2,0
511,2,2,0
512,2,2,0
*Output,field,frequency=1
*Node Output,nset=UPPERNODES
U,RF
*Contact Output
CDISP,CFORCE
*End Step
*Step,name=CELL60,nlgeom=YES,inc=10
*Coupled Temperature-Displacement,steady state
1,1,1,1
*Boundary,op=NEW
FIELD,1,1,0
FIELD,11,11,300
UPPERNODES,2,2,-.0002
CONTROLS,3,5,0
1,2,2,0
2,2,2,0
3,2,2,0
4,2,2,0
5,2,2,0
6,2,2,0
7,2,2,0
8,2,2,0
9,2,2,0
10,2,2,0
11,2,2,0
12,2,2,0
13,2,2,0
14,2,2,0
15,2,2,0
16,2,2,0
17,2,2,0
18,2,2,0
19,2,2,0
20,2,2,0
21,2,2,0
22,2,2,0
23,2,2,0
24,2,2,0
25,2,2,0
26,2,2,0
27,2,2,0
28,2,2,0
29,2,2,0
30,2,2,0
31,2,2,0
32,2,2,0
33,2,2,0
34,2,2,0
35,2,2,0
36,2,2,0
37,2,2,0
38,2,2,0
39,2,2,0
40,2,2,0
41,2,2,0
42,2,2,0
43,2,2,0
44,2,2,0
45,2,2,0
46,2,2,0
47,2,2,0
48,2,2,0
49,2,2,0
50,2,2,0
51,2,2,0
52,2,2,0
53,2,2,0
54,2,2,0
55,2,2,0
56,2,2,0
57,2,2,0
58,2,2,0
59,2,2,0
60,2,2,0
61,2,2,0
62,2,2,0
63,2,2,0
64,2,2,0
65,2,2,0
66,2,2,0
67,2,2,0
68,2,2,0
69,2,2,0
70,2,2,0
71,2,2,0
72,2,2,0
73,2,2,0
74,2,2,0
75,2,2,0
76,2,2,0
77,2,2,0
78,2,2,0
79,2,2,0
80,2,2,0
81,2,2,0
82,2,2,0
83,2,2,0
84,2,2,0
85,2,2,0
86,2,2,0
87,2,2,0
88,2,2,0
89,2,2,0
90,2,2,0
91,2,2,0
92,2,2,0
93,2,2,0
94,2,2,0
95,2,2,0
96,2,2,0
97,2,2,0
98,2,2,0
99,2,2,0
100,2,2,0
101,2,2,0
102,2,2,0
103,2,2,0
104,2,2,0
105,2,2,0
106,2,2,0
107,2,2,0
108,2,2,0
109,2,2,0
110,2,2,0
111,2,2,0
112,2,2,0
113,2,2,0
114,2,2,0
115,2,2,0
116,2,2,0
117,2,2,0
118,2,2,0
119,2,2,0
120,2,2,0
121,2,2,0
122,2,2,0
123,2,2,0
124,2,2,0
125,2,2,0
126,2,2,0
127,2,2,0
128,2,2,0
129,2,2,0
130,2,2,0
131,2,2,0
132,2,2,0
133,2,2,0
134,2,2,0
135,2,2,0
136,2,2,0
137,2,2,0
138,2,2,0
139,2,2,0
140,2,2,0
141,2,2,0
142,2,2,0
143,2,2,0
144,2,2,0
145,2,2,0
146,2,2,0
147,2,2,0
148,2,2,0
149,2,2,0
150,2,2,0
151,2,2,0
152,2,2,0
153,2,2,0
154,2,2,0
155,2,2,0
156,2,2,0
157,2,2,0
158,2,2,0
159,2,2,0
160,2,2,0
161,2,2,0
162,2,2,0
163,2,2,0
164,2,2,0
165,2,2,0
166,2,2,0
167,2,2,0
168,2,2,0
169,2,2,0
170,2,2,0
171,2,2,0
172,2,2,0
173,2,2,0
174,2,2,0
175,2,2,0
176,2,2,0
177,2,2,0
178,2,2,0
179,2,2,0
180,2,2,0
181,2,2,0
182,2,2,0
183,2,2,0
184,2,2,0
185,2,2,0
186,2,2,0
187,2,2,0
188,2,2,0
189,2,2,0
190,2,2,0
191,2,2,0
192,2,2,0
193,2,2,0
194,2,2,0
195,2,2,0
196,2,2,0
197,2,2,0
198,2,2,0
199,2,2,0
200,2,2,0
201,2,2,0
202,2,2,0
203,2,2,0
204,2,2,0
205,2,2,0
206,2,2,0
207,2,2,0
208,2,2,0
209,2,2,0
210,2,2,0
211,2,2,0
212,2,2,0
213,2,2,0
214,2,2,0
215,2,2,0
216,2,2,0
217,2,2,0
218,2,2,0
219,2,2,0
220,2,2,0
221,2,2,0
222,2,2,0
223,2,2,0
224,2,2,0
225,2,2,0
226,2,2,0
227,2,2,0
228,2,2,0
229,2,2,0
230,2,2,0
231,2,2,0
232,2,2,0
233,2,2,0
234,2,2,0
235,2,2,0
236,2,2,0
237,2,2,0
238,2,2,0
239,2,2,0
240,2,2,0
241,2,2,0
242,2,2,0
243,2,2,0
244,2,2,0
245,2,2,0
246,2,2,0
247,2,2,0
248,2,2,0
249,2,2,0
250,2,2,0
251,2,2,0
252,2,2,0
253,2,2,0
254,2,2,0
255,2,2,0
256,2,2,0
257,2,2,0
258,2,2,0
259,2,2,0
260,2,2,0
261,2,2,0
262,2,2,0
263,2,2,0
264,2,2,0
265,2,2,0
266,2,2,0
267,2,2,0
268,2,2,0
269,2,2,0
270,2,2,0
271,2,2,0
272,2,2,0
273,2,2,0
274,2,2,0
275,2,2,0
276,2,2,0
277,2,2,0
278,2,2,0
279,2,2,0
280,2,2,0
281,2,2,0
282,2,2,0
283,2,2,0
284,2,2,0
285,2,2,0
286,2,2,0
287,2,2,0
288,2,2,0
289,2,2,0
290,2,2,0
291,2,2,0
292,2,2,0
293,2,2,0
294,2,2,0
295,2,2,0
296,2,2,0
297,2,2,0
298,2,2,0
299,2,2,0
300,2,2,0
301,2,2,0
302,2,2,0
303,2,2,0
304,2,2,0
305,2,2,0
306,2,2,0
307,2,2,0
308,2,2,0
309,2,2,0
310,2,2,0
311,2,2,0
312,2,2,0
313,2,2,0
314,2,2,0
315,2,2,0
316,2,2,0
317,2,2,0
318,2,2,0
319,2,2,0
320,2,2,0
321,2,2,0
322,2,2,0
323,2,2,0
324,2,2,0
325,2,2,0
326,2,2,0
327,2,2,0
328,2,2,0
329,2,2,0
330,2,2,0
331,2,2,0
332,2,2,0
333,2,2,0
334,2,2,0
335,2,2,0
336,2,2,0
337,2,2,0
338,2,2,0
339,2,2,0
340,2,2,0
341,2,2,0
342,2,2,0
343,2,2,0
344,2,2,0
345,2,2,0
346,2,2,0
347,2,2,0
348,2,2,0
349,2,2,0
350,2,2,0
351,2,2,0
352,2,2,0
353,2,2,0
354,2,2,0
355,2,2,0
356,2,2,0
357,2,2,0
358,2,2,0
359,2,2,0
360,2,2,0
361,2,2,0
362,2,2,0
363,2,2,0
364,2,2,0
365,2,2,0
366,2,2,0
367,2,2,0
368,2,2,0
369,2,2,0
370,2,2,0
371,2,2,0
372,2,2,0
373,2,2,0
374,2,2,0
375,2,2,0
376,2,2,0
377,2,2,0
378,2,2,0
379,2,2,0
380,2,2,0
381,2,2,0
382,2,2,0
383,2,2,0
384,2,2,0
385,2,2,0
386,2,2,0
387,2,2,0
388,2,2,0
389,2,2,0
390,2,2,0
391,2,2,0
392,2,2,0
393,2,2,0
394,2,2,0
395,2,2,0
396,2,2,0
397,2,2,0
398,2,2,0
399,2,2,0
400,2,2,0
401,2,2,0
402,2,2,0
403,2,2,0
404,2,2,0
405,2,2,0
406,2,2,0
407,2,2,0
408,2,2,0
409,2,2,0
410,2,2,0
411,2,2,0
412,2,2,0
413,2,2,0
414,2,2,0
415,2,2,0
416,2,2,0
417,2,2,0
418,2,2,0
419,2,2,0
420,2,2,0
421,2,2,0
422,2,2,0
423,2,2,0
424,2,2,0
425,2,2,0
426,2,2,0
427,2,2,0
428,2,2,0
429,2,2,0
430,2,2,0
431,2,2,0
432,2,2,0
433,2,2,0
434,2,2,0
435,2,2,0
436,2,2,0
437,2,2,0
438,2,2,0
439,2,2,0
440,2,2,0
441,2,2,0
442,2,2,0
443,2,2,0
444,2,2,0
445,2,2,0
446,2,2,0
447,2,2,0
448,2,2,0
449,2,2,0
450,2,2,0
451,2,2,0
452,2,2,0
453,2,2,0
454,2,2,0
455,2,2,0
456,2,2,0
457,2,2,0
458,2,2,0
459,2,2,0
460,2,2,0
461,2,2,0
462,2,2,0
463,2,2,0
464,2,2,0
465,2,2,0
466,2,2,0
467,2,2,0
468,2,2,0
469,2,2,0
470,2,2,0
471,2,2,0
472,2,2,0
473,2,2,1e-07
474,2,2,1e-07
475,2,2,1e-07
476,2,2,1e-07
477,2,2,1e-07
478,2,2,1e-07
479,2,2,1e-07
480,2,2,1e-07
481,2,2,0
482,2,2,0
483,2,2,0
484,2,2,0
485,2,2,0
486,2,2,0
487,2,2,0
488,2,2,0
489,2,2,0
490,2,2,0
491,2,2,0
492,2,2,0
493,2,2,0
494,2,2,0
495,2,2,0
496,2,2,0
497,2,2,0
498,2,2,0
499,2,2,0
500,2,2,0
501,2,2,0
502,2,2,0
503,2,2,0
504,2,2,0
505,2,2,0
506,2,2,0
507,2,2,0
508,2,2,0
509,2,2,0
510,2,2,0
511,2,2,0
512,2,2,0
*Output,field,frequency=1
*Node Output,nset=UPPERNODES
U,RF
*Contact Output
CDISP,CFORCE
*End Step
*Step,name=CELL61,nlgeom=YES,inc=10
*Coupled Temperature-Displacement,steady state
1,1,1,1
*Boundary,op=NEW
FIELD,1,1,0
FIELD,11,11,300
UPPERNODES,2,2,-.0002
CONTROLS,3,5,0
1,2,2,0
2,2,2,0
3,2,2,0
4,2,2,0
5,2,2,0
6,2,2,0
7,2,2,0
8,2,2,0
9,2,2,0
10,2,2,0
11,2,2,0
12,2,2,0
13,2,2,0
14,2,2,0
15,2,2,0
16,2,2,0
17,2,2,0
18,2,2,0
19,2,2,0
20,2,2,0
21,2,2,0
22,2,2,0
23,2,2,0
24,2,2,0
25,2,2,0
26,2,2,0
27,2,2,0
28,2,2,0
29,2,2,0
30,2,2,0
31,2,2,0
32,2,2,0
33,2,2,0
34,2,2,0
35,2,2,0
36,2,2,0
37,2,2,0
38,2,2,0
39,2,2,0
40,2,2,0
41,2,2,0
42,2,2,0
43,2,2,0
44,2,2,0
45,2,2,0
46,2,2,0
47,2,2,0
48,2,2,0
49,2,2,0
50,2,2,0
51,2,2,0
52,2,2,0
53,2,2,0
54,2,2,0
55,2,2,0
56,2,2,0
57,2,2,0
58,2,2,0
59,2,2,0
60,2,2,0
61,2,2,0
62,2,2,0
63,2,2,0
64,2,2,0
65,2,2,0
66,2,2,0
67,2,2,0
68,2,2,0
69,2,2,0
70,2,2,0
71,2,2,0
72,2,2,0
73,2,2,0
74,2,2,0
75,2,2,0
76,2,2,0
77,2,2,0
78,2,2,0
79,2,2,0
80,2,2,0
81,2,2,0
82,2,2,0
83,2,2,0
84,2,2,0
85,2,2,0
86,2,2,0
87,2,2,0
88,2,2,0
89,2,2,0
90,2,2,0
91,2,2,0
92,2,2,0
93,2,2,0
94,2,2,0
95,2,2,0
96,2,2,0
97,2,2,0
98,2,2,0
99,2,2,0
100,2,2,0
101,2,2,0
102,2,2,0
103,2,2,0
104,2,2,0
105,2,2,0
106,2,2,0
107,2,2,0
108,2,2,0
109,2,2,0
110,2,2,0
111,2,2,0
112,2,2,0
113,2,2,0
114,2,2,0
115,2,2,0
116,2,2,0
117,2,2,0
118,2,2,0
119,2,2,0
120,2,2,0
121,2,2,0
122,2,2,0
123,2,2,0
124,2,2,0
125,2,2,0
126,2,2,0
127,2,2,0
128,2,2,0
129,2,2,0
130,2,2,0
131,2,2,0
132,2,2,0
133,2,2,0
134,2,2,0
135,2,2,0
136,2,2,0
137,2,2,0
138,2,2,0
139,2,2,0
140,2,2,0
141,2,2,0
142,2,2,0
143,2,2,0
144,2,2,0
145,2,2,0
146,2,2,0
147,2,2,0
148,2,2,0
149,2,2,0
150,2,2,0
151,2,2,0
152,2,2,0
153,2,2,0
154,2,2,0
155,2,2,0
156,2,2,0
157,2,2,0
158,2,2,0
159,2,2,0
160,2,2,0
161,2,2,0
162,2,2,0
163,2,2,0
164,2,2,0
165,2,2,0
166,2,2,0
167,2,2,0
168,2,2,0
169,2,2,0
170,2,2,0
171,2,2,0
172,2,2,0
173,2,2,0
174,2,2,0
175,2,2,0
176,2,2,0
177,2,2,0
178,2,2,0
179,2,2,0
180,2,2,0
181,2,2,0
182,2,2,0
183,2,2,0
184,2,2,0
185,2,2,0
186,2,2,0
187,2,2,0
188,2,2,0
189,2,2,0
190,2,2,0
191,2,2,0
192,2,2,0
193,2,2,0
194,2,2,0
195,2,2,0
196,2,2,0
197,2,2,0
198,2,2,0
199,2,2,0
200,2,2,0
201,2,2,0
202,2,2,0
203,2,2,0
204,2,2,0
205,2,2,0
206,2,2,0
207,2,2,0
208,2,2,0
209,2,2,0
210,2,2,0
211,2,2,0
212,2,2,0
213,2,2,0
214,2,2,0
215,2,2,0
216,2,2,0
217,2,2,0
218,2,2,0
219,2,2,0
220,2,2,0
221,2,2,0
222,2,2,0
223,2,2,0
224,2,2,0
225,2,2,0
226,2,2,0
227,2,2,0
228,2,2,0
229,2,2,0
230,2,2,0
231,2,2,0
232,2,2,0
233,2,2,0
234,2,2,0
235,2,2,0
236,2,2,0
237,2,2,0
238,2,2,0
239,2,2,0
240,2,2,0
241,2,2,0
242,2,2,0
243,2,2,0
244,2,2,0
245,2,2,0
246,2,2,0
247,2,2,0
248,2,2,0
249,2,2,0
250,2,2,0
251,2,2,0
252,2,2,0
253,2,2,0
254,2,2,0
255,2,2,0
256,2,2,0
257,2,2,0
258,2,2,0
259,2,2,0
260,2,2,0
261,2,2,0
262,2,2,0
263,2,2,0
264,2,2,0
265,2,2,0
266,2,2,0
267,2,2,0
268,2,2,0
269,2,2,0
270,2,2,0
271,2,2,0
272,2,2,0
273,2,2,0
274,2,2,0
275,2,2,0
276,2,2,0
277,2,2,0
278,2,2,0
279,2,2,0
280,2,2,0
281,2,2,0
282,2,2,0
283,2,2,0
284,2,2,0
285,2,2,0
286,2,2,0
287,2,2,0
288,2,2,0
289,2,2,0
290,2,2,0
291,2,2,0
292,2,2,0
293,2,2,0
294,2,2,0
295,2,2,0
296,2,2,0
297,2,2,0
298,2,2,0
299,2,2,0
300,2,2,0
301,2,2,0
302,2,2,0
303,2,2,0
304,2,2,0
305,2,2,0
306,2,2,0
307,2,2,0
308,2,2,0
309,2,2,0
310,2,2,0
311,2,2,0
312,2,2,0
313,2,2,0
314,2,2,0
315,2,2,0
316,2,2,0
317,2,2,0
318,2,2,0
319,2,2,0
320,2,2,0
321,2,2,0
322,2,2,0
323,2,2,0
324,2,2,0
325,2,2,0
326,2,2,0
327,2,2,0
328,2,2,0
329,2,2,0
330,2,2,0
331,2,2,0
332,2,2,0
333,2,2,0
334,2,2,0
335,2,2,0
336,2,2,0
337,2,2,0
338,2,2,0
339,2,2,0
340,2,2,0
341,2,2,0
342,2,2,0
343,2,2,0
344,2,2,0
345,2,2,0
346,2,2,0
347,2,2,0
348,2,2,0
349,2,2,0
350,2,2,0
351,2,2,0
352,2,2,0
353,2,2,0
354,2,2,0
355,2,2,0
356,2,2,0
357,2,2,0
358,2,2,0
359,2,2,0
360,2,2,0
361,2,2,0
362,2,2,0
363,2,2,0
364,2,2,0
365,2,2,0
366,2,2,0
367,2,2,0
368,2,2,0
369,2,2,0
370,2,2,0
371,2,2,0
372,2,2,0
373,2,2,0
374,2,2,0
375,2,2,0
376,2,2,0
377,2,2,0
378,2,2,0
379,2,2,0
380,2,2,0
381,2,2,0
382,2,2,0
383,2,2,0
384,2,2,0
385,2,2,0
386,2,2,0
387,2,2,0
388,2,2,0
389,2,2,0
390,2,2,0
391,2,2,0
392,2,2,0
393,2,2,0
394,2,2,0
395,2,2,0
396,2,2,0
397,2,2,0
398,2,2,0
399,2,2,0
400,2,2,0
401,2,2,0
402,2,2,0
403,2,2,0
404,2,2,0
405,2,2,0
406,2,2,0
407,2,2,0
408,2,2,0
409,2,2,0
410,2,2,0
411,2,2,0
412,2,2,0
413,2,2,0
414,2,2,0
415,2,2,0
416,2,2,0
417,2,2,0
418,2,2,0
419,2,2,0
420,2,2,0
421,2,2,0
422,2,2,0
423,2,2,0
424,2,2,0
425,2,2,0
426,2,2,0
427,2,2,0
428,2,2,0
429,2,2,0
430,2,2,0
431,2,2,0
432,2,2,0
433,2,2,0
434,2,2,0
435,2,2,0
436,2,2,0
437,2,2,0
438,2,2,0
439,2,2,0
440,2,2,0
441,2,2,0
442,2,2,0
443,2,2,0
444,2,2,0
445,2,2,0
446,2,2,0
447,2,2,0
448,2,2,0
449,2,2,0
450,2,2,0
451,2,2,0
452,2,2,0
453,2,2,0
454,2,2,0
455,2,2,0
456,2,2,0
457,2,2,0
458,2,2,0
459,2,2,0
460,2,2,0
461,2,2,0
462,2,2,0
463,2,2,0
464,2,2,0
465,2,2,0
466,2,2,0
467,2,2,0
468,2,2,0
469,2,2,0
470,2,2,0
471,2,2,0
472,2,2,0
473,2,2,0
474,2,2,0
475,2,2,0
476,2,2,0
477,2,2,0
478,2,2,0
479,2,2,0
480,2,2,0
481,2,2,1e-07
482,2,2,1e-07
483,2,2,1e-07
484,2,2,1e-07
485,2,2,1e-07
486,2,2,1e-07
487,2,2,1e-07
488,2,2,1e-07
489,2,2,0
490,2,2,0
491,2,2,0
492,2,2,0
493,2,2,0
494,2,2,0
495,2,2,0
496,2,2,0
497,2,2,0
498,2,2,0
499,2,2,0
500,2,2,0
501,2,2,0
502,2,2,0
503,2,2,0
504,2,2,0
505,2,2,0
506,2,2,0
507,2,2,0
508,2,2,0
509,2,2,0
510,2,2,0
511,2,2,0
512,2,2,0
*Output,field,frequency=1
*Node Output,nset=UPPERNODES
U,RF
*Contact Output
CDISP,CFORCE
*End Step
*Step,name=CELL62,nlgeom=YES,inc=10
*Coupled Temperature-Displacement,steady state
1,1,1,1
*Boundary,op=NEW
FIELD,1,1,0
FIELD,11,11,300
UPPERNODES,2,2,-.0002
CONTROLS,3,5,0
1,2,2,0
2,2,2,0
3,2,2,0
4,2,2,0
5,2,2,0
6,2,2,0
7,2,2,0
8,2,2,0
9,2,2,0
10,2,2,0
11,2,2,0
12,2,2,0
13,2,2,0
14,2,2,0
15,2,2,0
16,2,2,0
17,2,2,0
18,2,2,0
19,2,2,0
20,2,2,0
21,2,2,0
22,2,2,0
23,2,2,0
24,2,2,0
25,2,2,0
26,2,2,0
27,2,2,0
28,2,2,0
29,2,2,0
30,2,2,0
31,2,2,0
32,2,2,0
33,2,2,0
34,2,2,0
35,2,2,0
36,2,2,0
37,2,2,0
38,2,2,0
39,2,2,0
40,2,2,0
41,2,2,0
42,2,2,0
43,2,2,0
44,2,2,0
45,2,2,0
46,2,2,0
47,2,2,0
48,2,2,0
49,2,2,0
50,2,2,0
51,2,2,0
52,2,2,0
53,2,2,0
54,2,2,0
55,2,2,0
56,2,2,0
57,2,2,0
58,2,2,0
59,2,2,0
60,2,2,0
61,2,2,0
62,2,2,0
63,2,2,0
64,2,2,0
65,2,2,0
66,2,2,0
67,2,2,0
68,2,2,0
69,2,2,0
70,2,2,0
71,2,2,0
72,2,2,0
73,2,2,0
74,2,2,0
75,2,2,0
76,2,2,0
77,2,2,0
78,2,2,0
79,2,2,0
80,2,2,0
81,2,2,0
82,2,2,0
83,2,2,0
84,2,2,0
85,2,2,0
86,2,2,0
87,2,2,0
88,2,2,0
89,2,2,0
90,2,2,0
91,2,2,0
92,2,2,0
93,2,2,0
94,2,2,0
95,2,2,0
96,2,2,0
97,2,2,0
98,2,2,0
99,2,2,0
100,2,2,0
101,2,2,0
102,2,2,0
103,2,2,0
104,2,2,0
105,2,2,0
106,2,2,0
107,2,2,0
108,2,2,0
109,2,2,0
110,2,2,0
111,2,2,0
112,2,2,0
113,2,2,0
114,2,2,0
115,2,2,0
116,2,2,0
117,2,2,0
118,2,2,0
119,2,2,0
120,2,2,0
121,2,2,0
122,2,2,0
123,2,2,0
124,2,2,0
125,2,2,0
126,2,2,0
127,2,2,0
128,2,2,0
129,2,2,0
130,2,2,0
131,2,2,0
132,2,2,0
133,2,2,0
134,2,2,0
135,2,2,0
136,2,2,0
137,2,2,0
138,2,2,0
139,2,2,0
140,2,2,0
141,2,2,0
142,2,2,0
143,2,2,0
144,2,2,0
145,2,2,0
146,2,2,0
147,2,2,0
148,2,2,0
149,2,2,0
150,2,2,0
151,2,2,0
152,2,2,0
153,2,2,0
154,2,2,0
155,2,2,0
156,2,2,0
157,2,2,0
158,2,2,0
159,2,2,0
160,2,2,0
161,2,2,0
162,2,2,0
163,2,2,0
164,2,2,0
165,2,2,0
166,2,2,0
167,2,2,0
168,2,2,0
169,2,2,0
170,2,2,0
171,2,2,0
172,2,2,0
173,2,2,0
174,2,2,0
175,2,2,0
176,2,2,0
177,2,2,0
178,2,2,0
179,2,2,0
180,2,2,0
181,2,2,0
182,2,2,0
183,2,2,0
184,2,2,0
185,2,2,0
186,2,2,0
187,2,2,0
188,2,2,0
189,2,2,0
190,2,2,0
191,2,2,0
192,2,2,0
193,2,2,0
194,2,2,0
195,2,2,0
196,2,2,0
197,2,2,0
198,2,2,0
199,2,2,0
200,2,2,0
201,2,2,0
202,2,2,0
203,2,2,0
204,2,2,0
205,2,2,0
206,2,2,0
207,2,2,0
208,2,2,0
209,2,2,0
210,2,2,0
211,2,2,0
212,2,2,0
213,2,2,0
214,2,2,0
215,2,2,0
216,2,2,0
217,2,2,0
218,2,2,0
219,2,2,0
220,2,2,0
221,2,2,0
222,2,2,0
223,2,2,0
224,2,2,0
225,2,2,0
226,2,2,0
227,2,2,0
228,2,2,0
229,2,2,0
230,2,2,0
231,2,2,0
232,2,2,0
233,2,2,0
234,2,2,0
235,2,2,0
236,2,2,0
237,2,2,0
238,2,2,0
239,2,2,0
240,2,2,0
241,2,2,0
242,2,2,0
243,2,2,0
244,2,2,0
245,2,2,0
246,2,2,0
247,2,2,0
248,2,2,0
249,2,2,0
250,2,2,0
251,2,2,0
252,2,2,0
253,2,2,0
254,2,2,0
255,2,2,0
256,2,2,0
257,2,2,0
258,2,2,0
259,2,2,0
260,2,2,0
261,2,2,0
262,2,2,0
263,2,2,0
264,2,2,0
265,2,2,0
266,2,2,0
267,2,2,0
268,2,2,0
269,2,2,0
270,2,2,0
271,2,2,0
272,2,2,0
273,2,2,0
274,2,2,0
275,2,2,0
276,2,2,0
277,2,2,0
278,2,2,0
279,2,2,0
280,2,2,0
281,2,2,0
282,2,2,0
283,2,2,0
284,2,2,0
285,2,2,0
286,2,2,0
287,2,2,0
288,2,2,0
289,2,2,0
290,2,2,0
291,2,2,0
292,2,2,0
293,2,2,0
294,2,2,0
295,2,2,0
296,2,2,0
297,2,2,0
298,2,2,0
299,2,2,0
300,2,2,0
301,2,2,0
302,2,2,0
303,2,2,0
304,2,2,0
305,2,2,0
306,2,2,0
307,2,2,0
308,2,2,0
309,2,2,0
310,2,2,0
311,2,2,0
312,2,2,0
313,2,2,0
314,2,2,0
315,2,2,0
316,2,2,0
317,2,2,0
318,2,2,0
319,2,2,0
320,2,2,0
321,2,2,0
322,2,2,0
323,2,2,0
324,2,2,0
325,2,2,0
326,2,2,0
327,2,2,0
328,2,2,0
329,2,2,0
330,2,2,0
331,2,2,0
332,2,2,0
333,2,2,0
334,2,2,0
335,2,2,0
336,2,2,0
337,2,2,0
338,2,2,0
339,2,2,0
340,2,2,0
341,2,2,0
342,2,2,0
343,2,2,0
344,2,2,0
345,2,2,0
346,2,2,0
347,2,2,0
348,2,2,0
349,2,2,0
350,2,2,0
351,2,2,0
352,2,2,0
353,2,2,0
354,2,2,0
355,2,2,0
356,2,2,0
357,2,2,0
358,2,2,0
359,2,2,0
360,2,2,0
361,2,2,0
362,2,2,0
363,2,2,0
364,2,2,0
365,2,2,0
366,2,2,0
367,2,2,0
368,2,2,0
369,2,2,0
370,2,2,0
371,2,2,0
372,2,2,0
373,2,2,0
374,2,2,0
375,2,2,0
376,2,2,0
377,2,2,0
378,2,2,0
379,2,2,0
380,2,2,0
381,2,2,0
382,2,2,0
383,2,2,0
384,2,2,0
385,2,2,0
386,2,2,0
387,2,2,0
388,2,2,0
389,2,2,0
390,2,2,0
391,2,2,0
392,2,2,0
393,2,2,0
394,2,2,0
395,2,2,0
396,2,2,0
397,2,2,0
398,2,2,0
399,2,2,0
400,2,2,0
401,2,2,0
402,2,2,0
403,2,2,0
404,2,2,0
405,2,2,0
406,2,2,0
407,2,2,0
408,2,2,0
409,2,2,0
410,2,2,0
411,2,2,0
412,2,2,0
413,2,2,0
414,2,2,0
415,2,2,0
416,2,2,0
417,2,2,0
418,2,2,0
419,2,2,0
420,2,2,0
421,2,2,0
422,2,2,0
423,2,2,0
424,2,2,0
425,2,2,0
426,2,2,0
427,2,2,0
428,2,2,0
429,2,2,0
430,2,2,0
431,2,2,0
432,2,2,0
433,2,2,0
434,2,2,0
435,2,2,0
436,2,2,0
437,2,2,0
438,2,2,0
439,2,2,0
440,2,2,0
441,2,2,0
442,2,2,0
443,2,2,0
444,2,2,0
445,2,2,0
446,2,2,0
447,2,2,0
448,2,2,0
449,2,2,0
450,2,2,0
451,2,2,0
452,2,2,0
453,2,2,0
454,2,2,0
455,2,2,0
456,2,2,0
457,2,2,0
458,2,2,0
459,2,2,0
460,2,2,0
461,2,2,0
462,2,2,0
463,2,2,0
464,2,2,0
465,2,2,0
466,2,2,0
467,2,2,0
468,2,2,0
469,2,2,0
470,2,2,0
471,2,2,0
472,2,2,0
473,2,2,0
474,2,2,0
475,2,2,0
476,2,2,0
477,2,2,0
478,2,2,0
479,2,2,0
480,2,2,0
481,2,2,0
482,2,2,0
483,2,2,0
484,2,2,0
485,2,2,0
486,2,2,0
487,2,2,0
488,2,2,0
489,2,2,1e-07
490,2,2,1e-07
491,2,2,1e-07
492,2,2,1e-07
493,2,2,1e-07
494,2,2,1e-07
495,2,2,1e-07
496,2,2,1e-07
497,2,2,0
498,2,2,0
499,2,2,0
500,2,2,0
501,2,2,0
502,2,2,0
503,2,2,0
504,2,2,0
505,2,2,0
506,2,2,0
507,2,2,0
508,2,2,0
509,2,2,0
510,2,2,0
511,2,2,0
512,2,2,0
*Output,field,frequency=1
*Node Output,nset=UPPERNODES
U,RF
*Contact Output
CDISP,CFORCE
*End Step
*Step,name=CELL63,nlgeom=YES,inc=10
*Coupled Temperature-Displacement,steady state
1,1,1,1
*Boundary,op=NEW
FIELD,1,1,0
FIELD,11,11,300
UPPERNODES,2,2,-.0002
CONTROLS,3,5,0
1,2,2,0
2,2,2,0
3,2,2,0
4,2,2,0
5,2,2,0
6,2,2,0
7,2,2,0
8,2,2,0
9,2,2,0
10,2,2,0
11,2,2,0
12,2,2,0
13,2,2,0
14,2,2,0
15,2,2,0
16,2,2,0
17,2,2,0
18,2,2,0
19,2,2,0
20,2,2,0
21,2,2,0
22,2,2,0
23,2,2,0
24,2,2,0
25,2,2,0
26,2,2,0
27,2,2,0
28,2,2,0
29,2,2,0
30,2,2,0
31,2,2,0
32,2,2,0
33,2,2,0
34,2,2,0
35,2,2,0
36,2,2,0
37,2,2,0
38,2,2,0
39,2,2,0
40,2,2,0
41,2,2,0
42,2,2,0
43,2,2,0
44,2,2,0
45,2,2,0
46,2,2,0
47,2,2,0
48,2,2,0
49,2,2,0
50,2,2,0
51,2,2,0
52,2,2,0
53,2,2,0
54,2,2,0
55,2,2,0
56,2,2,0
57,2,2,0
58,2,2,0
59,2,2,0
60,2,2,0
61,2,2,0
62,2,2,0
63,2,2,0
64,2,2,0
65,2,2,0
66,2,2,0
67,2,2,0
68,2,2,0
69,2,2,0
70,2,2,0
71,2,2,0
72,2,2,0
73,2,2,0
74,2,2,0
75,2,2,0
76,2,2,0
77,2,2,0
78,2,2,0
79,2,2,0
80,2,2,0
81,2,2,0
82,2,2,0
83,2,2,0
84,2,2,0
85,2,2,0
86,2,2,0
87,2,2,0
88,2,2,0
89,2,2,0
90,2,2,0
91,2,2,0
92,2,2,0
93,2,2,0
94,2,2,0
95,2,2,0
96,2,2,0
97,2,2,0
98,2,2,0
99,2,2,0
100,2,2,0
101,2,2,0
102,2,2,0
103,2,2,0
104,2,2,0
105,2,2,0
106,2,2,0
107,2,2,0
108,2,2,0
109,2,2,0
110,2,2,0
111,2,2,0
112,2,2,0
113,2,2,0
114,2,2,0
115,2,2,0
116,2,2,0
117,2,2,0
118,2,2,0
119,2,2,0
120,2,2,0
121,2,2,0
122,2,2,0
123,2,2,0
124,2,2,0
125,2,2,0
126,2,2,0
127,2,2,0
128,2,2,0
129,2,2,0
130,2,2,0
131,2,2,0
132,2,2,0
133,2,2,0
134,2,2,0
135,2,2,0
136,2,2,0
137,2,2,0
138,2,2,0
139,2,2,0
140,2,2,0
141,2,2,0
142,2,2,0
143,2,2,0
144,2,2,0
145,2,2,0
146,2,2,0
147,2,2,0
148,2,2,0
149,2,2,0
150,2,2,0
151,2,2,0
152,2,2,0
153,2,2,0
154,2,2,0
155,2,2,0
156,2,2,0
157,2,2,0
158,2,2,0
159,2,2,0
160,2,2,0
161,2,2,0
162,2,2,0
163,2,2,0
164,2,2,0
165,2,2,0
166,2,2,0
167,2,2,0
168,2,2,0
169,2,2,0
170,2,2,0
171,2,2,0
172,2,2,0
173,2,2,0
174,2,2,0
175,2,2,0
176,2,2,0
177,2,2,0
178,2,2,0
179,2,2,0
180,2,2,0
181,2,2,0
182,2,2,0
183,2,2,0
184,2,2,0
185,2,2,0
186,2,2,0
187,2,2,0
188,2,2,0
189,2,2,0
190,2,2,0
191,2,2,0
192,2,2,0
193,2,2,0
194,2,2,0
195,2,2,0
196,2,2,0
197,2,2,0
198,2,2,0
199,2,2,0
200,2,2,0
201,2,2,0
202,2,2,0
203,2,2,0
204,2,2,0
205,2,2,0
206,2,2,0
207,2,2,0
208,2,2,0
209,2,2,0
210,2,2,0
211,2,2,0
212,2,2,0
213,2,2,0
214,2,2,0
215,2,2,0
216,2,2,0
217,2,2,0
218,2,2,0
219,2,2,0
220,2,2,0
221,2,2,0
222,2,2,0
223,2,2,0
224,2,2,0
225,2,2,0
226,2,2,0
227,2,2,0
228,2,2,0
229,2,2,0
230,2,2,0
231,2,2,0
232,2,2,0
233,2,2,0
234,2,2,0
235,2,2,0
236,2,2,0
237,2,2,0
238,2,2,0
239,2,2,0
240,2,2,0
241,2,2,0
242,2,2,0
243,2,2,0
244,2,2,0
245,2,2,0
246,2,2,0
247,2,2,0
248,2,2,0
249,2,2,0
250,2,2,0
251,2,2,0
252,2,2,0
253,2,2,0
254,2,2,0
255,2,2,0
256,2,2,0
257,2,2,0
258,2,2,0
259,2,2,0
260,2,2,0
261,2,2,0
262,2,2,0
263,2,2,0
264,2,2,0
265,2,2,0
266,2,2,0
267,2,2,0
268,2,2,0
269,2,2,0
270,2,2,0
271,2,2,0
272,2,2,0
273,2,2,0
274,2,2,0
275,2,2,0
276,2,2,0
277,2,2,0
278,2,2,0
279,2,2,0
280,2,2,0
281,2,2,0
282,2,2,0
283,2,2,0
284,2,2,0
285,2,2,0
286,2,2,0
287,2,2,0
288,2,2,0
289,2,2,0
290,2,2,0
291,2,2,0
292,2,2,0
293,2,2,0
294,2,2,0
295,2,2,0
296,2,2,0
297,2,2,0
298,2,2,0
299,2,2,0
300,2,2,0
301,2,2,0
302,2,2,0
303,2,2,0
304,2,2,0
305,2,2,0
306,2,2,0
307,2,2,0
308,2,2,0
309,2,2,0
310,2,2,0
311,2,2,0
312,2,2,0
313,2,2,0
314,2,2,0
315,2,2,0
316,2,2,0
317,2,2,0
318,2,2,0
319,2,2,0
320,2,2,0
321,2,2,0
322,2,2,0
323,2,2,0
324,2,2,0
325,2,2,0
326,2,2,0
327,2,2,0
328,2,2,0
329,2,2,0
330,2,2,0
331,2,2,0
332,2,2,0
333,2,2,0
334,2,2,0
335,2,2,0
336,2,2,0
337,2,2,0
338,2,2,0
339,2,2,0
340,2,2,0
341,2,2,0
342,2,2,0
343,2,2,0
344,2,2,0
345,2,2,0
346,2,2,0
347,2,2,0
348,2,2,0
349,2,2,0
350,2,2,0
351,2,2,0
352,2,2,0
353,2,2,0
354,2,2,0
355,2,2,0
356,2,2,0
357,2,2,0
358,2,2,0
359,2,2,0
360,2,2,0
361,2,2,0
362,2,2,0
363,2,2,0
364,2,2,0
365,2,2,0
366,2,2,0
367,2,2,0
368,2,2,0
369,2,2,0
370,2,2,0
371,2,2,0
372,2,2,0
373,2,2,0
374,2,2,0
375,2,2,0
376,2,2,0
377,2,2,0
378,2,2,0
379,2,2,0
380,2,2,0
381,2,2,0
382,2,2,0
383,2,2,0
384,2,2,0
385,2,2,0
386,2,2,0
387,2,2,0
388,2,2,0
389,2,2,0
390,2,2,0
391,2,2,0
392,2,2,0
393,2,2,0
394,2,2,0
395,2,2,0
396,2,2,0
397,2,2,0
398,2,2,0
399,2,2,0
400,2,2,0
401,2,2,0
402,2,2,0
403,2,2,0
404,2,2,0
405,2,2,0
406,2,2,0
407,2,2,0
408,2,2,0
409,2,2,0
410,2,2,0
411,2,2,0
412,2,2,0
413,2,2,0
414,2,2,0
415,2,2,0
416,2,2,0
417,2,2,0
418,2,2,0
419,2,2,0
420,2,2,0
421,2,2,0
422,2,2,0
423,2,2,0
424,2,2,0
425,2,2,0
426,2,2,0
427,2,2,0
428,2,2,0
429,2,2,0
430,2,2,0
431,2,2,0
432,2,2,0
433,2,2,0
434,2,2,0
435,2,2,0
436,2,2,0
437,2,2,0
438,2,2,0
439,2,2,0
440,2,2,0
441,2,2,0
442,2,2,0
443,2,2,0
444,2,2,0
445,2,2,0
446,2,2,0
447,2,2,0
448,2,2,0
449,2,2,0
450,2,2,0
451,2,2,0
452,2,2,0
453,2,2,0
454,2,2,0
455,2,2,0
456,2,2,0
457,2,2,0
458,2,2,0
459,2,2,0
460,2,2,0
461,2,2,0
462,2,2,0
463,2,2,0
464,2,2,0
465,2,2,0
466,2,2,0
467,2,2,0
468,2,2,0
469,2,2,0
470,2,2,0
471,2,2,0
472,2,2,0
473,2,2,0
474,2,2,0
475,2,2,0
476,2,2,0
477,2,2,0
478,2,2,0
479,2,2,0
480,2,2,0
481,2,2,0
482,2,2,0
483,2,2,0
484,2,2,0
485,2,2,0
486,2,2,0
487,2,2,0
488,2,2,0
489,2,2,0
490,2,2,0
491,2,2,0
492,2,2,0
493,2,2,0
494,2,2,0
495,2,2,0
496,2,2,0
497,2,2,1e-07
498,2,2,1e-07
499,2,2,1e-07
500,2,2,1e-07
501,2,2,1e-07
502,2,2,1e-07
503,2,2,1e-07
504,2,2,1e-07
505,2,2,0
506,2,2,0
507,2,2,0
508,2,2,0
509,2,2,0
510,2,2,0
511,2,2,0
512,2,2,0
*Output,field,frequency=1
*Node Output,nset=UPPERNODES
U,RF
*Contact Output
CDISP,CFORCE
*End Step
*Step,name=CELL64,nlgeom=YES,inc=10
*Coupled Temperature-Displacement,steady state
1,1,1,1
*Boundary,op=NEW
FIELD,1,1,0
FIELD,11,11,300
UPPERNODES,2,2,-.0002
CONTROLS,3,5,0
1,2,2,0
2,2,2,0
3,2,2,0
4,2,2,0
5,2,2,0
6,2,2,0
7,2,2,0
8,2,2,0
9,2,2,0
10,2,2,0
11,2,2,0
12,2,2,0
13,2,2,0
14,2,2,0
15,2,2,0
16,2,2,0
17,2,2,0
18,2,2,0
19,2,2,0
20,2,2,0
21,2,2,0
22,2,2,0
23,2,2,0
24,2,2,0
25,2,2,0
26,2,2,0
27,2,2,0
28,2,2,0
29,2,2,0
30,2,2,0
31,2,2,0
32,2,2,0
33,2,2,0
34,2,2,0
35,2,2,0
36,2,2,0
37,2,2,0
38,2,2,0
39,2,2,0
40,2,2,0
41,2,2,0
42,2,2,0
43,2,2,0
44,2,2,0
45,2,2,0
46,2,2,0
47,2,2,0
48,2,2,0
49,2,2,0
50,2,2,0
51,2,2,0
52,2,2,0
53,2,2,0
54,2,2,0
55,2,2,0
56,2,2,0
57,2,2,0
58,2,2,0
59,2,2,0
60,2,2,0
61,2,2,0
62,2,2,0
63,2,2,0
64,2,2,0
65,2,2,0
66,2,2,0
67,2,2,0
68,2,2,0
69,2,2,0
70,2,2,0
71,2,2,0
72,2,2,0
73,2,2,0
74,2,2,0
75,2,2,0
76,2,2,0
77,2,2,0
78,2,2,0
79,2,2,0
80,2,2,0
81,2,2,0
82,2,2,0
83,2,2,0
84,2,2,0
85,2,2,0
86,2,2,0
87,2,2,0
88,2,2,0
89,2,2,0
90,2,2,0
91,2,2,0
92,2,2,0
93,2,2,0
94,2,2,0
95,2,2,0
96,2,2,0
97,2,2,0
98,2,2,0
99,2,2,0
100,2,2,0
101,2,2,0
102,2,2,0
103,2,2,0
104,2,2,0
105,2,2,0
106,2,2,0
107,2,2,0
108,2,2,0
109,2,2,0
110,2,2,0
111,2,2,0
112,2,2,0
113,2,2,0
114,2,2,0
115,2,2,0
116,2,2,0
117,2,2,0
118,2,2,0
119,2,2,0
120,2,2,0
121,2,2,0
122,2,2,0
123,2,2,0
124,2,2,0
125,2,2,0
126,2,2,0
127,2,2,0
128,2,2,0
129,2,2,0
130,2,2,0
131,2,2,0
132,2,2,0
133,2,2,0
134,2,2,0
135,2,2,0
136,2,2,0
137,2,2,0
138,2,2,0
139,2,2,0
140,2,2,0
141,2,2,0
142,2,2,0
143,2,2,0
144,2,2,0
145,2,2,0
146,2,2,0
147,2,2,0
148,2,2,0
149,2,2,0
150,2,2,0
151,2,2,0
152,2,2,0
153,2,2,0
154,2,2,0
155,2,2,0
156,2,2,0
157,2,2,0
158,2,2,0
159,2,2,0
160,2,2,0
161,2,2,0
162,2,2,0
163,2,2,0
164,2,2,0
165,2,2,0
166,2,2,0
167,2,2,0
168,2,2,0
169,2,2,0
170,2,2,0
171,2,2,0
172,2,2,0
173,2,2,0
174,2,2,0
175,2,2,0
176,2,2,0
177,2,2,0
178,2,2,0
179,2,2,0
180,2,2,0
181,2,2,0
182,2,2,0
183,2,2,0
184,2,2,0
185,2,2,0
186,2,2,0
187,2,2,0
188,2,2,0
189,2,2,0
190,2,2,0
191,2,2,0
192,2,2,0
193,2,2,0
194,2,2,0
195,2,2,0
196,2,2,0
197,2,2,0
198,2,2,0
199,2,2,0
200,2,2,0
201,2,2,0
202,2,2,0
203,2,2,0
204,2,2,0
205,2,2,0
206,2,2,0
207,2,2,0
208,2,2,0
209,2,2,0
210,2,2,0
211,2,2,0
212,2,2,0
213,2,2,0
214,2,2,0
215,2,2,0
216,2,2,0
217,2,2,0
218,2,2,0
219,2,2,0
220,2,2,0
221,2,2,0
222,2,2,0
223,2,2,0
224,2,2,0
225,2,2,0
226,2,2,0
227,2,2,0
228,2,2,0
229,2,2,0
230,2,2,0
231,2,2,0
232,2,2,0
233,2,2,0
234,2,2,0
235,2,2,0
236,2,2,0
237,2,2,0
238,2,2,0
239,2,2,0
240,2,2,0
241,2,2,0
242,2,2,0
243,2,2,0
244,2,2,0
245,2,2,0
246,2,2,0
247,2,2,0
248,2,2,0
249,2,2,0
250,2,2,0
251,2,2,0
252,2,2,0
253,2,2,0
254,2,2,0
255,2,2,0
256,2,2,0
257,2,2,0
258,2,2,0
259,2,2,0
260,2,2,0
261,2,2,0
262,2,2,0
263,2,2,0
264,2,2,0
265,2,2,0
266,2,2,0
267,2,2,0
268,2,2,0
269,2,2,0
270,2,2,0
271,2,2,0
272,2,2,0
273,2,2,0
274,2,2,0
275,2,2,0
276,2,2,0
277,2,2,0
278,2,2,0
279,2,2,0
280,2,2,0
281,2,2,0
282,2,2,0
283,2,2,0
284,2,2,0
285,2,2,0
286,2,2,0
287,2,2,0
288,2,2,0
289,2,2,0
290,2,2,0
291,2,2,0
292,2,2,0
293,2,2,0
294,2,2,0
295,2,2,0
296,2,2,0
297,2,2,0
298,2,2,0
299,2,2,0
300,2,2,0
301,2,2,0
302,2,2,0
303,2,2,0
304,2,2,0
305,2,2,0
306,2,2,0
307,2,2,0
308,2,2,0
309,2,2,0
310,2,2,0
311,2,2,0
312,2,2,0
313,2,2,0
314,2,2,0
315,2,2,0
316,2,2,0
317,2,2,0
318,2,2,0
319,2,2,0
320,2,2,0
321,2,2,0
322,2,2,0
323,2,2,0
324,2,2,0
325,2,2,0
326,2,2,0
327,2,2,0
328,2,2,0
329,2,2,0
330,2,2,0
331,2,2,0
332,2,2,0
333,2,2,0
334,2,2,0
335,2,2,0
336,2,2,0
337,2,2,0
338,2,2,0
339,2,2,0
340,2,2,0
341,2,2,0
342,2,2,0
343,2,2,0
344,2,2,0
345,2,2,0
346,2,2,0
347,2,2,0
348,2,2,0
349,2,2,0
350,2,2,0
351,2,2,0
352,2,2,0
353,2,2,0
354,2,2,0
355,2,2,0
356,2,2,0
357,2,2,0
358,2,2,0
359,2,2,0
360,2,2,0
361,2,2,0
362,2,2,0
363,2,2,0
364,2,2,0
365,2,2,0
366,2,2,0
367,2,2,0
368,2,2,0
369,2,2,0
370,2,2,0
371,2,2,0
372,2,2,0
373,2,2,0
374,2,2,0
375,2,2,0
376,2,2,0
377,2,2,0
378,2,2,0
379,2,2,0
380,2,2,0
381,2,2,0
382,2,2,0
383,2,2,0
384,2,2,0
385,2,2,0
386,2,2,0
387,2,2,0
388,2,2,0
389,2,2,0
390,2,2,0
391,2,2,0
392,2,2,0
393,2,2,0
394,2,2,0
395,2,2,0
396,2,2,0
397,2,2,0
398,2,2,0
399,2,2,0
400,2,2,0
401,2,2,0
402,2,2,0
403,2,2,0
404,2,2,0
405,2,2,0
406,2,2,0
407,2,2,0
408,2,2,0
409,2,2,0
410,2,2,0
411,2,2,0
412,2,2,0
413,2,2,0
414,2,2,0
415,2,2,0
416,2,2,0
417,2,2,0
418,2,2,0
419,2,2,0
420,2,2,0
421,2,2,0
422,2,2,0
423,2,2,0
424,2,2,0
425,2,2,0
426,2,2,0
427,2,2,0
428,2,2,0
429,2,2,0
430,2,2,0
431,2,2,0
432,2,2,0
433,2,2,0
434,2,2,0
435,2,2,0
436,2,2,0
437,2,2,0
438,2,2,0
439,2,2,0
440,2,2,0
441,2,2,0
442,2,2,0
443,2,2,0
444,2,2,0
445,2,2,0
446,2,2,0
447,2,2,0
448,2,2,0
449,2,2,0
450,2,2,0
451,2,2,0
452,2,2,0
453,2,2,0
454,2,2,0
455,2,2,0
456,2,2,0
457,2,2,0
458,2,2,0
459,2,2,0
460,2,2,0
461,2,2,0
462,2,2,0
463,2,2,0
464,2,2,0
465,2,2,0
466,2,2,0
467,2,2,0
468,2,2,0
469,2,2,0
470,2,2,0
471,2,2,0
472,2,2,0
473,2,2,0
474,2,2,0
475,2,2,0
476,2,2,0
477,2,2,0
478,2,2,0
479,2,2,0
480,2,2,0
481,2,2,0
482,2,2,0
483,2,2,0
484,2,2,0
485,2,2,0
486,2,2,0
487,2,2,0
488,2,2,0
489,2,2,0
490,2,2,0
491,2,2,0
492,2,2,0
493,2,2,0
494,2,2,0
495,2,2,0
496,2,2,0
497,2,2,0
498,2,2,0
499,2,2,0
500,2,2,0
501,2,2,0
502,2,2,0
503,2,2,0
504,2,2,0
505,2,2,1e-07
506,2,2,1e-07
507,2,2,1e-07
508,2,2,1e-07
509,2,2,1e-07
510,2,2,1e-07
511,2,2,1e-07
512,2,2,1e-07
*Output,field,frequency=1
*Node Output,nset=UPPERNODES
U,RF
*Contact Output
CDISP,CFORCE
*End Step
