*Heading
** Two CPEG8T blocks, frictionless penalty contact and constant gap conductance.
*Preprint, echo=NO, model=NO, history=NO, contact=NO
*Node
1,-.01,-.01
2,.01,-.01
3,.01,0
4,-.01,0
5,0,-.01
6,.01,-.005
7,0,0
8,-.01,-.005
9,-.01,.0001
10,.01,.0001
11,.01,.0101
12,-.01,.0101
13,0,.0001
14,.01,.0051
15,0,.0101
16,-.01,.0051
17,0,0
18,0,0
*Element,type=CPEG8T,elset=LOWER
1,1,2,3,4,5,6,7,8
*Element,type=CPEG8T,elset=UPPER
2,9,10,11,12,13,14,15,16
*Nset,nset=FIELD,generate
1,16,1
*Nset,nset=BOTTOM
1,2,5
*Nset,nset=TOP
11,12,15
*Nset,nset=CONTROLS
17,18
*Material,name=SOLID
*Elastic
1e6,.25
*Conductivity
10
*Density
1000
*Specific Heat
100
*Solid Section,elset=LOWER,material=SOLID,ref node=17
.1,0,0
*Solid Section,elset=UPPER,material=SOLID,ref node=18
.1,0,0
*Surface,name=PRIMARY,type=ELEMENT
LOWER,S3
*Surface,name=SECONDARY,type=ELEMENT
UPPER,S1
*Surface Interaction,name=INTERFACE
.1
*Surface Behavior,pressure-overclosure=LINEAR
1e9
*Gap Conductance
1000,0
1000,1
*Contact Pair,interaction=INTERFACE,type=SURFACE TO SURFACE
SECONDARY,PRIMARY
*Initial Conditions,type=TEMPERATURE
FIELD,300
*Step,name=PRIMARY_TILT,nlgeom=NO,inc=1
*Coupled Temperature-Displacement,steady state
1,1,1,1
*Boundary
FIELD,1,1,0
FIELD,11,11,300
CONTROLS,3,5,0
1,2,2,-5e-05
2,2,2,5e-05
3,2,2,5e-05
4,2,2,-5e-05
5,2,2,0
6,2,2,5e-05
7,2,2,0
8,2,2,-5e-05
9,2,2,-.0002
10,2,2,-.0002
11,2,2,-.0002
12,2,2,-.0002
13,2,2,-.0002
14,2,2,-.0002
15,2,2,-.0002
16,2,2,-.0002
*Output,field,frequency=1
*Node Output
NT,U,RF,RFL
*Element Output
S,EE
*Contact Output
CSTRESS,CDISP,CFORCE
*End Step
