*Heading
** CAX8T quadratic thermal and mechanical contact.
*Preprint, echo=NO, model=NO, history=NO, contact=NO
*Node
1,1,0
2,2,0
3,2,1
4,1,1
5,1.5,0
6,2,.5
7,1.5,1
8,1,.5
9,1,1
10,2,1
11,2,2
12,1,2
13,1.5,1
14,2,1.5
15,1.5,2
16,1,1.5
*Element, type=CAX8T, elset=LOWER
1,1,2,3,4,5,6,7,8
*Element, type=CAX8T, elset=UPPER
2,9,10,11,12,13,14,15,16
*Nset, nset=FIXED
1,4
*Nset, nset=UPPERFIXED
11,12
*Nset, nset=LOWERT
1,2,3,4
*Nset, nset=UPPERT
9,10,11,12
*Elset, elset=ALL
1,2
*Surface, type=NODE, name=S_LOWER
3, 2.0943951023931953
4, 1.0471975511965976
7, 6.283185307179586
*Surface, name=S_UPPER
UPPER, S1
*Material, name=SOLID
*Elastic
1e9,.3
*Conductivity
10
*Density
1000
*Specific Heat
100
*Solid Section, elset=LOWER, material=SOLID
,
*Solid Section, elset=UPPER, material=SOLID
,
*Initial Conditions, type=TEMPERATURE
FIXED,650
UPPERFIXED,650
LOWERT,650
UPPERT,650
*Surface Interaction, name=INTERFACE
*Surface Behavior, pressure-overclosure=LINEAR
1e13
*Gap Conductance
1e5,0
1e5,1e-6
0,1
*Contact Pair, interaction=INTERFACE, type=NODE TO SURFACE, adjust=0
S_LOWER,S_UPPER
*Step, name=CONTACT, nlgeom=NO, inc=50
*Coupled Temperature-Displacement, steady state
1,1,1,1
*Boundary
FIXED,1,1,0
UPPERFIXED,1,1,0
FIXED,2,2,0
UPPERFIXED,2,2,-5e-6
LOWERT,11,11,700
UPPERT,11,11,600
*Output, field, frequency=1
*Node Output
NT, U, RF, RFL
*Element Output, directions=YES
S, EE, COORD, IVOL, HFL
*Contact Output
CSTRESS, CDISP, CFORCE, HFL
*Output, history, frequency=0
*End Step
