*Heading
** Small-strain axisymmetric constant-stress creep. Initial loading takes 1e-10 s.
*Preprint, echo=NO, model=NO, history=NO, contact=NO
*Include, input=b10_cax8t_material_mesh.inc
*Material, name=SOLID
*Elastic
2e11, 0.3
*Creep, law=TIME
1e-28, 3, 0
*Conductivity
10
*Density
1000
*Specific Heat
100
*Solid Section, elset=SOLID, material=SOLID
,
*Initial Conditions, type=TEMPERATURE
ALL, 600
*Step, name=PRELOAD, nlgeom=NO
*Coupled Temperature-Displacement
1e-10, 1e-10, 1e-10, 1e-10
*Boundary
AXIS, 1, 1, 0
BOTTOM, 2, 2, 0
*Dload
SOLID, P3, -1e8
*Output, field, frequency=1
*Node Output
NT, U, RF, RFL
*Element Output, directions=YES
S, EE, CE, CEEQ, COORD, IVOL, HFL
*Output, history, frequency=0
*End Step
*Step, name=LOAD, nlgeom=NO, inc=5
*Coupled Temperature-Displacement
0.2, 1, 0.2, 0.2
*Controls, parameters=FIELD, field=DISPLACEMENT
1e-10, 1e-10, , , , 1e-10
*Boundary
AXIS, 1, 1, 0
BOTTOM, 2, 2, 0
*Output, field, frequency=1
*Node Output
NT, U, RF, RFL
*Element Output, directions=YES
S, EE, CE, CEEQ, COORD, IVOL, HFL
*Output, history, frequency=0
*End Step
