*Heading
** Native node-to-surface (NTS) heat transfer, area, projection and friction identification.
*Preprint, echo=NO, model=NO, history=NO, contact=NO
*Include, input=b13_small_cax8rt_mesh.inc
*Material, name=SOLID
*Elastic
1e6, 0.3
*Conductivity
1e-12
*Density
1
*Specific Heat
1
*Solid Section, elset=FUEL, material=SOLID
,
*Solid Section, elset=CLAD, material=SOLID
,
*Initial Conditions, type=TEMPERATURE
ALL, 600
*Surface Interaction, name=INTERFACE
*Surface Behavior, pressure-overclosure=LINEAR
1e12
*Friction
0.2
*Gap Heat Generation
0
*Gap Conductance
1000, 0
1000, 1
*Contact Pair, interaction=INTERFACE, type=NODE TO SURFACE, adjust=0
S_FUEL_RIGHT, S_CLAD_LEFT
*Step, name=CLOSE, nlgeom=YES, inc=10
*Coupled Temperature-Displacement, steady state
1, 1, 1, 1
*Controls, parameters=FIELD, field=DISPLACEMENT
1e-10, 1e-10, , , , 1e-10
*Boundary
1, 1, 1, 0
1, 2, 2, 0
1, 11, 11, 600
2, 1, 1, 0.000167
2, 2, 2, 0
2, 11, 11, 600.6866666666666
3, 1, 1, 0.000167
3, 2, 2, 0
3, 11, 11, 625.6866666666666
4, 1, 1, 0
4, 2, 2, 0
4, 11, 11, 625
5, 1, 1, 0.000334
5, 2, 2, 0
5, 11, 11, 601.3733333333333
6, 1, 1, 0.000334
6, 2, 2, 0
6, 11, 11, 626.3733333333333
7, 1, 1, 0.000501
7, 2, 2, 0
7, 11, 11, 602.06
8, 1, 1, 0.000501
8, 2, 2, 0
8, 11, 11, 627.06
9, 1, 1, 0.000668
9, 2, 2, 0
9, 11, 11, 602.7466666666667
10, 1, 1, 0.000668
10, 2, 2, 0
10, 11, 11, 627.7466666666667
11, 1, 1, 0.000835
11, 2, 2, 0
11, 11, 11, 603.4333333333333
12, 1, 1, 0.000835
12, 2, 2, 0
12, 11, 11, 628.4333333333333
13, 1, 1, 0.001002
13, 2, 2, 0
13, 11, 11, 604.12
14, 1, 1, 0.001002
14, 2, 2, 0
14, 11, 11, 629.12
15, 1, 1, 0.000167
15, 2, 2, 0
15, 11, 11, 650.6866666666666
16, 1, 1, 0
16, 2, 2, 0
16, 11, 11, 650
17, 1, 1, 0.000334
17, 2, 2, 0
17, 11, 11, 651.3733333333333
18, 1, 1, 0.000501
18, 2, 2, 0
18, 11, 11, 652.06
19, 1, 1, 0.000668
19, 2, 2, 0
19, 11, 11, 652.7466666666667
20, 1, 1, 0.000835
20, 2, 2, 0
20, 11, 11, 653.4333333333333
21, 1, 1, 0.001002
21, 2, 2, 0
21, 11, 11, 654.12
22, 1, 1, 0.000167
22, 2, 2, 0
22, 11, 11, 675.6866666666666
23, 1, 1, 0
23, 2, 2, 0
23, 11, 11, 675
24, 1, 1, 0.000334
24, 2, 2, 0
24, 11, 11, 676.3733333333333
25, 1, 1, 0.000501
25, 2, 2, 0
25, 11, 11, 677.06
26, 1, 1, 0.000668
26, 2, 2, 0
26, 11, 11, 677.7466666666667
27, 1, 1, 0.000835
27, 2, 2, 0
27, 11, 11, 678.4333333333333
28, 1, 1, 0.001002
28, 2, 2, 0
28, 11, 11, 679.12
29, 1, 1, 0.000167
29, 2, 2, 0
29, 11, 11, 700.6866666666666
30, 1, 1, 0
30, 2, 2, 0
30, 11, 11, 700
31, 1, 1, 0.000334
31, 2, 2, 0
31, 11, 11, 701.3733333333333
32, 1, 1, 0.000501
32, 2, 2, 0
32, 11, 11, 702.06
33, 1, 1, 0.000668
33, 2, 2, 0
33, 11, 11, 702.7466666666667
34, 1, 1, 0.000835
34, 2, 2, 0
34, 11, 11, 703.4333333333333
35, 1, 1, 0.001002
35, 2, 2, 0
35, 11, 11, 704.12
36, 1, 1, 0.001
36, 2, 2, 0
36, 11, 11, 499.5879
37, 1, 1, 0.001
37, 2, 2, 0
37, 11, 11, 499.55935
38, 1, 1, 0.001
38, 2, 2, 0
38, 11, 11, 505.57135
39, 1, 1, 0.001
39, 2, 2, 0
39, 11, 11, 505.5999
40, 1, 1, 0.001
40, 2, 2, 0
40, 11, 11, 499.5308
41, 1, 1, 0.001
41, 2, 2, 0
41, 11, 11, 505.5428
42, 1, 1, 0.001
42, 2, 2, 0
42, 11, 11, 511.58335
43, 1, 1, 0.001
43, 2, 2, 0
43, 11, 11, 511.6119
44, 1, 1, 0.001
44, 2, 2, 0
44, 11, 11, 511.5548
45, 1, 1, 0.001
45, 2, 2, 0
45, 11, 11, 517.5953499999999
46, 1, 1, 0.001
46, 2, 2, 0
46, 11, 11, 517.6238999999999
47, 1, 1, 0.001
47, 2, 2, 0
47, 11, 11, 517.5668
48, 1, 1, 0.001
48, 2, 2, 0
48, 11, 11, 523.60735
49, 1, 1, 0.001
49, 2, 2, 0
49, 11, 11, 523.6359
50, 1, 1, 0.001
50, 2, 2, 0
50, 11, 11, 523.5788
51, 1, 1, 0.001
51, 2, 2, 0
51, 11, 11, 529.6193499999999
52, 1, 1, 0.001
52, 2, 2, 0
52, 11, 11, 529.6478999999999
53, 1, 1, 0.001
53, 2, 2, 0
53, 11, 11, 529.5908
54, 1, 1, 0.0000835
54, 2, 2, 0
55, 1, 1, 0.000167
55, 2, 2, 0
56, 1, 1, 0.0000835
56, 2, 2, 0
57, 1, 1, 0
57, 2, 2, 0
58, 1, 1, 0.0002505
58, 2, 2, 0
59, 1, 1, 0.000334
59, 2, 2, 0
60, 1, 1, 0.0002505
60, 2, 2, 0
61, 1, 1, 0.00041749999999999996
61, 2, 2, 0
62, 1, 1, 0.000501
62, 2, 2, 0
63, 1, 1, 0.00041749999999999996
63, 2, 2, 0
64, 1, 1, 0.0005845000000000001
64, 2, 2, 0
65, 1, 1, 0.000668
65, 2, 2, 0
66, 1, 1, 0.0005845000000000001
66, 2, 2, 0
67, 1, 1, 0.0007515
67, 2, 2, 0
68, 1, 1, 0.000835
68, 2, 2, 0
69, 1, 1, 0.0007515
69, 2, 2, 0
70, 1, 1, 0.0009185
70, 2, 2, 0
71, 1, 1, 0.001002
71, 2, 2, 0
72, 1, 1, 0.0009185
72, 2, 2, 0
73, 1, 1, 0.000167
73, 2, 2, 0
74, 1, 1, 0.0000835
74, 2, 2, 0
75, 1, 1, 0
75, 2, 2, 0
76, 1, 1, 0.000334
76, 2, 2, 0
77, 1, 1, 0.0002505
77, 2, 2, 0
78, 1, 1, 0.000501
78, 2, 2, 0
79, 1, 1, 0.00041749999999999996
79, 2, 2, 0
80, 1, 1, 0.000668
80, 2, 2, 0
81, 1, 1, 0.0005845000000000001
81, 2, 2, 0
82, 1, 1, 0.000835
82, 2, 2, 0
83, 1, 1, 0.0007515
83, 2, 2, 0
84, 1, 1, 0.001002
84, 2, 2, 0
85, 1, 1, 0.0009185
85, 2, 2, 0
86, 1, 1, 0.000167
86, 2, 2, 0
87, 1, 1, 0.0000835
87, 2, 2, 0
88, 1, 1, 0
88, 2, 2, 0
89, 1, 1, 0.000334
89, 2, 2, 0
90, 1, 1, 0.0002505
90, 2, 2, 0
91, 1, 1, 0.000501
91, 2, 2, 0
92, 1, 1, 0.00041749999999999996
92, 2, 2, 0
93, 1, 1, 0.000668
93, 2, 2, 0
94, 1, 1, 0.0005845000000000001
94, 2, 2, 0
95, 1, 1, 0.000835
95, 2, 2, 0
96, 1, 1, 0.0007515
96, 2, 2, 0
97, 1, 1, 0.001002
97, 2, 2, 0
98, 1, 1, 0.0009185
98, 2, 2, 0
99, 1, 1, 0.000167
99, 2, 2, 0
100, 1, 1, 0.0000835
100, 2, 2, 0
101, 1, 1, 0
101, 2, 2, 0
102, 1, 1, 0.000334
102, 2, 2, 0
103, 1, 1, 0.0002505
103, 2, 2, 0
104, 1, 1, 0.000501
104, 2, 2, 0
105, 1, 1, 0.00041749999999999996
105, 2, 2, 0
106, 1, 1, 0.000668
106, 2, 2, 0
107, 1, 1, 0.0005845000000000001
107, 2, 2, 0
108, 1, 1, 0.000835
108, 2, 2, 0
109, 1, 1, 0.0007515
109, 2, 2, 0
110, 1, 1, 0.001002
110, 2, 2, 0
111, 1, 1, 0.0009185
111, 2, 2, 0
112, 1, 1, 0.001
112, 2, 2, 0
113, 1, 1, 0.001
113, 2, 2, 0
114, 1, 1, 0.001
114, 2, 2, 0
115, 1, 1, 0.001
115, 2, 2, 0
116, 1, 1, 0.001
116, 2, 2, 0
117, 1, 1, 0.001
117, 2, 2, 0
118, 1, 1, 0.001
118, 2, 2, 0
119, 1, 1, 0.001
119, 2, 2, 0
120, 1, 1, 0.001
120, 2, 2, 0
121, 1, 1, 0.001
121, 2, 2, 0
122, 1, 1, 0.001
122, 2, 2, 0
123, 1, 1, 0.001
123, 2, 2, 0
124, 1, 1, 0.001
124, 2, 2, 0
125, 1, 1, 0.001
125, 2, 2, 0
126, 1, 1, 0.001
126, 2, 2, 0
127, 1, 1, 0.001
127, 2, 2, 0
128, 1, 1, 0.001
128, 2, 2, 0
129, 1, 1, 0.001
129, 2, 2, 0
130, 1, 1, 0.001
130, 2, 2, 0
131, 1, 1, 0.001
131, 2, 2, 0
132, 1, 1, 0.001
132, 2, 2, 0
133, 1, 1, 0.001
133, 2, 2, 0
134, 1, 1, 0.001
134, 2, 2, 0
135, 1, 1, 0.001
135, 2, 2, 0
136, 1, 1, 0.001
136, 2, 2, 0
137, 1, 1, 0.001
137, 2, 2, 0
138, 1, 1, 0.001
138, 2, 2, 0
*Output, field, frequency=1
*Node Output
NT, U, RF, RFL
*Element Output, directions=YES
S, EE, COORD, IVOL, HFL
*Contact Output
CSTRESS, CDISP, CFORCE, HFL
*Output, history, frequency=0
*End Step
*Step, name=SLIDE, nlgeom=YES, inc=10
*Coupled Temperature-Displacement, steady state
1, 1, 1, 1
*Controls, parameters=FIELD, field=DISPLACEMENT
1e-10, 1e-10, , , , 1e-10
*Boundary
1, 1, 1, 0
1, 2, 2, 0.00001
1, 11, 11, 600
2, 1, 1, 0.000167
2, 2, 2, 0.00001
2, 11, 11, 600.6866666666666
3, 1, 1, 0.000167
3, 2, 2, 0.00001
3, 11, 11, 625.6866666666666
4, 1, 1, 0
4, 2, 2, 0.00001
4, 11, 11, 625
5, 1, 1, 0.000334
5, 2, 2, 0.00001
5, 11, 11, 601.3733333333333
6, 1, 1, 0.000334
6, 2, 2, 0.00001
6, 11, 11, 626.3733333333333
7, 1, 1, 0.000501
7, 2, 2, 0.00001
7, 11, 11, 602.06
8, 1, 1, 0.000501
8, 2, 2, 0.00001
8, 11, 11, 627.06
9, 1, 1, 0.000668
9, 2, 2, 0.00001
9, 11, 11, 602.7466666666667
10, 1, 1, 0.000668
10, 2, 2, 0.00001
10, 11, 11, 627.7466666666667
11, 1, 1, 0.000835
11, 2, 2, 0.00001
11, 11, 11, 603.4333333333333
12, 1, 1, 0.000835
12, 2, 2, 0.00001
12, 11, 11, 628.4333333333333
13, 1, 1, 0.001002
13, 2, 2, 0.00001
13, 11, 11, 604.12
14, 1, 1, 0.001002
14, 2, 2, 0.00001
14, 11, 11, 629.12
15, 1, 1, 0.000167
15, 2, 2, 0.00001
15, 11, 11, 650.6866666666666
16, 1, 1, 0
16, 2, 2, 0.00001
16, 11, 11, 650
17, 1, 1, 0.000334
17, 2, 2, 0.00001
17, 11, 11, 651.3733333333333
18, 1, 1, 0.000501
18, 2, 2, 0.00001
18, 11, 11, 652.06
19, 1, 1, 0.000668
19, 2, 2, 0.00001
19, 11, 11, 652.7466666666667
20, 1, 1, 0.000835
20, 2, 2, 0.00001
20, 11, 11, 653.4333333333333
21, 1, 1, 0.001002
21, 2, 2, 0.00001
21, 11, 11, 654.12
22, 1, 1, 0.000167
22, 2, 2, 0.00001
22, 11, 11, 675.6866666666666
23, 1, 1, 0
23, 2, 2, 0.00001
23, 11, 11, 675
24, 1, 1, 0.000334
24, 2, 2, 0.00001
24, 11, 11, 676.3733333333333
25, 1, 1, 0.000501
25, 2, 2, 0.00001
25, 11, 11, 677.06
26, 1, 1, 0.000668
26, 2, 2, 0.00001
26, 11, 11, 677.7466666666667
27, 1, 1, 0.000835
27, 2, 2, 0.00001
27, 11, 11, 678.4333333333333
28, 1, 1, 0.001002
28, 2, 2, 0.00001
28, 11, 11, 679.12
29, 1, 1, 0.000167
29, 2, 2, 0.00001
29, 11, 11, 700.6866666666666
30, 1, 1, 0
30, 2, 2, 0.00001
30, 11, 11, 700
31, 1, 1, 0.000334
31, 2, 2, 0.00001
31, 11, 11, 701.3733333333333
32, 1, 1, 0.000501
32, 2, 2, 0.00001
32, 11, 11, 702.06
33, 1, 1, 0.000668
33, 2, 2, 0.00001
33, 11, 11, 702.7466666666667
34, 1, 1, 0.000835
34, 2, 2, 0.00001
34, 11, 11, 703.4333333333333
35, 1, 1, 0.001002
35, 2, 2, 0.00001
35, 11, 11, 704.12
36, 1, 1, 0.001
36, 2, 2, 0
36, 11, 11, 499.5879
37, 1, 1, 0.001
37, 2, 2, 0
37, 11, 11, 499.55935
38, 1, 1, 0.001
38, 2, 2, 0
38, 11, 11, 505.57135
39, 1, 1, 0.001
39, 2, 2, 0
39, 11, 11, 505.5999
40, 1, 1, 0.001
40, 2, 2, 0
40, 11, 11, 499.5308
41, 1, 1, 0.001
41, 2, 2, 0
41, 11, 11, 505.5428
42, 1, 1, 0.001
42, 2, 2, 0
42, 11, 11, 511.58335
43, 1, 1, 0.001
43, 2, 2, 0
43, 11, 11, 511.6119
44, 1, 1, 0.001
44, 2, 2, 0
44, 11, 11, 511.5548
45, 1, 1, 0.001
45, 2, 2, 0
45, 11, 11, 517.5953499999999
46, 1, 1, 0.001
46, 2, 2, 0
46, 11, 11, 517.6238999999999
47, 1, 1, 0.001
47, 2, 2, 0
47, 11, 11, 517.5668
48, 1, 1, 0.001
48, 2, 2, 0
48, 11, 11, 523.60735
49, 1, 1, 0.001
49, 2, 2, 0
49, 11, 11, 523.6359
50, 1, 1, 0.001
50, 2, 2, 0
50, 11, 11, 523.5788
51, 1, 1, 0.001
51, 2, 2, 0
51, 11, 11, 529.6193499999999
52, 1, 1, 0.001
52, 2, 2, 0
52, 11, 11, 529.6478999999999
53, 1, 1, 0.001
53, 2, 2, 0
53, 11, 11, 529.5908
54, 1, 1, 0.0000835
54, 2, 2, 0.00001
55, 1, 1, 0.000167
55, 2, 2, 0.00001
56, 1, 1, 0.0000835
56, 2, 2, 0.00001
57, 1, 1, 0
57, 2, 2, 0.00001
58, 1, 1, 0.0002505
58, 2, 2, 0.00001
59, 1, 1, 0.000334
59, 2, 2, 0.00001
60, 1, 1, 0.0002505
60, 2, 2, 0.00001
61, 1, 1, 0.00041749999999999996
61, 2, 2, 0.00001
62, 1, 1, 0.000501
62, 2, 2, 0.00001
63, 1, 1, 0.00041749999999999996
63, 2, 2, 0.00001
64, 1, 1, 0.0005845000000000001
64, 2, 2, 0.00001
65, 1, 1, 0.000668
65, 2, 2, 0.00001
66, 1, 1, 0.0005845000000000001
66, 2, 2, 0.00001
67, 1, 1, 0.0007515
67, 2, 2, 0.00001
68, 1, 1, 0.000835
68, 2, 2, 0.00001
69, 1, 1, 0.0007515
69, 2, 2, 0.00001
70, 1, 1, 0.0009185
70, 2, 2, 0.00001
71, 1, 1, 0.001002
71, 2, 2, 0.00001
72, 1, 1, 0.0009185
72, 2, 2, 0.00001
73, 1, 1, 0.000167
73, 2, 2, 0.00001
74, 1, 1, 0.0000835
74, 2, 2, 0.00001
75, 1, 1, 0
75, 2, 2, 0.00001
76, 1, 1, 0.000334
76, 2, 2, 0.00001
77, 1, 1, 0.0002505
77, 2, 2, 0.00001
78, 1, 1, 0.000501
78, 2, 2, 0.00001
79, 1, 1, 0.00041749999999999996
79, 2, 2, 0.00001
80, 1, 1, 0.000668
80, 2, 2, 0.00001
81, 1, 1, 0.0005845000000000001
81, 2, 2, 0.00001
82, 1, 1, 0.000835
82, 2, 2, 0.00001
83, 1, 1, 0.0007515
83, 2, 2, 0.00001
84, 1, 1, 0.001002
84, 2, 2, 0.00001
85, 1, 1, 0.0009185
85, 2, 2, 0.00001
86, 1, 1, 0.000167
86, 2, 2, 0.00001
87, 1, 1, 0.0000835
87, 2, 2, 0.00001
88, 1, 1, 0
88, 2, 2, 0.00001
89, 1, 1, 0.000334
89, 2, 2, 0.00001
90, 1, 1, 0.0002505
90, 2, 2, 0.00001
91, 1, 1, 0.000501
91, 2, 2, 0.00001
92, 1, 1, 0.00041749999999999996
92, 2, 2, 0.00001
93, 1, 1, 0.000668
93, 2, 2, 0.00001
94, 1, 1, 0.0005845000000000001
94, 2, 2, 0.00001
95, 1, 1, 0.000835
95, 2, 2, 0.00001
96, 1, 1, 0.0007515
96, 2, 2, 0.00001
97, 1, 1, 0.001002
97, 2, 2, 0.00001
98, 1, 1, 0.0009185
98, 2, 2, 0.00001
99, 1, 1, 0.000167
99, 2, 2, 0.00001
100, 1, 1, 0.0000835
100, 2, 2, 0.00001
101, 1, 1, 0
101, 2, 2, 0.00001
102, 1, 1, 0.000334
102, 2, 2, 0.00001
103, 1, 1, 0.0002505
103, 2, 2, 0.00001
104, 1, 1, 0.000501
104, 2, 2, 0.00001
105, 1, 1, 0.00041749999999999996
105, 2, 2, 0.00001
106, 1, 1, 0.000668
106, 2, 2, 0.00001
107, 1, 1, 0.0005845000000000001
107, 2, 2, 0.00001
108, 1, 1, 0.000835
108, 2, 2, 0.00001
109, 1, 1, 0.0007515
109, 2, 2, 0.00001
110, 1, 1, 0.001002
110, 2, 2, 0.00001
111, 1, 1, 0.0009185
111, 2, 2, 0.00001
112, 1, 1, 0.001
112, 2, 2, 0
113, 1, 1, 0.001
113, 2, 2, 0
114, 1, 1, 0.001
114, 2, 2, 0
115, 1, 1, 0.001
115, 2, 2, 0
116, 1, 1, 0.001
116, 2, 2, 0
117, 1, 1, 0.001
117, 2, 2, 0
118, 1, 1, 0.001
118, 2, 2, 0
119, 1, 1, 0.001
119, 2, 2, 0
120, 1, 1, 0.001
120, 2, 2, 0
121, 1, 1, 0.001
121, 2, 2, 0
122, 1, 1, 0.001
122, 2, 2, 0
123, 1, 1, 0.001
123, 2, 2, 0
124, 1, 1, 0.001
124, 2, 2, 0
125, 1, 1, 0.001
125, 2, 2, 0
126, 1, 1, 0.001
126, 2, 2, 0
127, 1, 1, 0.001
127, 2, 2, 0
128, 1, 1, 0.001
128, 2, 2, 0
129, 1, 1, 0.001
129, 2, 2, 0
130, 1, 1, 0.001
130, 2, 2, 0
131, 1, 1, 0.001
131, 2, 2, 0
132, 1, 1, 0.001
132, 2, 2, 0
133, 1, 1, 0.001
133, 2, 2, 0
134, 1, 1, 0.001
134, 2, 2, 0
135, 1, 1, 0.001
135, 2, 2, 0
136, 1, 1, 0.001
136, 2, 2, 0
137, 1, 1, 0.001
137, 2, 2, 0
138, 1, 1, 0.001
138, 2, 2, 0
*Output, field, frequency=1
*Node Output
NT, U, RF, RFL
*Element Output, directions=YES
S, EE, COORD, IVOL, HFL
*Contact Output
CSTRESS, CDISP, CFORCE, HFL
*Output, history, frequency=0
*End Step
*Step, name=CURVE, nlgeom=YES, inc=10
*Coupled Temperature-Displacement, steady state
1, 1, 1, 1
*Controls, parameters=FIELD, field=DISPLACEMENT
1e-10, 1e-10, , , , 1e-10
*Boundary
1, 1, 1, 0
2, 1, 1, 0.000167
3, 1, 1, 0.000195125
4, 1, 1, 0.000028125000000000003
5, 1, 1, 0.000334
6, 1, 1, 0.000362125
7, 1, 1, 0.000501
8, 1, 1, 0.000529125
9, 1, 1, 0.000668
10, 1, 1, 0.0006961249999999999
11, 1, 1, 0.000835
12, 1, 1, 0.000863125
13, 1, 1, 0.001002
14, 1, 1, 0.0010301250000000002
15, 1, 1, 0.0002295
16, 1, 1, 0.0000625
17, 1, 1, 0.0003965
18, 1, 1, 0.0005635000000000001
19, 1, 1, 0.0007305
20, 1, 1, 0.0008975000000000001
21, 1, 1, 0.0010645
22, 1, 1, 0.00027012499999999997
23, 1, 1, 0.000103125
24, 1, 1, 0.00043712499999999996
25, 1, 1, 0.0006041250000000001
26, 1, 1, 0.000771125
27, 1, 1, 0.000938125
28, 1, 1, 0.001105125
29, 1, 1, 0.000317
30, 1, 1, 0.00015000000000000001
31, 1, 1, 0.000484
32, 1, 1, 0.0006510000000000001
33, 1, 1, 0.000818
34, 1, 1, 0.000985
35, 1, 1, 0.001152
36, 1, 1, 0.001
37, 1, 1, 0.001
38, 1, 1, 0.001022048008
39, 1, 1, 0.001022048008
40, 1, 1, 0.001
41, 1, 1, 0.001022048008
42, 1, 1, 0.001048112032
43, 1, 1, 0.001048112032
44, 1, 1, 0.001048112032
45, 1, 1, 0.001078192072
46, 1, 1, 0.001078192072
47, 1, 1, 0.001078192072
48, 1, 1, 0.0011122881279999998
49, 1, 1, 0.0011122881279999998
50, 1, 1, 0.0011122881279999998
51, 1, 1, 0.0011504002
52, 1, 1, 0.0011504002
53, 1, 1, 0.0011504002
54, 1, 1, 0.0000835
55, 1, 1, 0.00018028125
56, 1, 1, 0.00011162499999999999
57, 1, 1, 0.000013281250000000001
58, 1, 1, 0.0002505
59, 1, 1, 0.00034728125
60, 1, 1, 0.000278625
61, 1, 1, 0.00041749999999999996
62, 1, 1, 0.0005142812500000001
63, 1, 1, 0.00044562499999999995
64, 1, 1, 0.0005845000000000001
65, 1, 1, 0.00068128125
66, 1, 1, 0.000612625
67, 1, 1, 0.0007515
68, 1, 1, 0.0008482812500000001
69, 1, 1, 0.0007796249999999999
70, 1, 1, 0.0009185
71, 1, 1, 0.00101528125
72, 1, 1, 0.000946625
73, 1, 1, 0.00021153125
74, 1, 1, 0.000146
75, 1, 1, 0.000044531249999999995
76, 1, 1, 0.00037853124999999996
77, 1, 1, 0.000313
78, 1, 1, 0.00054553125
79, 1, 1, 0.00047999999999999996
80, 1, 1, 0.00071253125
81, 1, 1, 0.0006470000000000001
82, 1, 1, 0.00087953125
83, 1, 1, 0.000814
84, 1, 1, 0.0010465312500000002
85, 1, 1, 0.000981
86, 1, 1, 0.00024903125
87, 1, 1, 0.000186625
88, 1, 1, 0.00008203125
89, 1, 1, 0.00041603125
90, 1, 1, 0.000353625
91, 1, 1, 0.00058303125
92, 1, 1, 0.000520625
93, 1, 1, 0.00075003125
94, 1, 1, 0.0006876250000000001
95, 1, 1, 0.0009170312500000001
96, 1, 1, 0.000854625
97, 1, 1, 0.0010840312500000001
98, 1, 1, 0.001021625
99, 1, 1, 0.00029278125
100, 1, 1, 0.0002335
101, 1, 1, 0.00012578125000000002
102, 1, 1, 0.00045978125
103, 1, 1, 0.00040050000000000003
104, 1, 1, 0.0006267812500000001
105, 1, 1, 0.0005675
106, 1, 1, 0.00079378125
107, 1, 1, 0.0007345000000000001
108, 1, 1, 0.00096078125
109, 1, 1, 0.0009015000000000001
110, 1, 1, 0.00112778125
111, 1, 1, 0.0010685
112, 1, 1, 0.001
113, 1, 1, 0.001010522002
114, 1, 1, 0.001022048008
115, 1, 1, 0.001010522002
116, 1, 1, 0.001
117, 1, 1, 0.001010522002
118, 1, 1, 0.001022048008
119, 1, 1, 0.001034578018
120, 1, 1, 0.001048112032
121, 1, 1, 0.001034578018
122, 1, 1, 0.001034578018
123, 1, 1, 0.001048112032
124, 1, 1, 0.00106265005
125, 1, 1, 0.001078192072
126, 1, 1, 0.00106265005
127, 1, 1, 0.00106265005
128, 1, 1, 0.001078192072
129, 1, 1, 0.001094738098
130, 1, 1, 0.0011122881279999998
131, 1, 1, 0.001094738098
132, 1, 1, 0.001094738098
133, 1, 1, 0.0011122881279999998
134, 1, 1, 0.001130842162
135, 1, 1, 0.0011504002
136, 1, 1, 0.001130842162
137, 1, 1, 0.001130842162
138, 1, 1, 0.0011504002
*Output, field, frequency=1
*Node Output
NT, U, RF, RFL
*Element Output, directions=YES
S, EE, COORD, IVOL, HFL
*Contact Output
CSTRESS, CDISP, CFORCE, HFL
*Output, history, frequency=0
*End Step
*Step, name=ENDPOINT, nlgeom=YES, inc=10
*Coupled Temperature-Displacement, steady state
1, 1, 1, 1
*Controls, parameters=FIELD, field=DISPLACEMENT
1e-10, 1e-10, , , , 1e-10
*Boundary
1, 2, 2, -1e-5
2, 2, 2, -1e-5
3, 2, 2, -1e-5
4, 2, 2, -1e-5
5, 2, 2, -1e-5
6, 2, 2, -1e-5
7, 2, 2, -1e-5
8, 2, 2, -1e-5
9, 2, 2, -1e-5
10, 2, 2, -1e-5
11, 2, 2, -1e-5
12, 2, 2, -1e-5
13, 2, 2, -1e-5
14, 2, 2, -1e-5
15, 2, 2, -1e-5
16, 2, 2, -1e-5
17, 2, 2, -1e-5
18, 2, 2, -1e-5
19, 2, 2, -1e-5
20, 2, 2, -1e-5
21, 2, 2, -1e-5
22, 2, 2, -1e-5
23, 2, 2, -1e-5
24, 2, 2, -1e-5
25, 2, 2, -1e-5
26, 2, 2, -1e-5
27, 2, 2, -1e-5
28, 2, 2, -1e-5
29, 2, 2, -1e-5
30, 2, 2, -1e-5
31, 2, 2, -1e-5
32, 2, 2, -1e-5
33, 2, 2, -1e-5
34, 2, 2, -1e-5
35, 2, 2, -1e-5
54, 2, 2, -1e-5
55, 2, 2, -1e-5
56, 2, 2, -1e-5
57, 2, 2, -1e-5
58, 2, 2, -1e-5
59, 2, 2, -1e-5
60, 2, 2, -1e-5
61, 2, 2, -1e-5
62, 2, 2, -1e-5
63, 2, 2, -1e-5
64, 2, 2, -1e-5
65, 2, 2, -1e-5
66, 2, 2, -1e-5
67, 2, 2, -1e-5
68, 2, 2, -1e-5
69, 2, 2, -1e-5
70, 2, 2, -1e-5
71, 2, 2, -1e-5
72, 2, 2, -1e-5
73, 2, 2, -1e-5
74, 2, 2, -1e-5
75, 2, 2, -1e-5
76, 2, 2, -1e-5
77, 2, 2, -1e-5
78, 2, 2, -1e-5
79, 2, 2, -1e-5
80, 2, 2, -1e-5
81, 2, 2, -1e-5
82, 2, 2, -1e-5
83, 2, 2, -1e-5
84, 2, 2, -1e-5
85, 2, 2, -1e-5
86, 2, 2, -1e-5
87, 2, 2, -1e-5
88, 2, 2, -1e-5
89, 2, 2, -1e-5
90, 2, 2, -1e-5
91, 2, 2, -1e-5
92, 2, 2, -1e-5
93, 2, 2, -1e-5
94, 2, 2, -1e-5
95, 2, 2, -1e-5
96, 2, 2, -1e-5
97, 2, 2, -1e-5
98, 2, 2, -1e-5
99, 2, 2, -1e-5
100, 2, 2, -1e-5
101, 2, 2, -1e-5
102, 2, 2, -1e-5
103, 2, 2, -1e-5
104, 2, 2, -1e-5
105, 2, 2, -1e-5
106, 2, 2, -1e-5
107, 2, 2, -1e-5
108, 2, 2, -1e-5
109, 2, 2, -1e-5
110, 2, 2, -1e-5
111, 2, 2, -1e-5
*Output, field, frequency=1
*Node Output
NT, U, RF, RFL
*Element Output, directions=YES
S, EE, COORD, IVOL, HFL
*Contact Output
CSTRESS, CDISP, CFORCE, HFL
*Output, history, frequency=0
*End Step
