*Heading
** Native node-to-surface (NTS) heat transfer, area, projection and friction identification.
*Preprint, echo=NO, model=NO, history=NO, contact=NO
*Include, input=b13_small_cax4rt_mesh.inc
*Material, name=SOLID
*Elastic
1e6, 0.3
*Conductivity
1e-12
*Density
1
*Specific Heat
1
*Solid Section, elset=FUEL, material=SOLID
,
*Solid Section, elset=CLAD, material=SOLID
,
*Initial Conditions, type=TEMPERATURE
ALL, 600
*Surface Interaction, name=INTERFACE
*Surface Behavior, pressure-overclosure=LINEAR
1e12
*Friction
0.2
*Gap Heat Generation
0
*Gap Conductance
1000, 0
1000, 1
*Contact Pair, interaction=INTERFACE, type=NODE TO SURFACE, adjust=0
S_FUEL_RIGHT, S_CLAD_LEFT
*Step, name=CLOSE, nlgeom=YES, inc=10
*Coupled Temperature-Displacement, steady state
1, 1, 1, 1
*Controls, parameters=FIELD, field=DISPLACEMENT
1e-10, 1e-10, , , , 1e-10
*Boundary
1, 1, 1, 0
1, 2, 2, 0
1, 11, 11, 600
2, 1, 1, 0.000167
2, 2, 2, 0
2, 11, 11, 600.6866666666666
3, 1, 1, 0.000167
3, 2, 2, 0
3, 11, 11, 625.6866666666666
4, 1, 1, 0
4, 2, 2, 0
4, 11, 11, 625
5, 1, 1, 0.000334
5, 2, 2, 0
5, 11, 11, 601.3733333333333
6, 1, 1, 0.000334
6, 2, 2, 0
6, 11, 11, 626.3733333333333
7, 1, 1, 0.000501
7, 2, 2, 0
7, 11, 11, 602.06
8, 1, 1, 0.000501
8, 2, 2, 0
8, 11, 11, 627.06
9, 1, 1, 0.000668
9, 2, 2, 0
9, 11, 11, 602.7466666666667
10, 1, 1, 0.000668
10, 2, 2, 0
10, 11, 11, 627.7466666666667
11, 1, 1, 0.000835
11, 2, 2, 0
11, 11, 11, 603.4333333333333
12, 1, 1, 0.000835
12, 2, 2, 0
12, 11, 11, 628.4333333333333
13, 1, 1, 0.001002
13, 2, 2, 0
13, 11, 11, 604.12
14, 1, 1, 0.001002
14, 2, 2, 0
14, 11, 11, 629.12
15, 1, 1, 0.000167
15, 2, 2, 0
15, 11, 11, 650.6866666666666
16, 1, 1, 0
16, 2, 2, 0
16, 11, 11, 650
17, 1, 1, 0.000334
17, 2, 2, 0
17, 11, 11, 651.3733333333333
18, 1, 1, 0.000501
18, 2, 2, 0
18, 11, 11, 652.06
19, 1, 1, 0.000668
19, 2, 2, 0
19, 11, 11, 652.7466666666667
20, 1, 1, 0.000835
20, 2, 2, 0
20, 11, 11, 653.4333333333333
21, 1, 1, 0.001002
21, 2, 2, 0
21, 11, 11, 654.12
22, 1, 1, 0.000167
22, 2, 2, 0
22, 11, 11, 675.6866666666666
23, 1, 1, 0
23, 2, 2, 0
23, 11, 11, 675
24, 1, 1, 0.000334
24, 2, 2, 0
24, 11, 11, 676.3733333333333
25, 1, 1, 0.000501
25, 2, 2, 0
25, 11, 11, 677.06
26, 1, 1, 0.000668
26, 2, 2, 0
26, 11, 11, 677.7466666666667
27, 1, 1, 0.000835
27, 2, 2, 0
27, 11, 11, 678.4333333333333
28, 1, 1, 0.001002
28, 2, 2, 0
28, 11, 11, 679.12
29, 1, 1, 0.000167
29, 2, 2, 0
29, 11, 11, 700.6866666666666
30, 1, 1, 0
30, 2, 2, 0
30, 11, 11, 700
31, 1, 1, 0.000334
31, 2, 2, 0
31, 11, 11, 701.3733333333333
32, 1, 1, 0.000501
32, 2, 2, 0
32, 11, 11, 702.06
33, 1, 1, 0.000668
33, 2, 2, 0
33, 11, 11, 702.7466666666667
34, 1, 1, 0.000835
34, 2, 2, 0
34, 11, 11, 703.4333333333333
35, 1, 1, 0.001002
35, 2, 2, 0
35, 11, 11, 704.12
36, 1, 1, 0.001
36, 2, 2, 0
36, 11, 11, 499.5879
37, 1, 1, 0.001
37, 2, 2, 0
37, 11, 11, 499.55935
38, 1, 1, 0.001
38, 2, 2, 0
38, 11, 11, 505.57135
39, 1, 1, 0.001
39, 2, 2, 0
39, 11, 11, 505.5999
40, 1, 1, 0.001
40, 2, 2, 0
40, 11, 11, 499.5308
41, 1, 1, 0.001
41, 2, 2, 0
41, 11, 11, 505.5428
42, 1, 1, 0.001
42, 2, 2, 0
42, 11, 11, 511.58335
43, 1, 1, 0.001
43, 2, 2, 0
43, 11, 11, 511.6119
44, 1, 1, 0.001
44, 2, 2, 0
44, 11, 11, 511.5548
45, 1, 1, 0.001
45, 2, 2, 0
45, 11, 11, 517.5953499999999
46, 1, 1, 0.001
46, 2, 2, 0
46, 11, 11, 517.6238999999999
47, 1, 1, 0.001
47, 2, 2, 0
47, 11, 11, 517.5668
48, 1, 1, 0.001
48, 2, 2, 0
48, 11, 11, 523.60735
49, 1, 1, 0.001
49, 2, 2, 0
49, 11, 11, 523.6359
50, 1, 1, 0.001
50, 2, 2, 0
50, 11, 11, 523.5788
51, 1, 1, 0.001
51, 2, 2, 0
51, 11, 11, 529.6193499999999
52, 1, 1, 0.001
52, 2, 2, 0
52, 11, 11, 529.6478999999999
53, 1, 1, 0.001
53, 2, 2, 0
53, 11, 11, 529.5908
*Output, field, frequency=1
*Node Output
NT, U, RF, RFL
*Element Output, directions=YES
S, EE, COORD, IVOL, HFL
*Contact Output
CSTRESS, CDISP, CFORCE, HFL
*Output, history, frequency=0
*End Step
*Step, name=SLIDE, nlgeom=YES, inc=10
*Coupled Temperature-Displacement, steady state
1, 1, 1, 1
*Controls, parameters=FIELD, field=DISPLACEMENT
1e-10, 1e-10, , , , 1e-10
*Boundary
1, 1, 1, 0
1, 2, 2, 0.00001
1, 11, 11, 600
2, 1, 1, 0.000167
2, 2, 2, 0.00001
2, 11, 11, 600.6866666666666
3, 1, 1, 0.000167
3, 2, 2, 0.00001
3, 11, 11, 625.6866666666666
4, 1, 1, 0
4, 2, 2, 0.00001
4, 11, 11, 625
5, 1, 1, 0.000334
5, 2, 2, 0.00001
5, 11, 11, 601.3733333333333
6, 1, 1, 0.000334
6, 2, 2, 0.00001
6, 11, 11, 626.3733333333333
7, 1, 1, 0.000501
7, 2, 2, 0.00001
7, 11, 11, 602.06
8, 1, 1, 0.000501
8, 2, 2, 0.00001
8, 11, 11, 627.06
9, 1, 1, 0.000668
9, 2, 2, 0.00001
9, 11, 11, 602.7466666666667
10, 1, 1, 0.000668
10, 2, 2, 0.00001
10, 11, 11, 627.7466666666667
11, 1, 1, 0.000835
11, 2, 2, 0.00001
11, 11, 11, 603.4333333333333
12, 1, 1, 0.000835
12, 2, 2, 0.00001
12, 11, 11, 628.4333333333333
13, 1, 1, 0.001002
13, 2, 2, 0.00001
13, 11, 11, 604.12
14, 1, 1, 0.001002
14, 2, 2, 0.00001
14, 11, 11, 629.12
15, 1, 1, 0.000167
15, 2, 2, 0.00001
15, 11, 11, 650.6866666666666
16, 1, 1, 0
16, 2, 2, 0.00001
16, 11, 11, 650
17, 1, 1, 0.000334
17, 2, 2, 0.00001
17, 11, 11, 651.3733333333333
18, 1, 1, 0.000501
18, 2, 2, 0.00001
18, 11, 11, 652.06
19, 1, 1, 0.000668
19, 2, 2, 0.00001
19, 11, 11, 652.7466666666667
20, 1, 1, 0.000835
20, 2, 2, 0.00001
20, 11, 11, 653.4333333333333
21, 1, 1, 0.001002
21, 2, 2, 0.00001
21, 11, 11, 654.12
22, 1, 1, 0.000167
22, 2, 2, 0.00001
22, 11, 11, 675.6866666666666
23, 1, 1, 0
23, 2, 2, 0.00001
23, 11, 11, 675
24, 1, 1, 0.000334
24, 2, 2, 0.00001
24, 11, 11, 676.3733333333333
25, 1, 1, 0.000501
25, 2, 2, 0.00001
25, 11, 11, 677.06
26, 1, 1, 0.000668
26, 2, 2, 0.00001
26, 11, 11, 677.7466666666667
27, 1, 1, 0.000835
27, 2, 2, 0.00001
27, 11, 11, 678.4333333333333
28, 1, 1, 0.001002
28, 2, 2, 0.00001
28, 11, 11, 679.12
29, 1, 1, 0.000167
29, 2, 2, 0.00001
29, 11, 11, 700.6866666666666
30, 1, 1, 0
30, 2, 2, 0.00001
30, 11, 11, 700
31, 1, 1, 0.000334
31, 2, 2, 0.00001
31, 11, 11, 701.3733333333333
32, 1, 1, 0.000501
32, 2, 2, 0.00001
32, 11, 11, 702.06
33, 1, 1, 0.000668
33, 2, 2, 0.00001
33, 11, 11, 702.7466666666667
34, 1, 1, 0.000835
34, 2, 2, 0.00001
34, 11, 11, 703.4333333333333
35, 1, 1, 0.001002
35, 2, 2, 0.00001
35, 11, 11, 704.12
36, 1, 1, 0.001
36, 2, 2, 0
36, 11, 11, 499.5879
37, 1, 1, 0.001
37, 2, 2, 0
37, 11, 11, 499.55935
38, 1, 1, 0.001
38, 2, 2, 0
38, 11, 11, 505.57135
39, 1, 1, 0.001
39, 2, 2, 0
39, 11, 11, 505.5999
40, 1, 1, 0.001
40, 2, 2, 0
40, 11, 11, 499.5308
41, 1, 1, 0.001
41, 2, 2, 0
41, 11, 11, 505.5428
42, 1, 1, 0.001
42, 2, 2, 0
42, 11, 11, 511.58335
43, 1, 1, 0.001
43, 2, 2, 0
43, 11, 11, 511.6119
44, 1, 1, 0.001
44, 2, 2, 0
44, 11, 11, 511.5548
45, 1, 1, 0.001
45, 2, 2, 0
45, 11, 11, 517.5953499999999
46, 1, 1, 0.001
46, 2, 2, 0
46, 11, 11, 517.6238999999999
47, 1, 1, 0.001
47, 2, 2, 0
47, 11, 11, 517.5668
48, 1, 1, 0.001
48, 2, 2, 0
48, 11, 11, 523.60735
49, 1, 1, 0.001
49, 2, 2, 0
49, 11, 11, 523.6359
50, 1, 1, 0.001
50, 2, 2, 0
50, 11, 11, 523.5788
51, 1, 1, 0.001
51, 2, 2, 0
51, 11, 11, 529.6193499999999
52, 1, 1, 0.001
52, 2, 2, 0
52, 11, 11, 529.6478999999999
53, 1, 1, 0.001
53, 2, 2, 0
53, 11, 11, 529.5908
*Output, field, frequency=1
*Node Output
NT, U, RF, RFL
*Element Output, directions=YES
S, EE, COORD, IVOL, HFL
*Contact Output
CSTRESS, CDISP, CFORCE, HFL
*Output, history, frequency=0
*End Step
*Step, name=CURVE, nlgeom=YES, inc=10
*Coupled Temperature-Displacement, steady state
1, 1, 1, 1
*Controls, parameters=FIELD, field=DISPLACEMENT
1e-10, 1e-10, , , , 1e-10
*Boundary
1, 1, 1, 0
2, 1, 1, 0.000167
3, 1, 1, 0.000195125
4, 1, 1, 0.000028125000000000003
5, 1, 1, 0.000334
6, 1, 1, 0.000362125
7, 1, 1, 0.000501
8, 1, 1, 0.000529125
9, 1, 1, 0.000668
10, 1, 1, 0.0006961249999999999
11, 1, 1, 0.000835
12, 1, 1, 0.000863125
13, 1, 1, 0.001002
14, 1, 1, 0.0010301250000000002
15, 1, 1, 0.0002295
16, 1, 1, 0.0000625
17, 1, 1, 0.0003965
18, 1, 1, 0.0005635000000000001
19, 1, 1, 0.0007305
20, 1, 1, 0.0008975000000000001
21, 1, 1, 0.0010645
22, 1, 1, 0.00027012499999999997
23, 1, 1, 0.000103125
24, 1, 1, 0.00043712499999999996
25, 1, 1, 0.0006041250000000001
26, 1, 1, 0.000771125
27, 1, 1, 0.000938125
28, 1, 1, 0.001105125
29, 1, 1, 0.000317
30, 1, 1, 0.00015000000000000001
31, 1, 1, 0.000484
32, 1, 1, 0.0006510000000000001
33, 1, 1, 0.000818
34, 1, 1, 0.000985
35, 1, 1, 0.001152
36, 1, 1, 0.001
37, 1, 1, 0.001
38, 1, 1, 0.001022048008
39, 1, 1, 0.001022048008
40, 1, 1, 0.001
41, 1, 1, 0.001022048008
42, 1, 1, 0.001048112032
43, 1, 1, 0.001048112032
44, 1, 1, 0.001048112032
45, 1, 1, 0.001078192072
46, 1, 1, 0.001078192072
47, 1, 1, 0.001078192072
48, 1, 1, 0.0011122881279999998
49, 1, 1, 0.0011122881279999998
50, 1, 1, 0.0011122881279999998
51, 1, 1, 0.0011504002
52, 1, 1, 0.0011504002
53, 1, 1, 0.0011504002
*Output, field, frequency=1
*Node Output
NT, U, RF, RFL
*Element Output, directions=YES
S, EE, COORD, IVOL, HFL
*Contact Output
CSTRESS, CDISP, CFORCE, HFL
*Output, history, frequency=0
*End Step
*Step, name=ENDPOINT, nlgeom=YES, inc=10
*Coupled Temperature-Displacement, steady state
1, 1, 1, 1
*Controls, parameters=FIELD, field=DISPLACEMENT
1e-10, 1e-10, , , , 1e-10
*Boundary
1, 2, 2, -1e-5
2, 2, 2, -1e-5
3, 2, 2, -1e-5
4, 2, 2, -1e-5
5, 2, 2, -1e-5
6, 2, 2, -1e-5
7, 2, 2, -1e-5
8, 2, 2, -1e-5
9, 2, 2, -1e-5
10, 2, 2, -1e-5
11, 2, 2, -1e-5
12, 2, 2, -1e-5
13, 2, 2, -1e-5
14, 2, 2, -1e-5
15, 2, 2, -1e-5
16, 2, 2, -1e-5
17, 2, 2, -1e-5
18, 2, 2, -1e-5
19, 2, 2, -1e-5
20, 2, 2, -1e-5
21, 2, 2, -1e-5
22, 2, 2, -1e-5
23, 2, 2, -1e-5
24, 2, 2, -1e-5
25, 2, 2, -1e-5
26, 2, 2, -1e-5
27, 2, 2, -1e-5
28, 2, 2, -1e-5
29, 2, 2, -1e-5
30, 2, 2, -1e-5
31, 2, 2, -1e-5
32, 2, 2, -1e-5
33, 2, 2, -1e-5
34, 2, 2, -1e-5
35, 2, 2, -1e-5
*Output, field, frequency=1
*Node Output
NT, U, RF, RFL
*Element Output, directions=YES
S, EE, COORD, IVOL, HFL
*Contact Output
CSTRESS, CDISP, CFORCE, HFL
*Output, history, frequency=0
*End Step
