*Heading
** B3.8 Abaqus/Standard C3D8 small-sliding surface-to-surface operator identification.
** SI units: metre, newton, pascal.
*Preprint, echo=NO, model=NO, history=NO, contact=YES
*Node
1, 0., 0., 0.
2, 1., 0., 0.
3, 1., 1., 0.
4, 0., 1., 0.
5, 0., 0., 1.
6, 1., 0., 1.
7, 1., 1., 1.
8, 0., 1., 1.
9, 1., 0., 0.
10, 2., 0., 0.
11, 2., 1., 0.
12, 1., 1., 0.
13, 1., 0., 1.
14, 2., 0., 1.
15, 2., 1., 1.
16, 1., 1., 1.
*Element, type=C3D8, elset=PRIMARY
1, 1, 2, 3, 4, 5, 6, 7, 8
*Element, type=C3D8, elset=SECONDARY
2, 9, 10, 11, 12, 13, 14, 15, 16
*Nset, nset=PRIMARY_ALL, generate
1, 8, 1
*Nset, nset=SECONDARY_ALL, generate
9, 16, 1
*Nset, nset=S1
9
*Nset, nset=S2
12
*Nset, nset=S3
16
*Nset, nset=S4
13
*Surface, type=ELEMENT, name=PRIMARY_CONTACT
PRIMARY, S4
*Surface, type=ELEMENT, name=SECONDARY_CONTACT
SECONDARY, S6
*Material, name=ELASTIC
*Elastic
1.e9, 0.
*Solid Section, elset=PRIMARY, material=ELASTIC
,
*Solid Section, elset=SECONDARY, material=ELASTIC
,
*Surface Interaction, name=LINEAR_PENALTY
*Surface Behavior, penalty=LINEAR
1.e8,
*Contact Pair, interaction=LINEAR_PENALTY, type=SURFACE TO SURFACE, small sliding, adjust=0.
SECONDARY_CONTACT, PRIMARY_CONTACT
*Step, name=BASE, nlgeom=NO, inc=40
*Static
0.1, 1., 1.e-8, 0.1
*Boundary
PRIMARY_ALL, 1, 3, 0.
SECONDARY_ALL, 2, 3, 0.
S1, 1, 1, -1.e-4
S2, 1, 1, -1.e-4
S3, 1, 1, -1.e-4
S4, 1, 1, -1.e-4
*Output, field, frequency=1
*Node Output
COORD, RF, U
*Contact Output
CSTRESS, CDISP, CFORCE
*Output, history, frequency=1
*Contact Output
CFN, CMN, CAREA, XN
*End Step
*Step, name=S1_PLUS, nlgeom=NO, inc=40
*Static
0.1, 1., 1.e-8, 0.1
*Boundary, op=MOD
S1, 1, 1, -1.01e-4
*End Step
*Step, name=S1_MINUS, nlgeom=NO, inc=40
*Static
0.1, 1., 1.e-8, 0.1
*Boundary, op=MOD
S1, 1, 1, -9.9e-5
*End Step
*Step, name=S2_PLUS, nlgeom=NO, inc=40
*Static
0.1, 1., 1.e-8, 0.1
*Boundary, op=MOD
S1, 1, 1, -1.e-4
S2, 1, 1, -1.01e-4
*End Step
*Step, name=S2_MINUS, nlgeom=NO, inc=40
*Static
0.1, 1., 1.e-8, 0.1
*Boundary, op=MOD
S2, 1, 1, -9.9e-5
*End Step
*Step, name=S3_PLUS, nlgeom=NO, inc=40
*Static
0.1, 1., 1.e-8, 0.1
*Boundary, op=MOD
S2, 1, 1, -1.e-4
S3, 1, 1, -1.01e-4
*End Step
*Step, name=S3_MINUS, nlgeom=NO, inc=40
*Static
0.1, 1., 1.e-8, 0.1
*Boundary, op=MOD
S3, 1, 1, -9.9e-5
*End Step
*Step, name=S4_PLUS, nlgeom=NO, inc=40
*Static
0.1, 1., 1.e-8, 0.1
*Boundary, op=MOD
S3, 1, 1, -1.e-4
S4, 1, 1, -1.01e-4
*End Step
*Step, name=S4_MINUS, nlgeom=NO, inc=40
*Static
0.1, 1., 1.e-8, 0.1
*Boundary, op=MOD
S4, 1, 1, -9.9e-5
*End Step
