*Heading
** B3.9: matching C3D8 small-sliding surface-to-surface contact.
*Preprint, echo=NO, model=NO, history=NO, contact=YES
*Node
1, 0, 0, 0
2, 1, 0, 0
3, 1, 1, 0
4, 0, 1, 0
5, 0, 0, 1
6, 1, 0, 1
7, 1, 1, 1
8, 0, 1, 1
9, 1, 0, 0
10, 2, 0, 0
11, 2, 1, 0
12, 1, 1, 0
13, 1, 0, 1
14, 2, 0, 1
15, 2, 1, 1
16, 1, 1, 1
*Element, type=C3D8, elset=PRIMARY
1, 1, 2, 3, 4, 5, 6, 7, 8
*Element, type=C3D8, elset=SECONDARY
2, 9, 10, 11, 12, 13, 14, 15, 16
*Nset, nset=PRIMARY_OUTER
1, 4, 5, 8
*Nset, nset=SECONDARY_OUTER
10, 11, 14, 15
*Nset, nset=SECONDARY_CONTACT_NODES
9, 12, 13, 16
*Surface, type=ELEMENT, name=PRIMARY_CONTACT
PRIMARY, S4
*Surface, type=ELEMENT, name=SECONDARY_CONTACT
SECONDARY, S6
*Material, name=PRIMARY_MATERIAL
*Elastic
1000000000, 0.0
*Material, name=SECONDARY_MATERIAL
*Elastic
1000000000, 0.0
*Solid Section, elset=PRIMARY, material=PRIMARY_MATERIAL
,
*Solid Section, elset=SECONDARY, material=SECONDARY_MATERIAL
,
*Surface Interaction, name=PENALTY_CONTACT
*Surface Behavior, penalty=LINEAR
100000000000,
*Contact Pair, interaction=PENALTY_CONTACT, type=SURFACE TO SURFACE, small sliding, adjust=0.
SECONDARY_CONTACT, PRIMARY_CONTACT
*Step, name=LOAD, nlgeom=NO, inc=100
*Static
0.1, 1., 1.e-8, 0.1
*Boundary
PRIMARY_OUTER, 1, 3, 0.
SECONDARY_OUTER, 1, 1, -1e-05
SECONDARY_OUTER, 2, 2, -0
SECONDARY_OUTER, 3, 3, 0.
*Output, field, frequency=1
*Node Output
COORD, RF, U
*Contact Output
CSTRESS, CDISP, CFORCE
*End Step
