*Heading
** B5.14 Abaqus/Standard finite-strain elastic C3D8T kinematics probe.
*Preprint, echo=NO, model=NO, history=NO, contact=NO
*Node
1, 0.0000000000000000e+00, 0.0000000000000000e+00, 0.0000000000000000e+00
2, 1.0000000000000000e+00, 0.0000000000000000e+00, 0.0000000000000000e+00
3, 1.0000000000000000e+00, 1.0000000000000000e+00, 0.0000000000000000e+00
4, 0.0000000000000000e+00, 1.0000000000000000e+00, 0.0000000000000000e+00
5, 0.0000000000000000e+00, 0.0000000000000000e+00, 1.0000000000000000e+00
6, 1.0000000000000000e+00, 0.0000000000000000e+00, 1.0000000000000000e+00
7, 1.0000000000000000e+00, 1.0000000000000000e+00, 1.0000000000000000e+00
8, 0.0000000000000000e+00, 1.0000000000000000e+00, 1.0000000000000000e+00
*Element, type=C3D8T, elset=VOLUME
1, 1, 2, 3, 4, 5, 6, 7, 8
*Nset, nset=ALL_NODES, generate
1, 8, 1
*Nset, nset=N1
1
*Nset, nset=N2
2
*Nset, nset=N3
3
*Nset, nset=N4
4
*Nset, nset=N5
5
*Nset, nset=N6
6
*Nset, nset=N7
7
*Nset, nset=N8
8
*Material, name=FINITE_ELASTIC
*Elastic
2.0000000000000000e11, 3.0000000000000000e-1
*Conductivity
1.0
*Density
1.0
*Specific Heat
1.0
*Solid Section, elset=VOLUME, material=FINITE_ELASTIC
,
*Initial Conditions, type=TEMPERATURE
ALL_NODES, 6.0000000000000000e2
*Step, name=STEP1, nlgeom=YES, inc=32
*Coupled Temperature-Displacement
1.0000000000000000e-3, 1.0000000000000000e-3, 1.0000000000000000e-3, 1.0000000000000000e-3
*Controls, parameters=FIELD, field=DISPLACEMENT
1.0000000000000000e-12, 1.0000000000000000e-12, , , , 1.0000000000000000e-12
*Boundary, op=NEW
ALL_NODES, 11, 11, 6.0000000000000000e2
N1, 1, 1, 0.0000000000000000e+00
N1, 2, 2, 0.0000000000000000e+00
N1, 3, 3, 0.0000000000000000e+00
N2, 1, 1, 6.0000000000000053e-03
N2, 2, 2, 0.0000000000000000e+00
N2, 3, 3, 0.0000000000000000e+00
N3, 1, 1, 6.0000000000000053e-03
N3, 2, 2, 0.0000000000000000e+00
N3, 3, 3, 0.0000000000000000e+00
N4, 1, 1, 0.0000000000000000e+00
N4, 2, 2, 0.0000000000000000e+00
N4, 3, 3, 0.0000000000000000e+00
N5, 1, 1, 0.0000000000000000e+00
N5, 2, 2, 0.0000000000000000e+00
N5, 3, 3, 0.0000000000000000e+00
N6, 1, 1, 6.0000000000000053e-03
N6, 2, 2, 0.0000000000000000e+00
N6, 3, 3, 0.0000000000000000e+00
N7, 1, 1, 6.0000000000000053e-03
N7, 2, 2, 0.0000000000000000e+00
N7, 3, 3, 0.0000000000000000e+00
N8, 1, 1, 0.0000000000000000e+00
N8, 2, 2, 0.0000000000000000e+00
N8, 3, 3, 0.0000000000000000e+00
*Output, field, frequency=1
*Node Output
NT, RFL, RF, U
*Element Output, directions=YES
COORD, E, EE, IVOL, LE, S, TEMP
*Output, history, frequency=1
*Energy Output
ALLIE, ALLSE, ALLWK
*End Step
*Step, name=STEP2, nlgeom=YES, inc=32
*Coupled Temperature-Displacement
1.0000000000000000e-3, 1.0000000000000000e-3, 1.0000000000000000e-3, 1.0000000000000000e-3
*Controls, parameters=FIELD, field=DISPLACEMENT
1.0000000000000000e-12, 1.0000000000000000e-12, , , , 1.0000000000000000e-12
*Boundary, op=NEW
ALL_NODES, 11, 11, 6.0000000000000000e2
N1, 1, 1, 0.0000000000000000e+00
N1, 2, 2, 0.0000000000000000e+00
N1, 3, 3, 0.0000000000000000e+00
N2, 1, 1, 1.2000000000000011e-02
N2, 2, 2, 0.0000000000000000e+00
N2, 3, 3, 0.0000000000000000e+00
N3, 1, 1, 1.2000000000000011e-02
N3, 2, 2, 0.0000000000000000e+00
N3, 3, 3, 0.0000000000000000e+00
N4, 1, 1, 0.0000000000000000e+00
N4, 2, 2, 0.0000000000000000e+00
N4, 3, 3, 0.0000000000000000e+00
N5, 1, 1, 0.0000000000000000e+00
N5, 2, 2, 0.0000000000000000e+00
N5, 3, 3, 0.0000000000000000e+00
N6, 1, 1, 1.2000000000000011e-02
N6, 2, 2, 0.0000000000000000e+00
N6, 3, 3, 0.0000000000000000e+00
N7, 1, 1, 1.2000000000000011e-02
N7, 2, 2, 0.0000000000000000e+00
N7, 3, 3, 0.0000000000000000e+00
N8, 1, 1, 0.0000000000000000e+00
N8, 2, 2, 0.0000000000000000e+00
N8, 3, 3, 0.0000000000000000e+00
*Output, field, frequency=1
*Node Output
NT, RFL, RF, U
*Element Output, directions=YES
COORD, E, EE, IVOL, LE, S, TEMP
*Output, history, frequency=1
*Energy Output
ALLIE, ALLSE, ALLWK
*End Step
*Step, name=STEP3, nlgeom=YES, inc=32
*Coupled Temperature-Displacement
1.0000000000000000e-3, 1.0000000000000000e-3, 1.0000000000000000e-3, 1.0000000000000000e-3
*Controls, parameters=FIELD, field=DISPLACEMENT
1.0000000000000000e-12, 1.0000000000000000e-12, , , , 1.0000000000000000e-12
*Boundary, op=NEW
ALL_NODES, 11, 11, 6.0000000000000000e2
N1, 1, 1, 0.0000000000000000e+00
N1, 2, 2, 0.0000000000000000e+00
N1, 3, 3, 0.0000000000000000e+00
N2, 1, 1, 1.8000000000000016e-02
N2, 2, 2, 0.0000000000000000e+00
N2, 3, 3, 0.0000000000000000e+00
N3, 1, 1, 1.8000000000000016e-02
N3, 2, 2, 0.0000000000000000e+00
N3, 3, 3, 0.0000000000000000e+00
N4, 1, 1, 0.0000000000000000e+00
N4, 2, 2, 0.0000000000000000e+00
N4, 3, 3, 0.0000000000000000e+00
N5, 1, 1, 0.0000000000000000e+00
N5, 2, 2, 0.0000000000000000e+00
N5, 3, 3, 0.0000000000000000e+00
N6, 1, 1, 1.8000000000000016e-02
N6, 2, 2, 0.0000000000000000e+00
N6, 3, 3, 0.0000000000000000e+00
N7, 1, 1, 1.8000000000000016e-02
N7, 2, 2, 0.0000000000000000e+00
N7, 3, 3, 0.0000000000000000e+00
N8, 1, 1, 0.0000000000000000e+00
N8, 2, 2, 0.0000000000000000e+00
N8, 3, 3, 0.0000000000000000e+00
*Output, field, frequency=1
*Node Output
NT, RFL, RF, U
*Element Output, directions=YES
COORD, E, EE, IVOL, LE, S, TEMP
*Output, history, frequency=1
*Energy Output
ALLIE, ALLSE, ALLWK
*End Step
*Step, name=STEP4, nlgeom=YES, inc=32
*Coupled Temperature-Displacement
1.0000000000000000e-3, 1.0000000000000000e-3, 1.0000000000000000e-3, 1.0000000000000000e-3
*Controls, parameters=FIELD, field=DISPLACEMENT
1.0000000000000000e-12, 1.0000000000000000e-12, , , , 1.0000000000000000e-12
*Boundary, op=NEW
ALL_NODES, 11, 11, 6.0000000000000000e2
N1, 1, 1, 0.0000000000000000e+00
N1, 2, 2, 0.0000000000000000e+00
N1, 3, 3, 0.0000000000000000e+00
N2, 1, 1, 2.4000000000000021e-02
N2, 2, 2, 0.0000000000000000e+00
N2, 3, 3, 0.0000000000000000e+00
N3, 1, 1, 2.4000000000000021e-02
N3, 2, 2, 0.0000000000000000e+00
N3, 3, 3, 0.0000000000000000e+00
N4, 1, 1, 0.0000000000000000e+00
N4, 2, 2, 0.0000000000000000e+00
N4, 3, 3, 0.0000000000000000e+00
N5, 1, 1, 0.0000000000000000e+00
N5, 2, 2, 0.0000000000000000e+00
N5, 3, 3, 0.0000000000000000e+00
N6, 1, 1, 2.4000000000000021e-02
N6, 2, 2, 0.0000000000000000e+00
N6, 3, 3, 0.0000000000000000e+00
N7, 1, 1, 2.4000000000000021e-02
N7, 2, 2, 0.0000000000000000e+00
N7, 3, 3, 0.0000000000000000e+00
N8, 1, 1, 0.0000000000000000e+00
N8, 2, 2, 0.0000000000000000e+00
N8, 3, 3, 0.0000000000000000e+00
*Output, field, frequency=1
*Node Output
NT, RFL, RF, U
*Element Output, directions=YES
COORD, E, EE, IVOL, LE, S, TEMP
*Output, history, frequency=1
*Energy Output
ALLIE, ALLSE, ALLWK
*End Step
*Step, name=STEP5, nlgeom=YES, inc=32
*Coupled Temperature-Displacement
1.0000000000000000e-3, 1.0000000000000000e-3, 1.0000000000000000e-3, 1.0000000000000000e-3
*Controls, parameters=FIELD, field=DISPLACEMENT
1.0000000000000000e-12, 1.0000000000000000e-12, , , , 1.0000000000000000e-12
*Boundary, op=NEW
ALL_NODES, 11, 11, 6.0000000000000000e2
N1, 1, 1, 0.0000000000000000e+00
N1, 2, 2, 0.0000000000000000e+00
N1, 3, 3, 0.0000000000000000e+00
N2, 1, 1, 3.0000000000000027e-02
N2, 2, 2, 0.0000000000000000e+00
N2, 3, 3, 0.0000000000000000e+00
N3, 1, 1, 3.0000000000000027e-02
N3, 2, 2, 0.0000000000000000e+00
N3, 3, 3, 0.0000000000000000e+00
N4, 1, 1, 0.0000000000000000e+00
N4, 2, 2, 0.0000000000000000e+00
N4, 3, 3, 0.0000000000000000e+00
N5, 1, 1, 0.0000000000000000e+00
N5, 2, 2, 0.0000000000000000e+00
N5, 3, 3, 0.0000000000000000e+00
N6, 1, 1, 3.0000000000000027e-02
N6, 2, 2, 0.0000000000000000e+00
N6, 3, 3, 0.0000000000000000e+00
N7, 1, 1, 3.0000000000000027e-02
N7, 2, 2, 0.0000000000000000e+00
N7, 3, 3, 0.0000000000000000e+00
N8, 1, 1, 0.0000000000000000e+00
N8, 2, 2, 0.0000000000000000e+00
N8, 3, 3, 0.0000000000000000e+00
*Output, field, frequency=1
*Node Output
NT, RFL, RF, U
*Element Output, directions=YES
COORD, E, EE, IVOL, LE, S, TEMP
*Output, history, frequency=1
*Energy Output
ALLIE, ALLSE, ALLWK
*End Step
*Step, name=STEP6, nlgeom=YES, inc=32
*Coupled Temperature-Displacement
1.0000000000000000e-3, 1.0000000000000000e-3, 1.0000000000000000e-3, 1.0000000000000000e-3
*Controls, parameters=FIELD, field=DISPLACEMENT
1.0000000000000000e-12, 1.0000000000000000e-12, , , , 1.0000000000000000e-12
*Boundary, op=NEW
ALL_NODES, 11, 11, 6.0000000000000000e2
N1, 1, 1, 0.0000000000000000e+00
N1, 2, 2, 0.0000000000000000e+00
N1, 3, 3, 0.0000000000000000e+00
N2, 1, 1, 3.0000000000000027e-02
N2, 2, 2, 0.0000000000000000e+00
N2, 3, 3, 0.0000000000000000e+00
N3, 1, 1, 3.8000000000000034e-02
N3, 2, 2, 0.0000000000000000e+00
N3, 3, 3, 0.0000000000000000e+00
N4, 1, 1, 8.0000000000000002e-03
N4, 2, 2, 0.0000000000000000e+00
N4, 3, 3, 0.0000000000000000e+00
N5, 1, 1, 0.0000000000000000e+00
N5, 2, 2, 0.0000000000000000e+00
N5, 3, 3, 0.0000000000000000e+00
N6, 1, 1, 3.0000000000000027e-02
N6, 2, 2, 0.0000000000000000e+00
N6, 3, 3, 0.0000000000000000e+00
N7, 1, 1, 3.8000000000000034e-02
N7, 2, 2, 0.0000000000000000e+00
N7, 3, 3, 0.0000000000000000e+00
N8, 1, 1, 8.0000000000000002e-03
N8, 2, 2, 0.0000000000000000e+00
N8, 3, 3, 0.0000000000000000e+00
*Output, field, frequency=1
*Node Output
NT, RFL, RF, U
*Element Output, directions=YES
COORD, E, EE, IVOL, LE, S, TEMP
*Output, history, frequency=1
*Energy Output
ALLIE, ALLSE, ALLWK
*End Step
*Step, name=STEP7, nlgeom=YES, inc=32
*Coupled Temperature-Displacement
1.0000000000000000e-3, 1.0000000000000000e-3, 1.0000000000000000e-3, 1.0000000000000000e-3
*Controls, parameters=FIELD, field=DISPLACEMENT
1.0000000000000000e-12, 1.0000000000000000e-12, , , , 1.0000000000000000e-12
*Boundary, op=NEW
ALL_NODES, 11, 11, 6.0000000000000000e2
N1, 1, 1, 0.0000000000000000e+00
N1, 2, 2, 0.0000000000000000e+00
N1, 3, 3, 0.0000000000000000e+00
N2, 1, 1, 3.0000000000000027e-02
N2, 2, 2, 0.0000000000000000e+00
N2, 3, 3, 0.0000000000000000e+00
N3, 1, 1, 4.6000000000000041e-02
N3, 2, 2, 0.0000000000000000e+00
N3, 3, 3, 0.0000000000000000e+00
N4, 1, 1, 1.6000000000000000e-02
N4, 2, 2, 0.0000000000000000e+00
N4, 3, 3, 0.0000000000000000e+00
N5, 1, 1, 0.0000000000000000e+00
N5, 2, 2, 0.0000000000000000e+00
N5, 3, 3, 0.0000000000000000e+00
N6, 1, 1, 3.0000000000000027e-02
N6, 2, 2, 0.0000000000000000e+00
N6, 3, 3, 0.0000000000000000e+00
N7, 1, 1, 4.6000000000000041e-02
N7, 2, 2, 0.0000000000000000e+00
N7, 3, 3, 0.0000000000000000e+00
N8, 1, 1, 1.6000000000000000e-02
N8, 2, 2, 0.0000000000000000e+00
N8, 3, 3, 0.0000000000000000e+00
*Output, field, frequency=1
*Node Output
NT, RFL, RF, U
*Element Output, directions=YES
COORD, E, EE, IVOL, LE, S, TEMP
*Output, history, frequency=1
*Energy Output
ALLIE, ALLSE, ALLWK
*End Step
*Step, name=STEP8, nlgeom=YES, inc=32
*Coupled Temperature-Displacement
1.0000000000000000e-3, 1.0000000000000000e-3, 1.0000000000000000e-3, 1.0000000000000000e-3
*Controls, parameters=FIELD, field=DISPLACEMENT
1.0000000000000000e-12, 1.0000000000000000e-12, , , , 1.0000000000000000e-12
*Boundary, op=NEW
ALL_NODES, 11, 11, 6.0000000000000000e2
N1, 1, 1, 0.0000000000000000e+00
N1, 2, 2, 0.0000000000000000e+00
N1, 3, 3, 0.0000000000000000e+00
N2, 1, 1, 3.0000000000000027e-02
N2, 2, 2, 0.0000000000000000e+00
N2, 3, 3, 0.0000000000000000e+00
N3, 1, 1, 5.4000000000000048e-02
N3, 2, 2, 0.0000000000000000e+00
N3, 3, 3, 0.0000000000000000e+00
N4, 1, 1, 2.4000000000000000e-02
N4, 2, 2, 0.0000000000000000e+00
N4, 3, 3, 0.0000000000000000e+00
N5, 1, 1, 0.0000000000000000e+00
N5, 2, 2, 0.0000000000000000e+00
N5, 3, 3, 0.0000000000000000e+00
N6, 1, 1, 3.0000000000000027e-02
N6, 2, 2, 0.0000000000000000e+00
N6, 3, 3, 0.0000000000000000e+00
N7, 1, 1, 5.4000000000000048e-02
N7, 2, 2, 0.0000000000000000e+00
N7, 3, 3, 0.0000000000000000e+00
N8, 1, 1, 2.4000000000000000e-02
N8, 2, 2, 0.0000000000000000e+00
N8, 3, 3, 0.0000000000000000e+00
*Output, field, frequency=1
*Node Output
NT, RFL, RF, U
*Element Output, directions=YES
COORD, E, EE, IVOL, LE, S, TEMP
*Output, history, frequency=1
*Energy Output
ALLIE, ALLSE, ALLWK
*End Step
*Step, name=STEP9, nlgeom=YES, inc=32
*Coupled Temperature-Displacement
1.0000000000000000e-3, 1.0000000000000000e-3, 1.0000000000000000e-3, 1.0000000000000000e-3
*Controls, parameters=FIELD, field=DISPLACEMENT
1.0000000000000000e-12, 1.0000000000000000e-12, , , , 1.0000000000000000e-12
*Boundary, op=NEW
ALL_NODES, 11, 11, 6.0000000000000000e2
N1, 1, 1, 0.0000000000000000e+00
N1, 2, 2, 0.0000000000000000e+00
N1, 3, 3, 0.0000000000000000e+00
N2, 1, 1, 3.0000000000000027e-02
N2, 2, 2, 0.0000000000000000e+00
N2, 3, 3, 0.0000000000000000e+00
N3, 1, 1, 6.2000000000000055e-02
N3, 2, 2, 0.0000000000000000e+00
N3, 3, 3, 0.0000000000000000e+00
N4, 1, 1, 3.2000000000000001e-02
N4, 2, 2, 0.0000000000000000e+00
N4, 3, 3, 0.0000000000000000e+00
N5, 1, 1, 0.0000000000000000e+00
N5, 2, 2, 0.0000000000000000e+00
N5, 3, 3, 0.0000000000000000e+00
N6, 1, 1, 3.0000000000000027e-02
N6, 2, 2, 0.0000000000000000e+00
N6, 3, 3, 0.0000000000000000e+00
N7, 1, 1, 6.2000000000000055e-02
N7, 2, 2, 0.0000000000000000e+00
N7, 3, 3, 0.0000000000000000e+00
N8, 1, 1, 3.2000000000000001e-02
N8, 2, 2, 0.0000000000000000e+00
N8, 3, 3, 0.0000000000000000e+00
*Output, field, frequency=1
*Node Output
NT, RFL, RF, U
*Element Output, directions=YES
COORD, E, EE, IVOL, LE, S, TEMP
*Output, history, frequency=1
*Energy Output
ALLIE, ALLSE, ALLWK
*End Step
*Step, name=STEP10, nlgeom=YES, inc=32
*Coupled Temperature-Displacement
1.0000000000000000e-3, 1.0000000000000000e-3, 1.0000000000000000e-3, 1.0000000000000000e-3
*Controls, parameters=FIELD, field=DISPLACEMENT
1.0000000000000000e-12, 1.0000000000000000e-12, , , , 1.0000000000000000e-12
*Boundary, op=NEW
ALL_NODES, 11, 11, 6.0000000000000000e2
N1, 1, 1, 0.0000000000000000e+00
N1, 2, 2, 0.0000000000000000e+00
N1, 3, 3, 0.0000000000000000e+00
N2, 1, 1, 3.0000000000000027e-02
N2, 2, 2, 0.0000000000000000e+00
N2, 3, 3, 0.0000000000000000e+00
N3, 1, 1, 7.0000000000000062e-02
N3, 2, 2, 0.0000000000000000e+00
N3, 3, 3, 0.0000000000000000e+00
N4, 1, 1, 4.0000000000000001e-02
N4, 2, 2, 0.0000000000000000e+00
N4, 3, 3, 0.0000000000000000e+00
N5, 1, 1, 0.0000000000000000e+00
N5, 2, 2, 0.0000000000000000e+00
N5, 3, 3, 0.0000000000000000e+00
N6, 1, 1, 3.0000000000000027e-02
N6, 2, 2, 0.0000000000000000e+00
N6, 3, 3, 0.0000000000000000e+00
N7, 1, 1, 7.0000000000000062e-02
N7, 2, 2, 0.0000000000000000e+00
N7, 3, 3, 0.0000000000000000e+00
N8, 1, 1, 4.0000000000000001e-02
N8, 2, 2, 0.0000000000000000e+00
N8, 3, 3, 0.0000000000000000e+00
*Output, field, frequency=1
*Node Output
NT, RFL, RF, U
*Element Output, directions=YES
COORD, E, EE, IVOL, LE, S, TEMP
*Output, history, frequency=1
*Energy Output
ALLIE, ALLSE, ALLWK
*End Step
*Step, name=STEP11, nlgeom=YES, inc=32
*Coupled Temperature-Displacement
1.0000000000000000e-3, 1.0000000000000000e-3, 1.0000000000000000e-3, 1.0000000000000000e-3
*Controls, parameters=FIELD, field=DISPLACEMENT
1.0000000000000000e-12, 1.0000000000000000e-12, , , , 1.0000000000000000e-12
*Boundary, op=NEW
ALL_NODES, 11, 11, 6.0000000000000000e2
N1, 1, 1, 0.0000000000000000e+00
N1, 2, 2, 0.0000000000000000e+00
N1, 3, 3, 0.0000000000000000e+00
N2, 1, 1, 2.4357552229321566e-02
N2, 2, 2, 1.0766431716568307e-01
N2, 3, 3, 0.0000000000000000e+00
N3, 1, 1, -4.0390035223601073e-02
N3, 2, 2, 1.0636735106466255e-01
N3, 3, 3, 0.0000000000000000e+00
N4, 1, 1, -6.4747587452922528e-02
N4, 2, 2, -1.2969661010205913e-03
N4, 3, 3, 0.0000000000000000e+00
N5, 1, 1, 0.0000000000000000e+00
N5, 2, 2, 0.0000000000000000e+00
N5, 3, 3, 0.0000000000000000e+00
N6, 1, 1, 2.4357552229321566e-02
N6, 2, 2, 1.0766431716568307e-01
N6, 3, 3, 0.0000000000000000e+00
N7, 1, 1, -4.0390035223601073e-02
N7, 2, 2, 1.0636735106466255e-01
N7, 3, 3, 0.0000000000000000e+00
N8, 1, 1, -6.4747587452922528e-02
N8, 2, 2, -1.2969661010205913e-03
N8, 3, 3, 0.0000000000000000e+00
*Output, field, frequency=1
*Node Output
NT, RFL, RF, U
*Element Output, directions=YES
COORD, E, EE, IVOL, LE, S, TEMP
*Output, history, frequency=1
*Energy Output
ALLIE, ALLSE, ALLWK
*End Step
*Step, name=STEP12, nlgeom=YES, inc=32
*Coupled Temperature-Displacement
1.0000000000000000e-3, 1.0000000000000000e-3, 1.0000000000000000e-3, 1.0000000000000000e-3
*Controls, parameters=FIELD, field=DISPLACEMENT
1.0000000000000000e-12, 1.0000000000000000e-12, , , , 1.0000000000000000e-12
*Boundary, op=NEW
ALL_NODES, 11, 11, 6.0000000000000000e2
N1, 1, 1, 0.0000000000000000e+00
N1, 2, 2, 0.0000000000000000e+00
N1, 3, 3, 0.0000000000000000e+00
N2, 1, 1, 7.4920287558197796e-03
N2, 2, 2, 2.1414904154229214e-01
N2, 3, 3, 0.0000000000000000e+00
N3, 1, 1, -1.6129375803258728e-01
N3, 2, 2, 2.0061310990880821e-01
N3, 3, 3, 0.0000000000000000e+00
N4, 1, 1, -1.6878578678840711e-01
N4, 2, 2, -1.3535931633483989e-02
N4, 3, 3, 0.0000000000000000e+00
N5, 1, 1, 0.0000000000000000e+00
N5, 2, 2, 0.0000000000000000e+00
N5, 3, 3, 0.0000000000000000e+00
N6, 1, 1, 7.4920287558197796e-03
N6, 2, 2, 2.1414904154229214e-01
N6, 3, 3, 0.0000000000000000e+00
N7, 1, 1, -1.6129375803258728e-01
N7, 2, 2, 2.0061310990880821e-01
N7, 3, 3, 0.0000000000000000e+00
N8, 1, 1, -1.6878578678840711e-01
N8, 2, 2, -1.3535931633483989e-02
N8, 3, 3, 0.0000000000000000e+00
*Output, field, frequency=1
*Node Output
NT, RFL, RF, U
*Element Output, directions=YES
COORD, E, EE, IVOL, LE, S, TEMP
*Output, history, frequency=1
*Energy Output
ALLIE, ALLSE, ALLWK
*End Step
*Step, name=STEP13, nlgeom=YES, inc=32
*Coupled Temperature-Displacement
1.0000000000000000e-3, 1.0000000000000000e-3, 1.0000000000000000e-3, 1.0000000000000000e-3
*Controls, parameters=FIELD, field=DISPLACEMENT
1.0000000000000000e-12, 1.0000000000000000e-12, , , , 1.0000000000000000e-12
*Boundary, op=NEW
ALL_NODES, 11, 11, 6.0000000000000000e2
N1, 1, 1, 0.0000000000000000e+00
N1, 2, 2, 0.0000000000000000e+00
N1, 3, 3, 0.0000000000000000e+00
N2, 1, 1, -2.0411788215991877e-02
N2, 2, 2, 3.1828750420619584e-01
N2, 3, 3, 0.0000000000000000e+00
N3, 1, 1, -2.9138652193913317e-01
N3, 2, 2, 2.8170470027634731e-01
N3, 3, 3, 0.0000000000000000e+00
N4, 1, 1, -2.7097473372314124e-01
N4, 2, 2, -3.6582803929848584e-02
N4, 3, 3, 0.0000000000000000e+00
N5, 1, 1, 0.0000000000000000e+00
N5, 2, 2, 0.0000000000000000e+00
N5, 3, 3, 0.0000000000000000e+00
N6, 1, 1, -2.0411788215991877e-02
N6, 2, 2, 3.1828750420619584e-01
N6, 3, 3, 0.0000000000000000e+00
N7, 1, 1, -2.9138652193913317e-01
N7, 2, 2, 2.8170470027634731e-01
N7, 3, 3, 0.0000000000000000e+00
N8, 1, 1, -2.7097473372314124e-01
N8, 2, 2, -3.6582803929848584e-02
N8, 3, 3, 0.0000000000000000e+00
*Output, field, frequency=1
*Node Output
NT, RFL, RF, U
*Element Output, directions=YES
COORD, E, EE, IVOL, LE, S, TEMP
*Output, history, frequency=1
*Energy Output
ALLIE, ALLSE, ALLWK
*End Step
*Step, name=STEP14, nlgeom=YES, inc=32
*Coupled Temperature-Displacement
1.0000000000000000e-3, 1.0000000000000000e-3, 1.0000000000000000e-3, 1.0000000000000000e-3
*Controls, parameters=FIELD, field=DISPLACEMENT
1.0000000000000000e-12, 1.0000000000000000e-12, , , , 1.0000000000000000e-12
*Boundary, op=NEW
ALL_NODES, 11, 11, 6.0000000000000000e2
N1, 1, 1, 0.0000000000000000e+00
N1, 2, 2, 0.0000000000000000e+00
N1, 3, 3, 0.0000000000000000e+00
N2, 1, 1, -5.9048178628121062e-02
N2, 2, 2, 4.1893874236807421e-01
N2, 3, 3, 0.0000000000000000e+00
N3, 1, 1, -4.2924300339821730e-01
N3, 2, 2, 3.4875366573370714e-01
N3, 3, 3, 0.0000000000000000e+00
N4, 1, 1, -3.7019482477009619e-01
N4, 2, 2, -7.0185076634367127e-02
N4, 3, 3, 0.0000000000000000e+00
N5, 1, 1, 0.0000000000000000e+00
N5, 2, 2, 0.0000000000000000e+00
N5, 3, 3, 0.0000000000000000e+00
N6, 1, 1, -5.9048178628121062e-02
N6, 2, 2, 4.1893874236807421e-01
N6, 3, 3, 0.0000000000000000e+00
N7, 1, 1, -4.2924300339821730e-01
N7, 2, 2, 3.4875366573370714e-01
N7, 3, 3, 0.0000000000000000e+00
N8, 1, 1, -3.7019482477009619e-01
N8, 2, 2, -7.0185076634367127e-02
N8, 3, 3, 0.0000000000000000e+00
*Output, field, frequency=1
*Node Output
NT, RFL, RF, U
*Element Output, directions=YES
COORD, E, EE, IVOL, LE, S, TEMP
*Output, history, frequency=1
*Energy Output
ALLIE, ALLSE, ALLWK
*End Step
*Step, name=STEP15, nlgeom=YES, inc=32
*Coupled Temperature-Displacement
1.0000000000000000e-3, 1.0000000000000000e-3, 1.0000000000000000e-3, 1.0000000000000000e-3
*Controls, parameters=FIELD, field=DISPLACEMENT
1.0000000000000000e-12, 1.0000000000000000e-12, , , , 1.0000000000000000e-12
*Boundary, op=NEW
ALL_NODES, 11, 11, 6.0000000000000000e2
N1, 1, 1, 0.0000000000000000e+00
N1, 2, 2, 0.0000000000000000e+00
N1, 3, 3, 0.0000000000000000e+00
N2, 1, 1, -1.0799383410202812e-01
N2, 2, 2, 5.1499999999999990e-01
N2, 3, 3, 0.0000000000000000e+00
N3, 1, 1, -5.7335281795065041e-01
N3, 2, 2, 4.0102540378443852e-01
N3, 3, 3, 0.0000000000000000e+00
N4, 1, 1, -4.6535898384862240e-01
N4, 2, 2, -1.1397459621556127e-01
N4, 3, 3, 0.0000000000000000e+00
N5, 1, 1, 0.0000000000000000e+00
N5, 2, 2, 0.0000000000000000e+00
N5, 3, 3, 0.0000000000000000e+00
N6, 1, 1, -1.0799383410202812e-01
N6, 2, 2, 5.1499999999999990e-01
N6, 3, 3, 0.0000000000000000e+00
N7, 1, 1, -5.7335281795065041e-01
N7, 2, 2, 4.0102540378443852e-01
N7, 3, 3, 0.0000000000000000e+00
N8, 1, 1, -4.6535898384862240e-01
N8, 2, 2, -1.1397459621556127e-01
N8, 3, 3, 0.0000000000000000e+00
*Output, field, frequency=1
*Node Output
NT, RFL, RF, U
*Element Output, directions=YES
COORD, E, EE, IVOL, LE, S, TEMP
*Output, history, frequency=1
*Energy Output
ALLIE, ALLSE, ALLWK
*End Step
*Step, name=STEP16, nlgeom=YES, inc=32
*Coupled Temperature-Displacement
1.0000000000000000e-3, 1.0000000000000000e-3, 1.0000000000000000e-3, 1.0000000000000000e-3
*Controls, parameters=FIELD, field=DISPLACEMENT
1.0000000000000000e-12, 1.0000000000000000e-12, , , , 1.0000000000000000e-12
*Boundary, op=NEW
ALL_NODES, 11, 11, 6.0000000000000000e2
N1, 1, 1, 0.0000000000000000e+00
N1, 2, 2, 0.0000000000000000e+00
N1, 3, 3, 0.0000000000000000e+00
N2, 1, 1, -5.9048178628121062e-02
N2, 2, 2, 4.1893874236807421e-01
N2, 3, 3, 0.0000000000000000e+00
N3, 1, 1, -4.2924300339821730e-01
N3, 2, 2, 3.4875366573370714e-01
N3, 3, 3, 0.0000000000000000e+00
N4, 1, 1, -3.7019482477009619e-01
N4, 2, 2, -7.0185076634367127e-02
N4, 3, 3, 0.0000000000000000e+00
N5, 1, 1, 0.0000000000000000e+00
N5, 2, 2, 0.0000000000000000e+00
N5, 3, 3, 0.0000000000000000e+00
N6, 1, 1, -5.9048178628121062e-02
N6, 2, 2, 4.1893874236807421e-01
N6, 3, 3, 0.0000000000000000e+00
N7, 1, 1, -4.2924300339821730e-01
N7, 2, 2, 3.4875366573370714e-01
N7, 3, 3, 0.0000000000000000e+00
N8, 1, 1, -3.7019482477009619e-01
N8, 2, 2, -7.0185076634367127e-02
N8, 3, 3, 0.0000000000000000e+00
*Output, field, frequency=1
*Node Output
NT, RFL, RF, U
*Element Output, directions=YES
COORD, E, EE, IVOL, LE, S, TEMP
*Output, history, frequency=1
*Energy Output
ALLIE, ALLSE, ALLWK
*End Step
*Step, name=STEP17, nlgeom=YES, inc=32
*Coupled Temperature-Displacement
1.0000000000000000e-3, 1.0000000000000000e-3, 1.0000000000000000e-3, 1.0000000000000000e-3
*Controls, parameters=FIELD, field=DISPLACEMENT
1.0000000000000000e-12, 1.0000000000000000e-12, , , , 1.0000000000000000e-12
*Boundary, op=NEW
ALL_NODES, 11, 11, 6.0000000000000000e2
N1, 1, 1, 0.0000000000000000e+00
N1, 2, 2, 0.0000000000000000e+00
N1, 3, 3, 0.0000000000000000e+00
N2, 1, 1, -2.0411788215991877e-02
N2, 2, 2, 3.1828750420619584e-01
N2, 3, 3, 0.0000000000000000e+00
N3, 1, 1, -2.9138652193913317e-01
N3, 2, 2, 2.8170470027634731e-01
N3, 3, 3, 0.0000000000000000e+00
N4, 1, 1, -2.7097473372314124e-01
N4, 2, 2, -3.6582803929848584e-02
N4, 3, 3, 0.0000000000000000e+00
N5, 1, 1, 0.0000000000000000e+00
N5, 2, 2, 0.0000000000000000e+00
N5, 3, 3, 0.0000000000000000e+00
N6, 1, 1, -2.0411788215991877e-02
N6, 2, 2, 3.1828750420619584e-01
N6, 3, 3, 0.0000000000000000e+00
N7, 1, 1, -2.9138652193913317e-01
N7, 2, 2, 2.8170470027634731e-01
N7, 3, 3, 0.0000000000000000e+00
N8, 1, 1, -2.7097473372314124e-01
N8, 2, 2, -3.6582803929848584e-02
N8, 3, 3, 0.0000000000000000e+00
*Output, field, frequency=1
*Node Output
NT, RFL, RF, U
*Element Output, directions=YES
COORD, E, EE, IVOL, LE, S, TEMP
*Output, history, frequency=1
*Energy Output
ALLIE, ALLSE, ALLWK
*End Step
*Step, name=STEP18, nlgeom=YES, inc=32
*Coupled Temperature-Displacement
1.0000000000000000e-3, 1.0000000000000000e-3, 1.0000000000000000e-3, 1.0000000000000000e-3
*Controls, parameters=FIELD, field=DISPLACEMENT
1.0000000000000000e-12, 1.0000000000000000e-12, , , , 1.0000000000000000e-12
*Boundary, op=NEW
ALL_NODES, 11, 11, 6.0000000000000000e2
N1, 1, 1, 0.0000000000000000e+00
N1, 2, 2, 0.0000000000000000e+00
N1, 3, 3, 0.0000000000000000e+00
N2, 1, 1, 7.4920287558197796e-03
N2, 2, 2, 2.1414904154229214e-01
N2, 3, 3, 0.0000000000000000e+00
N3, 1, 1, -1.6129375803258728e-01
N3, 2, 2, 2.0061310990880821e-01
N3, 3, 3, 0.0000000000000000e+00
N4, 1, 1, -1.6878578678840711e-01
N4, 2, 2, -1.3535931633483989e-02
N4, 3, 3, 0.0000000000000000e+00
N5, 1, 1, 0.0000000000000000e+00
N5, 2, 2, 0.0000000000000000e+00
N5, 3, 3, 0.0000000000000000e+00
N6, 1, 1, 7.4920287558197796e-03
N6, 2, 2, 2.1414904154229214e-01
N6, 3, 3, 0.0000000000000000e+00
N7, 1, 1, -1.6129375803258728e-01
N7, 2, 2, 2.0061310990880821e-01
N7, 3, 3, 0.0000000000000000e+00
N8, 1, 1, -1.6878578678840711e-01
N8, 2, 2, -1.3535931633483989e-02
N8, 3, 3, 0.0000000000000000e+00
*Output, field, frequency=1
*Node Output
NT, RFL, RF, U
*Element Output, directions=YES
COORD, E, EE, IVOL, LE, S, TEMP
*Output, history, frequency=1
*Energy Output
ALLIE, ALLSE, ALLWK
*End Step
*Step, name=STEP19, nlgeom=YES, inc=32
*Coupled Temperature-Displacement
1.0000000000000000e-3, 1.0000000000000000e-3, 1.0000000000000000e-3, 1.0000000000000000e-3
*Controls, parameters=FIELD, field=DISPLACEMENT
1.0000000000000000e-12, 1.0000000000000000e-12, , , , 1.0000000000000000e-12
*Boundary, op=NEW
ALL_NODES, 11, 11, 6.0000000000000000e2
N1, 1, 1, 0.0000000000000000e+00
N1, 2, 2, 0.0000000000000000e+00
N1, 3, 3, 0.0000000000000000e+00
N2, 1, 1, 2.4357552229321566e-02
N2, 2, 2, 1.0766431716568307e-01
N2, 3, 3, 0.0000000000000000e+00
N3, 1, 1, -4.0390035223601073e-02
N3, 2, 2, 1.0636735106466255e-01
N3, 3, 3, 0.0000000000000000e+00
N4, 1, 1, -6.4747587452922528e-02
N4, 2, 2, -1.2969661010205913e-03
N4, 3, 3, 0.0000000000000000e+00
N5, 1, 1, 0.0000000000000000e+00
N5, 2, 2, 0.0000000000000000e+00
N5, 3, 3, 0.0000000000000000e+00
N6, 1, 1, 2.4357552229321566e-02
N6, 2, 2, 1.0766431716568307e-01
N6, 3, 3, 0.0000000000000000e+00
N7, 1, 1, -4.0390035223601073e-02
N7, 2, 2, 1.0636735106466255e-01
N7, 3, 3, 0.0000000000000000e+00
N8, 1, 1, -6.4747587452922528e-02
N8, 2, 2, -1.2969661010205913e-03
N8, 3, 3, 0.0000000000000000e+00
*Output, field, frequency=1
*Node Output
NT, RFL, RF, U
*Element Output, directions=YES
COORD, E, EE, IVOL, LE, S, TEMP
*Output, history, frequency=1
*Energy Output
ALLIE, ALLSE, ALLWK
*End Step
*Step, name=STEP20, nlgeom=YES, inc=32
*Coupled Temperature-Displacement
1.0000000000000000e-3, 1.0000000000000000e-3, 1.0000000000000000e-3, 1.0000000000000000e-3
*Controls, parameters=FIELD, field=DISPLACEMENT
1.0000000000000000e-12, 1.0000000000000000e-12, , , , 1.0000000000000000e-12
*Boundary, op=NEW
ALL_NODES, 11, 11, 6.0000000000000000e2
N1, 1, 1, 0.0000000000000000e+00
N1, 2, 2, 0.0000000000000000e+00
N1, 3, 3, 0.0000000000000000e+00
N2, 1, 1, 3.0000000000000027e-02
N2, 2, 2, 0.0000000000000000e+00
N2, 3, 3, 0.0000000000000000e+00
N3, 1, 1, 7.0000000000000062e-02
N3, 2, 2, 0.0000000000000000e+00
N3, 3, 3, 0.0000000000000000e+00
N4, 1, 1, 4.0000000000000001e-02
N4, 2, 2, 0.0000000000000000e+00
N4, 3, 3, 0.0000000000000000e+00
N5, 1, 1, 0.0000000000000000e+00
N5, 2, 2, 0.0000000000000000e+00
N5, 3, 3, 0.0000000000000000e+00
N6, 1, 1, 3.0000000000000027e-02
N6, 2, 2, 0.0000000000000000e+00
N6, 3, 3, 0.0000000000000000e+00
N7, 1, 1, 7.0000000000000062e-02
N7, 2, 2, 0.0000000000000000e+00
N7, 3, 3, 0.0000000000000000e+00
N8, 1, 1, 4.0000000000000001e-02
N8, 2, 2, 0.0000000000000000e+00
N8, 3, 3, 0.0000000000000000e+00
*Output, field, frequency=1
*Node Output
NT, RFL, RF, U
*Element Output, directions=YES
COORD, E, EE, IVOL, LE, S, TEMP
*Output, history, frequency=1
*Energy Output
ALLIE, ALLSE, ALLWK
*End Step
