*Heading
** B5.19 Abaqus/Standard finite-strain C3D8T selective-volume probe.
** SI units: metre, kelvin, newton, pascal.
*Preprint, echo=NO, model=NO, history=NO, contact=NO
*Node
1, 0.0000000000000000e+00, 0.0000000000000000e+00, 0.0000000000000000e+00
2, 1.0000000000000000e+00, 0.0000000000000000e+00, 0.0000000000000000e+00
3, 1.0000000000000000e+00, 1.0000000000000000e+00, 0.0000000000000000e+00
4, 0.0000000000000000e+00, 1.0000000000000000e+00, 0.0000000000000000e+00
5, 0.0000000000000000e+00, 0.0000000000000000e+00, 1.0000000000000000e+00
6, 1.0000000000000000e+00, 0.0000000000000000e+00, 1.0000000000000000e+00
7, 1.0000000000000000e+00, 1.0000000000000000e+00, 1.0000000000000000e+00
8, 0.0000000000000000e+00, 1.0000000000000000e+00, 1.0000000000000000e+00
*Element, type=C3D8T, elset=VOLUME
1, 1, 2, 3, 4, 5, 6, 7, 8
*Nset, nset=ALL_NODES, generate
1, 8, 1
*Material, name=ELASTIC
*Elastic
2.0000000000000000e11, 2.5000000000000000e-1
*Conductivity
1.0
*Density
1.0
*Specific Heat
1.0
*Solid Section, elset=VOLUME, material=ELASTIC
,
*Initial Conditions, type=TEMPERATURE
ALL_NODES, 6.0000000000000000e2
*Step, name=PROBE, nlgeom=YES, inc=1
*Coupled Temperature-Displacement, steady state
1.0, 1.0, 1.0, 1.0
*Boundary, op=NEW
1, 11, 11, 6.0000000000000000e+02
1, 1, 1, 0.0000000000000000e+00
1, 2, 2, 0.0000000000000000e+00
1, 3, 3, 0.0000000000000000e+00
2, 11, 11, 6.0000000000000000e+02
2, 1, 1, 2.4000000000000000e-02
2, 2, 2, -4.0000000000000001e-03
2, 3, 3, 6.0000000000000001e-03
3, 11, 11, 6.0000000000000000e+02
3, 1, 1, 3.4000000000000002e-02
3, 2, 2, 1.8000000000000002e-02
3, 3, 3, -8.0000000000000002e-03
4, 11, 11, 6.0000000000000000e+02
4, 1, 1, -8.0000000000000002e-03
4, 2, 2, 2.2000000000000002e-02
4, 3, 3, 4.0000000000000001e-03
5, 11, 11, 6.0000000000000000e+02
5, 1, 1, 6.0000000000000001e-03
5, 2, 2, -1.0000000000000000e-02
5, 3, 3, 2.7999999999999997e-02
6, 11, 11, 6.0000000000000000e+02
6, 1, 1, 2.0000000000000000e-02
6, 2, 2, 8.0000000000000002e-03
6, 3, 3, 2.0000000000000000e-02
7, 11, 11, 6.0000000000000000e+02
7, 1, 1, 4.5999999999999999e-02
7, 2, 2, 3.2000000000000001e-02
7, 3, 3, 3.6000000000000004e-02
8, 11, 11, 6.0000000000000000e+02
8, 1, 1, -1.6000000000000000e-02
8, 2, 2, 1.3999999999999999e-02
8, 3, 3, 2.2000000000000002e-02
*Output, field, frequency=1
*Node Output
COORD, NT, RF, RFL, U
*Element Output, directions=YES
COORD, E, IVOL, LE, S, TEMP
*End Step
