*Heading
** B5.1 Abaqus/Standard C3D8T finite-deformation heat-configuration probe.
** SI units: metre, second, kelvin, watt.
*Preprint, echo=NO, model=NO, history=NO, contact=NO
*Node
1, 0.0000000000000000e+00, 0.0000000000000000e+00, 0.0000000000000000e+00
2, 1.0000000000000000e+00, 0.0000000000000000e+00, 0.0000000000000000e+00
3, 1.0000000000000000e+00, 1.0000000000000000e+00, 0.0000000000000000e+00
4, 0.0000000000000000e+00, 1.0000000000000000e+00, 0.0000000000000000e+00
5, 0.0000000000000000e+00, 0.0000000000000000e+00, 1.0000000000000000e+00
6, 1.0000000000000000e+00, 0.0000000000000000e+00, 1.0000000000000000e+00
7, 1.0000000000000000e+00, 1.0000000000000000e+00, 1.0000000000000000e+00
8, 0.0000000000000000e+00, 1.0000000000000000e+00, 1.0000000000000000e+00
*Element, type=C3D8T, elset=VOLUME
1, 1, 2, 3, 4, 5, 6, 7, 8
*Nset, nset=ALL_NODES, generate
1, 8, 1
*Nset, nset=COLD
1, 4, 5, 8
*Nset, nset=HOT
2, 3, 6, 7
*Material, name=THERMAL
*Elastic
2.0000000000000000e11, 2.5000000000000000e-1
*Expansion, zero=3.0000000000000000e2
0.0
*Conductivity
4.0000000000000000e0
*Density
2.0000000000000000e3
*Specific Heat
3.0000000000000000e3
*Solid Section, elset=VOLUME, material=THERMAL
,
*Initial Conditions, type=TEMPERATURE
ALL_NODES, 3.0000000000000000e2
*Step, name=DEFORM, nlgeom=YES, inc=10
*Coupled Temperature-Displacement, steady state
1.0, 1.0, 1.0, 1.0
*Boundary
ALL_NODES, 11, 11, 3.0000000000000000e2
1, 1, 1, 0.0000000000000000e+00
1, 2, 2, 0.0000000000000000e+00
1, 3, 3, -0.0000000000000000e+00
2, 1, 1, 5.0000000000000000e-01
2, 2, 2, 0.0000000000000000e+00
2, 3, 3, -0.0000000000000000e+00
3, 1, 1, 5.0000000000000000e-01
3, 2, 2, 2.5000000000000000e-01
3, 3, 3, -0.0000000000000000e+00
4, 1, 1, 0.0000000000000000e+00
4, 2, 2, 2.5000000000000000e-01
4, 3, 3, -0.0000000000000000e+00
5, 1, 1, 0.0000000000000000e+00
5, 2, 2, 0.0000000000000000e+00
5, 3, 3, -2.0000000000000001e-01
6, 1, 1, 5.0000000000000000e-01
6, 2, 2, 0.0000000000000000e+00
6, 3, 3, -2.0000000000000001e-01
7, 1, 1, 5.0000000000000000e-01
7, 2, 2, 2.5000000000000000e-01
7, 3, 3, -2.0000000000000001e-01
8, 1, 1, 0.0000000000000000e+00
8, 2, 2, 2.5000000000000000e-01
8, 3, 3, -2.0000000000000001e-01
*Output, field, frequency=1
*Node Output
COORD, NT, RFL, RF, U
*Element Output, directions=YES
COORD, HFL
*End Step
*Step, name=HEAT, nlgeom=YES, inc=10
*Coupled Temperature-Displacement, steady state
1.0, 1.0, 1.0, 1.0
*Boundary
COLD, 11, 11, 3.0000000000000000e2
HOT, 11, 11, 4.0000000000000000e2
*Output, field, frequency=1
*Node Output
COORD, NT, RFL, RF, U
*Element Output, directions=YES
COORD, HFL
*End Step
