*Heading
** B5.21 C3D8T pressure-dependent thermal contact through close, slide, open, and recontact.
*Preprint, echo=NO, model=NO, history=NO, contact=YES
*Node
1, 0.0000000000000000e+00, 0.0000000000000000e+00, -1.0000000000000000e+00
2, 1.0000000000000000e+00, 0.0000000000000000e+00, -1.0000000000000000e+00
3, 1.0000000000000000e+00, 1.0000000000000000e+00, -1.0000000000000000e+00
4, 0.0000000000000000e+00, 1.0000000000000000e+00, -1.0000000000000000e+00
5, 0.0000000000000000e+00, 0.0000000000000000e+00, 2.0000000000000000e+00
6, 1.0000000000000000e+00, 0.0000000000000000e+00, 2.0000000000000000e+00
7, 1.0000000000000000e+00, 1.0000000000000000e+00, 2.0000000000000000e+00
8, 0.0000000000000000e+00, 1.0000000000000000e+00, 2.0000000000000000e+00
9, 1.0000000000000000e+00, 2.0000000000000000e+00, -1.0000000000000000e+00
10, 0.0000000000000000e+00, 2.0000000000000000e+00, -1.0000000000000000e+00
11, 1.0000000000000000e+00, 2.0000000000000000e+00, 2.0000000000000000e+00
12, 0.0000000000000000e+00, 2.0000000000000000e+00, 2.0000000000000000e+00
13, 1.0000000000000000e+00, 1.0000000000000001e-01, 1.0000000000000001e-01
14, 2.0000000000000000e+00, 1.0000000000000001e-01, 1.0000000000000001e-01
15, 2.0000000000000000e+00, 9.0000000000000002e-01, 1.0000000000000001e-01
16, 1.0000000000000000e+00, 9.0000000000000002e-01, 1.0000000000000001e-01
17, 1.0000000000000000e+00, 1.0000000000000001e-01, 9.0000000000000002e-01
18, 2.0000000000000000e+00, 1.0000000000000001e-01, 9.0000000000000002e-01
19, 2.0000000000000000e+00, 9.0000000000000002e-01, 9.0000000000000002e-01
20, 1.0000000000000000e+00, 9.0000000000000002e-01, 9.0000000000000002e-01
*Element, type=C3D8T, elset=PRIMARY
1, 1, 2, 3, 4, 5, 6, 7, 8
2, 4, 3, 9, 10, 8, 7, 11, 12
*Element, type=C3D8T, elset=SECONDARY
3, 13, 14, 15, 16, 17, 18, 19, 20
*Nset, nset=ALL_NODES, generate
1, 20, 1
*Nset, nset=PRIMARY_ALL
1, 2, 3, 4, 5, 6, 7, 8, 9, 10, 11, 12
*Nset, nset=SECONDARY_ALL
13, 14, 15, 16, 17, 18, 19, 20
*Surface, type=ELEMENT, name=PRIMARY_CONTACT
PRIMARY, S4
*Surface, type=ELEMENT, name=SECONDARY_CONTACT
SECONDARY, S6
*Material, name=THERMOELASTIC
*Elastic
1.0000000000000000e9, 2.5000000000000000e-1
*Expansion, zero=3.0000000000000000e2
0.0
*Conductivity
1.0000000000000000e1
*Density
1.0
*Specific Heat
1.0
*Solid Section, elset=PRIMARY, material=THERMOELASTIC
,
*Solid Section, elset=SECONDARY, material=THERMOELASTIC
,
*Surface Interaction, name=CONTACT
*Surface Behavior, pressure-overclosure=LINEAR
1.0000000000000000e5
*Friction, slip tolerance=0.025
3.0000000000000000e-1
*Gap Conductance, pressure
0.0000000000000000e0, 0.0000000000000000e0
4.0000000000000000e1, 2.0000000000000000e3
*Contact Pair, interaction=CONTACT, type=SURFACE TO SURFACE, adjust=0.
SECONDARY_CONTACT, PRIMARY_CONTACT
*Initial Conditions, type=TEMPERATURE
PRIMARY_ALL, 3.0000000000000000e2
SECONDARY_ALL, 4.0000000000000000e2
*Step, name=CLOSE, nlgeom=YES, inc=100
*Coupled Temperature-Displacement, steady state
0.1, 1.0, 1.0e-8, 0.1
*Boundary, op=NEW
PRIMARY_ALL, 1, 3, 0.0
PRIMARY_ALL, 11, 11, 3.0000000000000000e2
SECONDARY_ALL, 1, 1, -1.0000000000000000e-02
SECONDARY_ALL, 2, 2, 5.0000000000000003e-02
SECONDARY_ALL, 3, 3, 4.0000000000000001e-02
SECONDARY_ALL, 11, 11, 4.0000000000000000e2
*Output, field, frequency=1
*Node Output
COORD, NT, RF, RFL, U
*Contact Output
CSTRESS, CDISP, CFORCE, HFL
*End Step
*Step, name=SLIDE, nlgeom=YES, inc=100
*Coupled Temperature-Displacement, steady state
0.1, 1.0, 1.0e-8, 0.1
*Boundary, op=NEW
PRIMARY_ALL, 1, 3, 0.0
PRIMARY_ALL, 11, 11, 3.0000000000000000e2
SECONDARY_ALL, 1, 1, -1.0000000000000000e-02
SECONDARY_ALL, 2, 2, 9.4999999999999996e-01
SECONDARY_ALL, 3, 3, 2.0000000000000001e-01
SECONDARY_ALL, 11, 11, 4.0000000000000000e2
*Output, field, frequency=1
*Node Output
COORD, NT, RF, RFL, U
*Contact Output
CSTRESS, CDISP, CFORCE, HFL
*End Step
*Step, name=OPEN, nlgeom=YES, inc=100
*Coupled Temperature-Displacement, steady state
0.1, 1.0, 1.0e-8, 0.1
*Boundary, op=NEW
PRIMARY_ALL, 1, 3, 0.0
PRIMARY_ALL, 11, 11, 3.0000000000000000e2
SECONDARY_ALL, 1, 1, 2.0000000000000000e-02
SECONDARY_ALL, 2, 2, 9.4999999999999996e-01
SECONDARY_ALL, 3, 3, 2.0000000000000001e-01
SECONDARY_ALL, 11, 11, 4.0000000000000000e2
*Output, field, frequency=1
*Node Output
COORD, NT, RF, RFL, U
*Contact Output
CSTRESS, CDISP, CFORCE, HFL
*End Step
*Step, name=OPEN_CROSS, nlgeom=YES, inc=100
*Coupled Temperature-Displacement, steady state
0.1, 1.0, 1.0e-8, 0.1
*Boundary, op=NEW
PRIMARY_ALL, 1, 3, 0.0
PRIMARY_ALL, 11, 11, 3.0000000000000000e2
SECONDARY_ALL, 1, 1, 2.0000000000000000e-02
SECONDARY_ALL, 2, 2, 5.0000000000000003e-02
SECONDARY_ALL, 3, 3, 4.0000000000000002e-01
SECONDARY_ALL, 11, 11, 4.0000000000000000e2
*Output, field, frequency=1
*Node Output
COORD, NT, RF, RFL, U
*Contact Output
CSTRESS, CDISP, CFORCE, HFL
*End Step
*Step, name=RECONTACT, nlgeom=YES, inc=100
*Coupled Temperature-Displacement, steady state
0.1, 1.0, 1.0e-8, 0.1
*Boundary, op=NEW
PRIMARY_ALL, 1, 3, 0.0
PRIMARY_ALL, 11, 11, 3.0000000000000000e2
SECONDARY_ALL, 1, 1, -1.0000000000000000e-02
SECONDARY_ALL, 2, 2, 5.0000000000000003e-02
SECONDARY_ALL, 3, 3, 4.0000000000000002e-01
SECONDARY_ALL, 11, 11, 4.0000000000000000e2
*Output, field, frequency=1
*Node Output
COORD, NT, RF, RFL, U
*Contact Output
CSTRESS, CDISP, CFORCE, HFL
*End Step
