*Heading
** B5.22 faceted-cylinder C3D8T pressure-dependent thermal contact.
*Preprint, echo=NO, model=NO, history=NO, contact=YES
*Node
1, 8.0000000000000004e-01, 0.0000000000000000e+00, 0.0000000000000000e+00
2, 1.0000000000000000e+00, 0.0000000000000000e+00, 0.0000000000000000e+00
3, 9.6592582628906831e-01, 2.5881904510252074e-01, 0.0000000000000000e+00
4, 7.7274066103125472e-01, 2.0705523608201659e-01, 0.0000000000000000e+00
5, 8.0000000000000004e-01, 0.0000000000000000e+00, 1.0000000000000000e+00
6, 1.0000000000000000e+00, 0.0000000000000000e+00, 1.0000000000000000e+00
7, 9.6592582628906831e-01, 2.5881904510252074e-01, 1.0000000000000000e+00
8, 7.7274066103125472e-01, 2.0705523608201659e-01, 1.0000000000000000e+00
9, 8.6602540378443871e-01, 4.9999999999999994e-01, 0.0000000000000000e+00
10, 6.9282032302755103e-01, 3.9999999999999997e-01, 0.0000000000000000e+00
11, 8.6602540378443871e-01, 4.9999999999999994e-01, 1.0000000000000000e+00
12, 6.9282032302755103e-01, 3.9999999999999997e-01, 1.0000000000000000e+00
13, 7.0710678118654757e-01, 7.0710678118654746e-01, 0.0000000000000000e+00
14, 5.6568542494923812e-01, 5.6568542494923801e-01, 0.0000000000000000e+00
15, 7.0710678118654757e-01, 7.0710678118654746e-01, 1.0000000000000000e+00
16, 5.6568542494923812e-01, 5.6568542494923801e-01, 1.0000000000000000e+00
17, 5.0000000000000011e-01, 8.6602540378443860e-01, 0.0000000000000000e+00
18, 4.0000000000000013e-01, 6.9282032302755092e-01, 0.0000000000000000e+00
19, 5.0000000000000011e-01, 8.6602540378443860e-01, 1.0000000000000000e+00
20, 4.0000000000000013e-01, 6.9282032302755092e-01, 1.0000000000000000e+00
21, 2.5881904510252074e-01, 9.6592582628906831e-01, 0.0000000000000000e+00
22, 2.0705523608201659e-01, 7.7274066103125472e-01, 0.0000000000000000e+00
23, 2.5881904510252074e-01, 9.6592582628906831e-01, 1.0000000000000000e+00
24, 2.0705523608201659e-01, 7.7274066103125472e-01, 1.0000000000000000e+00
25, 6.1232339957367660e-17, 1.0000000000000000e+00, 0.0000000000000000e+00
26, 4.8985871965894131e-17, 8.0000000000000004e-01, 0.0000000000000000e+00
27, 6.1232339957367660e-17, 1.0000000000000000e+00, 1.0000000000000000e+00
28, 4.8985871965894131e-17, 8.0000000000000004e-01, 1.0000000000000000e+00
29, 1.0049999999999999e+00, 0.0000000000000000e+00, 0.0000000000000000e+00
30, 1.2000000000000000e+00, 0.0000000000000000e+00, 0.0000000000000000e+00
31, 1.1591109915468820e+00, 3.1058285412302489e-01, 0.0000000000000000e+00
32, 9.7075545542051356e-01, 2.6011314032803334e-01, 0.0000000000000000e+00
33, 1.0049999999999999e+00, 0.0000000000000000e+00, 1.0000000000000000e+00
34, 1.2000000000000000e+00, 0.0000000000000000e+00, 1.0000000000000000e+00
35, 1.1591109915468820e+00, 3.1058285412302489e-01, 1.0000000000000000e+00
36, 9.7075545542051356e-01, 2.6011314032803334e-01, 1.0000000000000000e+00
37, 1.0392304845413265e+00, 5.9999999999999987e-01, 0.0000000000000000e+00
38, 8.7035553080336081e-01, 5.0249999999999984e-01, 0.0000000000000000e+00
39, 1.0392304845413265e+00, 5.9999999999999987e-01, 1.0000000000000000e+00
40, 8.7035553080336081e-01, 5.0249999999999984e-01, 1.0000000000000000e+00
41, 8.4852813742385702e-01, 8.4852813742385691e-01, 0.0000000000000000e+00
42, 7.1064231509248021e-01, 7.1064231509248010e-01, 0.0000000000000000e+00
43, 8.4852813742385702e-01, 8.4852813742385691e-01, 1.0000000000000000e+00
44, 7.1064231509248021e-01, 7.1064231509248010e-01, 1.0000000000000000e+00
45, 6.0000000000000009e-01, 1.0392304845413263e+00, 0.0000000000000000e+00
46, 5.0250000000000006e-01, 8.7035553080336070e-01, 0.0000000000000000e+00
47, 6.0000000000000009e-01, 1.0392304845413263e+00, 1.0000000000000000e+00
48, 5.0250000000000006e-01, 8.7035553080336070e-01, 1.0000000000000000e+00
49, 3.1058285412302489e-01, 1.1591109915468820e+00, 0.0000000000000000e+00
50, 2.6011314032803334e-01, 9.7075545542051356e-01, 0.0000000000000000e+00
51, 3.1058285412302489e-01, 1.1591109915468820e+00, 1.0000000000000000e+00
52, 2.6011314032803334e-01, 9.7075545542051356e-01, 1.0000000000000000e+00
53, 7.3478807948841190e-17, 1.2000000000000000e+00, 0.0000000000000000e+00
54, 6.1538501657154492e-17, 1.0049999999999999e+00, 0.0000000000000000e+00
55, 7.3478807948841190e-17, 1.2000000000000000e+00, 1.0000000000000000e+00
56, 6.1538501657154492e-17, 1.0049999999999999e+00, 1.0000000000000000e+00
*Element, type=C3D8T, elset=PRIMARY
1, 1, 2, 3, 4, 5, 6, 7, 8
2, 4, 3, 9, 10, 8, 7, 11, 12
3, 10, 9, 13, 14, 12, 11, 15, 16
4, 14, 13, 17, 18, 16, 15, 19, 20
5, 18, 17, 21, 22, 20, 19, 23, 24
6, 22, 21, 25, 26, 24, 23, 27, 28
*Element, type=C3D8T, elset=SECONDARY
7, 29, 30, 31, 32, 33, 34, 35, 36
8, 32, 31, 37, 38, 36, 35, 39, 40
9, 38, 37, 41, 42, 40, 39, 43, 44
10, 42, 41, 45, 46, 44, 43, 47, 48
11, 46, 45, 49, 50, 48, 47, 51, 52
12, 50, 49, 53, 54, 52, 51, 55, 56
*Nset, nset=ALL_NODES, generate
1, 56, 1
*Nset, nset=PRIMARY_ALL, generate
1, 28, 1
*Nset, nset=SECONDARY_ALL, generate
29, 56, 1
*Surface, type=ELEMENT, name=PRIMARY_CONTACT
PRIMARY, S4
*Surface, type=ELEMENT, name=SECONDARY_CONTACT
SECONDARY, S6
*Material, name=THERMOELASTIC
*Elastic
1.0000000000000000e9, 0.0
*Expansion, zero=3.0000000000000000e2
0.0
*Conductivity
1.0000000000000000e1
*Density
1.0
*Specific Heat
1.0
*Solid Section, elset=PRIMARY, material=THERMOELASTIC
,
*Solid Section, elset=SECONDARY, material=THERMOELASTIC
,
*Surface Interaction, name=CONTACT
*Surface Behavior, pressure-overclosure=LINEAR
1.0000000000000000e7
*Friction
1.0000000000000001e-1
*Gap Conductance, pressure
0.0000000000000000e0, 0.0000000000000000e0
2.0000000000000000e2, 2.0000000000000000e5
*Contact Pair, interaction=CONTACT, type=SURFACE TO SURFACE, adjust=0.
SECONDARY_CONTACT, PRIMARY_CONTACT
*Initial Conditions, type=TEMPERATURE
PRIMARY_ALL, 3.0000000000000000e2
SECONDARY_ALL, 4.0000000000000000e2
*Step, name=LOAD, nlgeom=YES, inc=20
*Coupled Temperature-Displacement, steady state
1.0, 1.0, 1.0e-8, 1.0
*Boundary, op=NEW
1, 1, 3, 0.0
1, 11, 11, 3.0000000000000000e2
2, 1, 3, 0.0
2, 11, 11, 3.0000000000000000e2
3, 1, 3, 0.0
3, 11, 11, 3.0000000000000000e2
4, 1, 3, 0.0
4, 11, 11, 3.0000000000000000e2
5, 1, 3, 0.0
5, 11, 11, 3.0000000000000000e2
6, 1, 3, 0.0
6, 11, 11, 3.0000000000000000e2
7, 1, 3, 0.0
7, 11, 11, 3.0000000000000000e2
8, 1, 3, 0.0
8, 11, 11, 3.0000000000000000e2
9, 1, 3, 0.0
9, 11, 11, 3.0000000000000000e2
10, 1, 3, 0.0
10, 11, 11, 3.0000000000000000e2
11, 1, 3, 0.0
11, 11, 11, 3.0000000000000000e2
12, 1, 3, 0.0
12, 11, 11, 3.0000000000000000e2
13, 1, 3, 0.0
13, 11, 11, 3.0000000000000000e2
14, 1, 3, 0.0
14, 11, 11, 3.0000000000000000e2
15, 1, 3, 0.0
15, 11, 11, 3.0000000000000000e2
16, 1, 3, 0.0
16, 11, 11, 3.0000000000000000e2
17, 1, 3, 0.0
17, 11, 11, 3.0000000000000000e2
18, 1, 3, 0.0
18, 11, 11, 3.0000000000000000e2
19, 1, 3, 0.0
19, 11, 11, 3.0000000000000000e2
20, 1, 3, 0.0
20, 11, 11, 3.0000000000000000e2
21, 1, 3, 0.0
21, 11, 11, 3.0000000000000000e2
22, 1, 3, 0.0
22, 11, 11, 3.0000000000000000e2
23, 1, 3, 0.0
23, 11, 11, 3.0000000000000000e2
24, 1, 3, 0.0
24, 11, 11, 3.0000000000000000e2
25, 1, 3, 0.0
25, 11, 11, 3.0000000000000000e2
26, 1, 3, 0.0
26, 11, 11, 3.0000000000000000e2
27, 1, 3, 0.0
27, 11, 11, 3.0000000000000000e2
28, 1, 3, 0.0
28, 11, 11, 3.0000000000000000e2
29, 1, 1, -1.4999999999999999e-02
29, 2, 2, -0.0000000000000000e+00
29, 3, 3, 0.0000000000000000e+00
29, 11, 11, 4.0000000000000000e2
30, 1, 1, -1.4999999999999999e-02
30, 2, 2, -0.0000000000000000e+00
30, 3, 3, 0.0000000000000000e+00
30, 11, 11, 4.0000000000000000e2
31, 1, 1, -1.4488887394336025e-02
31, 2, 2, -3.8822856765378115e-03
31, 3, 3, 0.0000000000000000e+00
31, 11, 11, 4.0000000000000000e2
32, 1, 1, -1.4488887394336025e-02
32, 2, 2, -3.8822856765378115e-03
32, 3, 3, 0.0000000000000000e+00
32, 11, 11, 4.0000000000000000e2
33, 1, 1, -1.4999999999999999e-02
33, 2, 2, -0.0000000000000000e+00
33, 3, 3, 0.0000000000000000e+00
33, 11, 11, 4.0000000000000000e2
34, 1, 1, -1.4999999999999999e-02
34, 2, 2, -0.0000000000000000e+00
34, 3, 3, 0.0000000000000000e+00
34, 11, 11, 4.0000000000000000e2
35, 1, 1, -1.4488887394336025e-02
35, 2, 2, -3.8822856765378115e-03
35, 3, 3, 0.0000000000000000e+00
35, 11, 11, 4.0000000000000000e2
36, 1, 1, -1.4488887394336025e-02
36, 2, 2, -3.8822856765378115e-03
36, 3, 3, 0.0000000000000000e+00
36, 11, 11, 4.0000000000000000e2
37, 1, 1, -1.2990381056766580e-02
37, 2, 2, -7.4999999999999980e-03
37, 3, 3, 0.0000000000000000e+00
37, 11, 11, 4.0000000000000000e2
38, 1, 1, -1.2990381056766580e-02
38, 2, 2, -7.4999999999999980e-03
38, 3, 3, 0.0000000000000000e+00
38, 11, 11, 4.0000000000000000e2
39, 1, 1, -1.2990381056766580e-02
39, 2, 2, -7.4999999999999980e-03
39, 3, 3, 0.0000000000000000e+00
39, 11, 11, 4.0000000000000000e2
40, 1, 1, -1.2990381056766580e-02
40, 2, 2, -7.4999999999999980e-03
40, 3, 3, 0.0000000000000000e+00
40, 11, 11, 4.0000000000000000e2
41, 1, 1, -1.0606601717798213e-02
41, 2, 2, -1.0606601717798212e-02
41, 3, 3, 0.0000000000000000e+00
41, 11, 11, 4.0000000000000000e2
42, 1, 1, -1.0606601717798213e-02
42, 2, 2, -1.0606601717798212e-02
42, 3, 3, 0.0000000000000000e+00
42, 11, 11, 4.0000000000000000e2
43, 1, 1, -1.0606601717798213e-02
43, 2, 2, -1.0606601717798212e-02
43, 3, 3, 0.0000000000000000e+00
43, 11, 11, 4.0000000000000000e2
44, 1, 1, -1.0606601717798213e-02
44, 2, 2, -1.0606601717798212e-02
44, 3, 3, 0.0000000000000000e+00
44, 11, 11, 4.0000000000000000e2
45, 1, 1, -7.5000000000000015e-03
45, 2, 2, -1.2990381056766580e-02
45, 3, 3, 0.0000000000000000e+00
45, 11, 11, 4.0000000000000000e2
46, 1, 1, -7.5000000000000015e-03
46, 2, 2, -1.2990381056766578e-02
46, 3, 3, 0.0000000000000000e+00
46, 11, 11, 4.0000000000000000e2
47, 1, 1, -7.5000000000000015e-03
47, 2, 2, -1.2990381056766580e-02
47, 3, 3, 0.0000000000000000e+00
47, 11, 11, 4.0000000000000000e2
48, 1, 1, -7.5000000000000015e-03
48, 2, 2, -1.2990381056766578e-02
48, 3, 3, 0.0000000000000000e+00
48, 11, 11, 4.0000000000000000e2
49, 1, 1, -3.8822856765378115e-03
49, 2, 2, -1.4488887394336025e-02
49, 3, 3, 0.0000000000000000e+00
49, 11, 11, 4.0000000000000000e2
50, 1, 1, -3.8822856765378115e-03
50, 2, 2, -1.4488887394336025e-02
50, 3, 3, 0.0000000000000000e+00
50, 11, 11, 4.0000000000000000e2
51, 1, 1, -3.8822856765378115e-03
51, 2, 2, -1.4488887394336025e-02
51, 3, 3, 0.0000000000000000e+00
51, 11, 11, 4.0000000000000000e2
52, 1, 1, -3.8822856765378115e-03
52, 2, 2, -1.4488887394336025e-02
52, 3, 3, 0.0000000000000000e+00
52, 11, 11, 4.0000000000000000e2
53, 1, 1, -9.1848509936051480e-19
53, 2, 2, -1.4999999999999999e-02
53, 3, 3, 0.0000000000000000e+00
53, 11, 11, 4.0000000000000000e2
54, 1, 1, -9.1848509936051480e-19
54, 2, 2, -1.4999999999999999e-02
54, 3, 3, 0.0000000000000000e+00
54, 11, 11, 4.0000000000000000e2
55, 1, 1, -9.1848509936051480e-19
55, 2, 2, -1.4999999999999999e-02
55, 3, 3, 0.0000000000000000e+00
55, 11, 11, 4.0000000000000000e2
56, 1, 1, -9.1848509936051480e-19
56, 2, 2, -1.4999999999999999e-02
56, 3, 3, 0.0000000000000000e+00
56, 11, 11, 4.0000000000000000e2
*Output, field, frequency=1
*Node Output
COORD, NT, RF, RFL, U
*Contact Output
CSTRESS, CDISP, CFORCE, HFL
*End Step
