*Heading
** b524_time_fine: generated full-field Abaqus reference.
** through=2 tangential=1 step=1.0000000000000000e-02 distortion=0.0000000000000000e+00 initial_gap=0.0000000000000000e+00 path=monotonic
*Preprint, echo=NO, model=NO, history=NO, contact=YES
*Node
1, 0.0000000000000000e+00, 0.0000000000000000e+00, 0.0000000000000000e+00
2, 5.0000000000000000e-01, 0.0000000000000000e+00, 0.0000000000000000e+00
3, 1.0000000000000000e+00, 0.0000000000000000e+00, 0.0000000000000000e+00
4, 0.0000000000000000e+00, 1.0000000000000000e+00, 0.0000000000000000e+00
5, 5.0000000000000000e-01, 1.0000000000000000e+00, 0.0000000000000000e+00
6, 1.0000000000000000e+00, 1.0000000000000000e+00, 0.0000000000000000e+00
7, 0.0000000000000000e+00, 0.0000000000000000e+00, 1.0000000000000000e+00
8, 5.0000000000000000e-01, 0.0000000000000000e+00, 1.0000000000000000e+00
9, 1.0000000000000000e+00, 0.0000000000000000e+00, 1.0000000000000000e+00
10, 0.0000000000000000e+00, 1.0000000000000000e+00, 1.0000000000000000e+00
11, 5.0000000000000000e-01, 1.0000000000000000e+00, 1.0000000000000000e+00
12, 1.0000000000000000e+00, 1.0000000000000000e+00, 1.0000000000000000e+00
13, 1.0000000000000000e+00, 0.0000000000000000e+00, 0.0000000000000000e+00
14, 1.5000000000000000e+00, 0.0000000000000000e+00, 0.0000000000000000e+00
15, 2.0000000000000000e+00, 0.0000000000000000e+00, 0.0000000000000000e+00
16, 1.0000000000000000e+00, 1.0000000000000000e+00, 0.0000000000000000e+00
17, 1.5000000000000000e+00, 1.0000000000000000e+00, 0.0000000000000000e+00
18, 2.0000000000000000e+00, 1.0000000000000000e+00, 0.0000000000000000e+00
19, 1.0000000000000000e+00, 0.0000000000000000e+00, 1.0000000000000000e+00
20, 1.5000000000000000e+00, 0.0000000000000000e+00, 1.0000000000000000e+00
21, 2.0000000000000000e+00, 0.0000000000000000e+00, 1.0000000000000000e+00
22, 1.0000000000000000e+00, 1.0000000000000000e+00, 1.0000000000000000e+00
23, 1.5000000000000000e+00, 1.0000000000000000e+00, 1.0000000000000000e+00
24, 2.0000000000000000e+00, 1.0000000000000000e+00, 1.0000000000000000e+00
*Element, type=C3D8T, elset=PRIMARY
1, 1, 2, 5, 4, 7, 8, 11, 10
2, 2, 3, 6, 5, 8, 9, 12, 11
*Element, type=C3D8T, elset=SECONDARY
3, 13, 14, 17, 16, 19, 20, 23, 22
4, 14, 15, 18, 17, 20, 21, 24, 23
*Elset, elset=PRIMARY_CONTACT_ELEMENTS
2
*Elset, elset=SECONDARY_CONTACT_ELEMENTS
3
*Elset, elset=SECONDARY_OUTER_ELEMENTS
4
*Nset, nset=ALL_NODES
1, 2, 3, 4, 5, 6, 7, 8, 9, 10, 11, 12, 13, 14, 15, 16
17, 18, 19, 20, 21, 22, 23, 24
*Nset, nset=PRIMARY_OUTER_NODES
1, 4, 7, 10
*Nset, nset=SECONDARY_OUTER_NODES
15, 18, 21, 24
*Nset, nset=SECONDARY_CONTACT_NODES
13, 16, 19, 22
*Surface, type=ELEMENT, name=PRIMARY_CONTACT
PRIMARY_CONTACT_ELEMENTS, S4
*Surface, type=ELEMENT, name=SECONDARY_CONTACT
SECONDARY_CONTACT_ELEMENTS, S6
*Surface, type=ELEMENT, name=SECONDARY_OUTER
SECONDARY_OUTER_ELEMENTS, S4
*Material, name=PRIMARY_MATERIAL
*Elastic
1.2000000000000000e8, 2.8000000000000003e-01, 3.0000000000000000e2
1.0000000000000000e8, 2.8000000000000003e-01, 5.0000000000000000e2
*Expansion, zero=3.0000000000000000e2
8.0000000000000007e-6
*Conductivity
1.5000000000000000e1, 3.0000000000000000e2
1.8000000000000000e1, 5.0000000000000000e2
*Density
1.0000000000000000e2
*Specific Heat
1.0000000000000000e0, 3.0000000000000000e2
1.2000000000000000e0, 5.0000000000000000e2
*Material, name=SECONDARY_MATERIAL
*Elastic
1.0000000000000000e8, 2.9999999999999999e-01, 3.0000000000000000e2
9.0000000000000000e7, 2.9999999999999999e-01, 5.0000000000000000e2
*Expansion, zero=3.0000000000000000e2
1.0000000000000001e-5
*Plastic
2.0000000000000000e5, 0.0, 3.0000000000000000e2
1.0200000000000000e7, 1.0, 3.0000000000000000e2
1.8000000000000000e5, 0.0, 5.0000000000000000e2
9.1800000000000000e6, 1.0, 5.0000000000000000e2
*Creep, law=TIME
1.2500000000000001e-20, 3.0, 0.0, 3.0000000000000000e2
1.7500000000000000e-20, 3.0, 0.0, 5.0000000000000000e2
*Conductivity
1.0000000000000000e1, 3.0000000000000000e2
1.2000000000000000e1, 5.0000000000000000e2
*Density
1.0000000000000000e2
*Specific Heat
1.0000000000000000e0, 3.0000000000000000e2
1.2000000000000000e0, 5.0000000000000000e2
*Solid Section, elset=PRIMARY, material=PRIMARY_MATERIAL
,
*Solid Section, elset=SECONDARY, material=SECONDARY_MATERIAL
,
*Surface Interaction, name=COUPLED_CONTACT
*Surface Behavior, pressure-overclosure=LINEAR
1.0000000000000000e+09
*Friction, slip tolerance=5.0000000000000001e-03
5.0000000000000003e-02
*Gap Conductance, pressure
5.0000000000000000e+01, 0.0
5.5000000000000000e+02, 5.0e5
*Contact Pair, interaction=COUPLED_CONTACT, type=SURFACE TO SURFACE, adjust=0.
SECONDARY_CONTACT, PRIMARY_CONTACT
*Amplitude, name=TEMPERATURE_PATH, time=TOTAL TIME
0.0000000000000000e+00, 3.0000000000000000e+02, 1.0000000000000001e-01, 3.5000000000000000e+02, 2.0000000000000001e-01, 4.0000000000000000e+02, 2.9999999999999999e-01, 4.5000000000000000e+02
4.0000000000000002e-01, 5.0000000000000000e+02
*Amplitude, name=PRESSURE_PATH, time=TOTAL TIME
0.0000000000000000e+00, 0.0000000000000000e+00, 1.0000000000000001e-01, 8.7500000000000000e+04, 2.0000000000000001e-01, 1.7500000000000000e+05, 2.9999999999999999e-01, 2.6250000000000000e+05
4.0000000000000002e-01, 3.5000000000000000e+05
*Amplitude, name=NORMAL_PATH, time=TOTAL TIME
0.0000000000000000e+00, 0.0000000000000000e+00, 1.0000000000000001e-01, 0.0000000000000000e+00, 2.0000000000000001e-01, 0.0000000000000000e+00, 2.9999999999999999e-01, 0.0000000000000000e+00
4.0000000000000002e-01, 0.0000000000000000e+00
*Amplitude, name=TANGENTIAL_Y_PATH, time=TOTAL TIME
0.0000000000000000e+00, 0.0000000000000000e+00, 1.0000000000000001e-01, 5.0000000000000001e-03, 2.0000000000000001e-01, 1.0000000000000000e-02, 2.9999999999999999e-01, 1.4999999999999999e-02
4.0000000000000002e-01, 2.0000000000000000e-02
*Amplitude, name=TANGENTIAL_Z_PATH, time=TOTAL TIME
0.0000000000000000e+00, 0.0000000000000000e+00, 1.0000000000000001e-01, 2.5000000000000001e-03, 2.0000000000000001e-01, 5.0000000000000001e-03, 2.9999999999999999e-01, 7.4999999999999997e-03
4.0000000000000002e-01, 1.0000000000000000e-02
*Amplitude, name=BENDING_PATH, time=TOTAL TIME
0.0000000000000000e+00, 0.0000000000000000e+00, 1.0000000000000001e-01, 2.5000000000000000e-01, 2.0000000000000001e-01, 5.0000000000000000e-01, 2.9999999999999999e-01, 7.5000000000000000e-01
4.0000000000000002e-01, 1.0000000000000000e+00
*Initial Conditions, type=TEMPERATURE
ALL_NODES, 3.0000000000000000e2
*Diagnostics, nonhybrid=WARNING
*Step, name=PATH, nlgeom=YES, inc=160
*Coupled Temperature-Displacement
1.0000000000000000e-02, 4.0000000000000002e-01, 1.0000000000000000e-02, 1.0000000000000000e-02
*Controls, parameters=FIELD, field=DISPLACEMENT
1.0000000000000000e-10, 1.0000000000000000e-10, , , , 1.0000000000000000e-10
*Boundary
PRIMARY_OUTER_NODES, 1, 3, 0.0
PRIMARY_OUTER_NODES, 11, 11, 3.0000000000000000e2
*Boundary, amplitude=TEMPERATURE_PATH
SECONDARY_OUTER_NODES, 11, 11, 1.0
*Boundary, amplitude=TANGENTIAL_Y_PATH
SECONDARY_OUTER_NODES, 2, 2, 1.0
*Boundary, amplitude=TANGENTIAL_Z_PATH
SECONDARY_OUTER_NODES, 3, 3, 1.0
*Dsload, follower=YES, amplitude=PRESSURE_PATH
SECONDARY_OUTER, P, 1.0
*Output, field, frequency=1
*Node Output
COORD, NT, RF, RFL, U
*Element Output, directions=YES
CE, CEEQ, COORD, EE, HFL, IVOL, LE, PE, PEEQ, S, TEMP
*Contact Output
CDISP, CFORCE, CSTRESS, CTANDIR, CSTATUS, HFL
*Output, history, frequency=1
*Energy Output
ALLCD, ALLFD, ALLIE, ALLPD, ALLSE, ALLWK
*End Step
