*Heading
** b525_poisson_0499_refined: generated full-field Abaqus reference.
** through=2 tangential=16 step=2.0000000000000000e-02 distortion=8.0000000000000002e-02 initial_gap=0.0000000000000000e+00 path=monotonic
*Preprint, echo=NO, model=NO, history=NO, contact=YES
*Node
1, 0.0000000000000000e+00, 0.0000000000000000e+00, 0.0000000000000000e+00
2, 5.0000000000000000e-01, 0.0000000000000000e+00, 0.0000000000000000e+00
3, 1.0000000000000000e+00, 0.0000000000000000e+00, 0.0000000000000000e+00
4, 1.5607225761290261e-02, 6.2500000000000000e-02, 0.0000000000000000e+00
5, 5.1560722576129026e-01, 6.2500000000000000e-02, 0.0000000000000000e+00
6, 1.0156072257612903e+00, 6.2500000000000000e-02, 0.0000000000000000e+00
7, 3.0614674589207184e-02, 1.2500000000000000e-01, 0.0000000000000000e+00
8, 5.3061467458920719e-01, 1.2500000000000000e-01, 0.0000000000000000e+00
9, 1.0306146745892071e+00, 1.2500000000000000e-01, 0.0000000000000000e+00
10, 4.4445618641568173e-02, 1.8750000000000000e-01, 0.0000000000000000e+00
11, 5.4444561864156815e-01, 1.8750000000000000e-01, 0.0000000000000000e+00
12, 1.0444456186415683e+00, 1.8750000000000000e-01, 0.0000000000000000e+00
13, 5.6568542494923796e-02, 2.5000000000000000e-01, 0.0000000000000000e+00
14, 5.5656854249492382e-01, 2.5000000000000000e-01, 0.0000000000000000e+00
15, 1.0565685424949238e+00, 2.5000000000000000e-01, 0.0000000000000000e+00
16, 6.6517568984203621e-02, 3.1250000000000000e-01, 0.0000000000000000e+00
17, 5.6651756898420358e-01, 3.1250000000000000e-01, 0.0000000000000000e+00
18, 1.0665175689842037e+00, 3.1250000000000000e-01, 0.0000000000000000e+00
19, 7.3910362600902946e-02, 3.7500000000000000e-01, 0.0000000000000000e+00
20, 5.7391036260090300e-01, 3.7500000000000000e-01, 0.0000000000000000e+00
21, 1.0739103626009030e+00, 3.7500000000000000e-01, 0.0000000000000000e+00
22, 7.8462822432258439e-02, 4.3750000000000000e-01, 0.0000000000000000e+00
23, 5.7846282243225844e-01, 4.3750000000000000e-01, 0.0000000000000000e+00
24, 1.0784628224322583e+00, 4.3750000000000000e-01, 0.0000000000000000e+00
25, 8.0000000000000002e-02, 5.0000000000000000e-01, 0.0000000000000000e+00
26, 5.7999999999999996e-01, 5.0000000000000000e-01, 0.0000000000000000e+00
27, 1.0800000000000001e+00, 5.0000000000000000e-01, 0.0000000000000000e+00
28, 7.8462822432258439e-02, 5.6250000000000000e-01, 0.0000000000000000e+00
29, 5.7846282243225844e-01, 5.6250000000000000e-01, 0.0000000000000000e+00
30, 1.0784628224322583e+00, 5.6250000000000000e-01, 0.0000000000000000e+00
31, 7.3910362600902946e-02, 6.2500000000000000e-01, 0.0000000000000000e+00
32, 5.7391036260090300e-01, 6.2500000000000000e-01, 0.0000000000000000e+00
33, 1.0739103626009030e+00, 6.2500000000000000e-01, 0.0000000000000000e+00
34, 6.6517568984203634e-02, 6.8750000000000000e-01, 0.0000000000000000e+00
35, 5.6651756898420369e-01, 6.8750000000000000e-01, 0.0000000000000000e+00
36, 1.0665175689842037e+00, 6.8750000000000000e-01, 0.0000000000000000e+00
37, 5.6568542494923810e-02, 7.5000000000000000e-01, 0.0000000000000000e+00
38, 5.5656854249492382e-01, 7.5000000000000000e-01, 0.0000000000000000e+00
39, 1.0565685424949238e+00, 7.5000000000000000e-01, 0.0000000000000000e+00
40, 4.4445618641568173e-02, 8.1250000000000000e-01, 0.0000000000000000e+00
41, 5.4444561864156815e-01, 8.1250000000000000e-01, 0.0000000000000000e+00
42, 1.0444456186415683e+00, 8.1250000000000000e-01, 0.0000000000000000e+00
43, 3.0614674589207191e-02, 8.7500000000000000e-01, 0.0000000000000000e+00
44, 5.3061467458920719e-01, 8.7500000000000000e-01, 0.0000000000000000e+00
45, 1.0306146745892071e+00, 8.7500000000000000e-01, 0.0000000000000000e+00
46, 1.5607225761290288e-02, 9.3750000000000000e-01, 0.0000000000000000e+00
47, 5.1560722576129026e-01, 9.3750000000000000e-01, 0.0000000000000000e+00
48, 1.0156072257612903e+00, 9.3750000000000000e-01, 0.0000000000000000e+00
49, 9.7971743931788255e-18, 1.0000000000000000e+00, 0.0000000000000000e+00
50, 5.0000000000000000e-01, 1.0000000000000000e+00, 0.0000000000000000e+00
51, 1.0000000000000000e+00, 1.0000000000000000e+00, 0.0000000000000000e+00
52, 0.0000000000000000e+00, 0.0000000000000000e+00, 1.0000000000000000e+00
53, 5.0000000000000000e-01, 0.0000000000000000e+00, 1.0000000000000000e+00
54, 1.0000000000000000e+00, 0.0000000000000000e+00, 1.0000000000000000e+00
55, 1.5607225761290261e-02, 6.2500000000000000e-02, 1.0000000000000000e+00
56, 5.1560722576129026e-01, 6.2500000000000000e-02, 1.0000000000000000e+00
57, 1.0156072257612903e+00, 6.2500000000000000e-02, 1.0000000000000000e+00
58, 3.0614674589207184e-02, 1.2500000000000000e-01, 1.0000000000000000e+00
59, 5.3061467458920719e-01, 1.2500000000000000e-01, 1.0000000000000000e+00
60, 1.0306146745892071e+00, 1.2500000000000000e-01, 1.0000000000000000e+00
61, 4.4445618641568173e-02, 1.8750000000000000e-01, 1.0000000000000000e+00
62, 5.4444561864156815e-01, 1.8750000000000000e-01, 1.0000000000000000e+00
63, 1.0444456186415683e+00, 1.8750000000000000e-01, 1.0000000000000000e+00
64, 5.6568542494923796e-02, 2.5000000000000000e-01, 1.0000000000000000e+00
65, 5.5656854249492382e-01, 2.5000000000000000e-01, 1.0000000000000000e+00
66, 1.0565685424949238e+00, 2.5000000000000000e-01, 1.0000000000000000e+00
67, 6.6517568984203621e-02, 3.1250000000000000e-01, 1.0000000000000000e+00
68, 5.6651756898420358e-01, 3.1250000000000000e-01, 1.0000000000000000e+00
69, 1.0665175689842037e+00, 3.1250000000000000e-01, 1.0000000000000000e+00
70, 7.3910362600902946e-02, 3.7500000000000000e-01, 1.0000000000000000e+00
71, 5.7391036260090300e-01, 3.7500000000000000e-01, 1.0000000000000000e+00
72, 1.0739103626009030e+00, 3.7500000000000000e-01, 1.0000000000000000e+00
73, 7.8462822432258439e-02, 4.3750000000000000e-01, 1.0000000000000000e+00
74, 5.7846282243225844e-01, 4.3750000000000000e-01, 1.0000000000000000e+00
75, 1.0784628224322583e+00, 4.3750000000000000e-01, 1.0000000000000000e+00
76, 8.0000000000000002e-02, 5.0000000000000000e-01, 1.0000000000000000e+00
77, 5.7999999999999996e-01, 5.0000000000000000e-01, 1.0000000000000000e+00
78, 1.0800000000000001e+00, 5.0000000000000000e-01, 1.0000000000000000e+00
79, 7.8462822432258439e-02, 5.6250000000000000e-01, 1.0000000000000000e+00
80, 5.7846282243225844e-01, 5.6250000000000000e-01, 1.0000000000000000e+00
81, 1.0784628224322583e+00, 5.6250000000000000e-01, 1.0000000000000000e+00
82, 7.3910362600902946e-02, 6.2500000000000000e-01, 1.0000000000000000e+00
83, 5.7391036260090300e-01, 6.2500000000000000e-01, 1.0000000000000000e+00
84, 1.0739103626009030e+00, 6.2500000000000000e-01, 1.0000000000000000e+00
85, 6.6517568984203634e-02, 6.8750000000000000e-01, 1.0000000000000000e+00
86, 5.6651756898420369e-01, 6.8750000000000000e-01, 1.0000000000000000e+00
87, 1.0665175689842037e+00, 6.8750000000000000e-01, 1.0000000000000000e+00
88, 5.6568542494923810e-02, 7.5000000000000000e-01, 1.0000000000000000e+00
89, 5.5656854249492382e-01, 7.5000000000000000e-01, 1.0000000000000000e+00
90, 1.0565685424949238e+00, 7.5000000000000000e-01, 1.0000000000000000e+00
91, 4.4445618641568173e-02, 8.1250000000000000e-01, 1.0000000000000000e+00
92, 5.4444561864156815e-01, 8.1250000000000000e-01, 1.0000000000000000e+00
93, 1.0444456186415683e+00, 8.1250000000000000e-01, 1.0000000000000000e+00
94, 3.0614674589207191e-02, 8.7500000000000000e-01, 1.0000000000000000e+00
95, 5.3061467458920719e-01, 8.7500000000000000e-01, 1.0000000000000000e+00
96, 1.0306146745892071e+00, 8.7500000000000000e-01, 1.0000000000000000e+00
97, 1.5607225761290288e-02, 9.3750000000000000e-01, 1.0000000000000000e+00
98, 5.1560722576129026e-01, 9.3750000000000000e-01, 1.0000000000000000e+00
99, 1.0156072257612903e+00, 9.3750000000000000e-01, 1.0000000000000000e+00
100, 9.7971743931788255e-18, 1.0000000000000000e+00, 1.0000000000000000e+00
101, 5.0000000000000000e-01, 1.0000000000000000e+00, 1.0000000000000000e+00
102, 1.0000000000000000e+00, 1.0000000000000000e+00, 1.0000000000000000e+00
103, 1.0000000000000000e+00, 0.0000000000000000e+00, 0.0000000000000000e+00
104, 1.5000000000000000e+00, 0.0000000000000000e+00, 0.0000000000000000e+00
105, 2.0000000000000000e+00, 0.0000000000000000e+00, 0.0000000000000000e+00
106, 1.0156072257612903e+00, 6.2500000000000000e-02, 0.0000000000000000e+00
107, 1.5156072257612903e+00, 6.2500000000000000e-02, 0.0000000000000000e+00
108, 2.0156072257612903e+00, 6.2500000000000000e-02, 0.0000000000000000e+00
109, 1.0306146745892071e+00, 1.2500000000000000e-01, 0.0000000000000000e+00
110, 1.5306146745892071e+00, 1.2500000000000000e-01, 0.0000000000000000e+00
111, 2.0306146745892071e+00, 1.2500000000000000e-01, 0.0000000000000000e+00
112, 1.0444456186415683e+00, 1.8750000000000000e-01, 0.0000000000000000e+00
113, 1.5444456186415683e+00, 1.8750000000000000e-01, 0.0000000000000000e+00
114, 2.0444456186415683e+00, 1.8750000000000000e-01, 0.0000000000000000e+00
115, 1.0565685424949238e+00, 2.5000000000000000e-01, 0.0000000000000000e+00
116, 1.5565685424949238e+00, 2.5000000000000000e-01, 0.0000000000000000e+00
117, 2.0565685424949236e+00, 2.5000000000000000e-01, 0.0000000000000000e+00
118, 1.0665175689842037e+00, 3.1250000000000000e-01, 0.0000000000000000e+00
119, 1.5665175689842037e+00, 3.1250000000000000e-01, 0.0000000000000000e+00
120, 2.0665175689842035e+00, 3.1250000000000000e-01, 0.0000000000000000e+00
121, 1.0739103626009030e+00, 3.7500000000000000e-01, 0.0000000000000000e+00
122, 1.5739103626009030e+00, 3.7500000000000000e-01, 0.0000000000000000e+00
123, 2.0739103626009028e+00, 3.7500000000000000e-01, 0.0000000000000000e+00
124, 1.0784628224322583e+00, 4.3750000000000000e-01, 0.0000000000000000e+00
125, 1.5784628224322583e+00, 4.3750000000000000e-01, 0.0000000000000000e+00
126, 2.0784628224322583e+00, 4.3750000000000000e-01, 0.0000000000000000e+00
127, 1.0800000000000001e+00, 5.0000000000000000e-01, 0.0000000000000000e+00
128, 1.5800000000000001e+00, 5.0000000000000000e-01, 0.0000000000000000e+00
129, 2.0800000000000001e+00, 5.0000000000000000e-01, 0.0000000000000000e+00
130, 1.0784628224322583e+00, 5.6250000000000000e-01, 0.0000000000000000e+00
131, 1.5784628224322583e+00, 5.6250000000000000e-01, 0.0000000000000000e+00
132, 2.0784628224322583e+00, 5.6250000000000000e-01, 0.0000000000000000e+00
133, 1.0739103626009030e+00, 6.2500000000000000e-01, 0.0000000000000000e+00
134, 1.5739103626009030e+00, 6.2500000000000000e-01, 0.0000000000000000e+00
135, 2.0739103626009028e+00, 6.2500000000000000e-01, 0.0000000000000000e+00
136, 1.0665175689842037e+00, 6.8750000000000000e-01, 0.0000000000000000e+00
137, 1.5665175689842037e+00, 6.8750000000000000e-01, 0.0000000000000000e+00
138, 2.0665175689842035e+00, 6.8750000000000000e-01, 0.0000000000000000e+00
139, 1.0565685424949238e+00, 7.5000000000000000e-01, 0.0000000000000000e+00
140, 1.5565685424949238e+00, 7.5000000000000000e-01, 0.0000000000000000e+00
141, 2.0565685424949236e+00, 7.5000000000000000e-01, 0.0000000000000000e+00
142, 1.0444456186415683e+00, 8.1250000000000000e-01, 0.0000000000000000e+00
143, 1.5444456186415683e+00, 8.1250000000000000e-01, 0.0000000000000000e+00
144, 2.0444456186415683e+00, 8.1250000000000000e-01, 0.0000000000000000e+00
145, 1.0306146745892071e+00, 8.7500000000000000e-01, 0.0000000000000000e+00
146, 1.5306146745892071e+00, 8.7500000000000000e-01, 0.0000000000000000e+00
147, 2.0306146745892071e+00, 8.7500000000000000e-01, 0.0000000000000000e+00
148, 1.0156072257612903e+00, 9.3750000000000000e-01, 0.0000000000000000e+00
149, 1.5156072257612903e+00, 9.3750000000000000e-01, 0.0000000000000000e+00
150, 2.0156072257612903e+00, 9.3750000000000000e-01, 0.0000000000000000e+00
151, 1.0000000000000000e+00, 1.0000000000000000e+00, 0.0000000000000000e+00
152, 1.5000000000000000e+00, 1.0000000000000000e+00, 0.0000000000000000e+00
153, 2.0000000000000000e+00, 1.0000000000000000e+00, 0.0000000000000000e+00
154, 1.0000000000000000e+00, 0.0000000000000000e+00, 1.0000000000000000e+00
155, 1.5000000000000000e+00, 0.0000000000000000e+00, 1.0000000000000000e+00
156, 2.0000000000000000e+00, 0.0000000000000000e+00, 1.0000000000000000e+00
157, 1.0156072257612903e+00, 6.2500000000000000e-02, 1.0000000000000000e+00
158, 1.5156072257612903e+00, 6.2500000000000000e-02, 1.0000000000000000e+00
159, 2.0156072257612903e+00, 6.2500000000000000e-02, 1.0000000000000000e+00
160, 1.0306146745892071e+00, 1.2500000000000000e-01, 1.0000000000000000e+00
161, 1.5306146745892071e+00, 1.2500000000000000e-01, 1.0000000000000000e+00
162, 2.0306146745892071e+00, 1.2500000000000000e-01, 1.0000000000000000e+00
163, 1.0444456186415683e+00, 1.8750000000000000e-01, 1.0000000000000000e+00
164, 1.5444456186415683e+00, 1.8750000000000000e-01, 1.0000000000000000e+00
165, 2.0444456186415683e+00, 1.8750000000000000e-01, 1.0000000000000000e+00
166, 1.0565685424949238e+00, 2.5000000000000000e-01, 1.0000000000000000e+00
167, 1.5565685424949238e+00, 2.5000000000000000e-01, 1.0000000000000000e+00
168, 2.0565685424949236e+00, 2.5000000000000000e-01, 1.0000000000000000e+00
169, 1.0665175689842037e+00, 3.1250000000000000e-01, 1.0000000000000000e+00
170, 1.5665175689842037e+00, 3.1250000000000000e-01, 1.0000000000000000e+00
171, 2.0665175689842035e+00, 3.1250000000000000e-01, 1.0000000000000000e+00
172, 1.0739103626009030e+00, 3.7500000000000000e-01, 1.0000000000000000e+00
173, 1.5739103626009030e+00, 3.7500000000000000e-01, 1.0000000000000000e+00
174, 2.0739103626009028e+00, 3.7500000000000000e-01, 1.0000000000000000e+00
175, 1.0784628224322583e+00, 4.3750000000000000e-01, 1.0000000000000000e+00
176, 1.5784628224322583e+00, 4.3750000000000000e-01, 1.0000000000000000e+00
177, 2.0784628224322583e+00, 4.3750000000000000e-01, 1.0000000000000000e+00
178, 1.0800000000000001e+00, 5.0000000000000000e-01, 1.0000000000000000e+00
179, 1.5800000000000001e+00, 5.0000000000000000e-01, 1.0000000000000000e+00
180, 2.0800000000000001e+00, 5.0000000000000000e-01, 1.0000000000000000e+00
181, 1.0784628224322583e+00, 5.6250000000000000e-01, 1.0000000000000000e+00
182, 1.5784628224322583e+00, 5.6250000000000000e-01, 1.0000000000000000e+00
183, 2.0784628224322583e+00, 5.6250000000000000e-01, 1.0000000000000000e+00
184, 1.0739103626009030e+00, 6.2500000000000000e-01, 1.0000000000000000e+00
185, 1.5739103626009030e+00, 6.2500000000000000e-01, 1.0000000000000000e+00
186, 2.0739103626009028e+00, 6.2500000000000000e-01, 1.0000000000000000e+00
187, 1.0665175689842037e+00, 6.8750000000000000e-01, 1.0000000000000000e+00
188, 1.5665175689842037e+00, 6.8750000000000000e-01, 1.0000000000000000e+00
189, 2.0665175689842035e+00, 6.8750000000000000e-01, 1.0000000000000000e+00
190, 1.0565685424949238e+00, 7.5000000000000000e-01, 1.0000000000000000e+00
191, 1.5565685424949238e+00, 7.5000000000000000e-01, 1.0000000000000000e+00
192, 2.0565685424949236e+00, 7.5000000000000000e-01, 1.0000000000000000e+00
193, 1.0444456186415683e+00, 8.1250000000000000e-01, 1.0000000000000000e+00
194, 1.5444456186415683e+00, 8.1250000000000000e-01, 1.0000000000000000e+00
195, 2.0444456186415683e+00, 8.1250000000000000e-01, 1.0000000000000000e+00
196, 1.0306146745892071e+00, 8.7500000000000000e-01, 1.0000000000000000e+00
197, 1.5306146745892071e+00, 8.7500000000000000e-01, 1.0000000000000000e+00
198, 2.0306146745892071e+00, 8.7500000000000000e-01, 1.0000000000000000e+00
199, 1.0156072257612903e+00, 9.3750000000000000e-01, 1.0000000000000000e+00
200, 1.5156072257612903e+00, 9.3750000000000000e-01, 1.0000000000000000e+00
201, 2.0156072257612903e+00, 9.3750000000000000e-01, 1.0000000000000000e+00
202, 1.0000000000000000e+00, 1.0000000000000000e+00, 1.0000000000000000e+00
203, 1.5000000000000000e+00, 1.0000000000000000e+00, 1.0000000000000000e+00
204, 2.0000000000000000e+00, 1.0000000000000000e+00, 1.0000000000000000e+00
*Element, type=C3D8T, elset=PRIMARY
1, 1, 2, 5, 4, 52, 53, 56, 55
2, 2, 3, 6, 5, 53, 54, 57, 56
3, 4, 5, 8, 7, 55, 56, 59, 58
4, 5, 6, 9, 8, 56, 57, 60, 59
5, 7, 8, 11, 10, 58, 59, 62, 61
6, 8, 9, 12, 11, 59, 60, 63, 62
7, 10, 11, 14, 13, 61, 62, 65, 64
8, 11, 12, 15, 14, 62, 63, 66, 65
9, 13, 14, 17, 16, 64, 65, 68, 67
10, 14, 15, 18, 17, 65, 66, 69, 68
11, 16, 17, 20, 19, 67, 68, 71, 70
12, 17, 18, 21, 20, 68, 69, 72, 71
13, 19, 20, 23, 22, 70, 71, 74, 73
14, 20, 21, 24, 23, 71, 72, 75, 74
15, 22, 23, 26, 25, 73, 74, 77, 76
16, 23, 24, 27, 26, 74, 75, 78, 77
17, 25, 26, 29, 28, 76, 77, 80, 79
18, 26, 27, 30, 29, 77, 78, 81, 80
19, 28, 29, 32, 31, 79, 80, 83, 82
20, 29, 30, 33, 32, 80, 81, 84, 83
21, 31, 32, 35, 34, 82, 83, 86, 85
22, 32, 33, 36, 35, 83, 84, 87, 86
23, 34, 35, 38, 37, 85, 86, 89, 88
24, 35, 36, 39, 38, 86, 87, 90, 89
25, 37, 38, 41, 40, 88, 89, 92, 91
26, 38, 39, 42, 41, 89, 90, 93, 92
27, 40, 41, 44, 43, 91, 92, 95, 94
28, 41, 42, 45, 44, 92, 93, 96, 95
29, 43, 44, 47, 46, 94, 95, 98, 97
30, 44, 45, 48, 47, 95, 96, 99, 98
31, 46, 47, 50, 49, 97, 98, 101, 100
32, 47, 48, 51, 50, 98, 99, 102, 101
*Element, type=C3D8T, elset=SECONDARY
33, 103, 104, 107, 106, 154, 155, 158, 157
34, 104, 105, 108, 107, 155, 156, 159, 158
35, 106, 107, 110, 109, 157, 158, 161, 160
36, 107, 108, 111, 110, 158, 159, 162, 161
37, 109, 110, 113, 112, 160, 161, 164, 163
38, 110, 111, 114, 113, 161, 162, 165, 164
39, 112, 113, 116, 115, 163, 164, 167, 166
40, 113, 114, 117, 116, 164, 165, 168, 167
41, 115, 116, 119, 118, 166, 167, 170, 169
42, 116, 117, 120, 119, 167, 168, 171, 170
43, 118, 119, 122, 121, 169, 170, 173, 172
44, 119, 120, 123, 122, 170, 171, 174, 173
45, 121, 122, 125, 124, 172, 173, 176, 175
46, 122, 123, 126, 125, 173, 174, 177, 176
47, 124, 125, 128, 127, 175, 176, 179, 178
48, 125, 126, 129, 128, 176, 177, 180, 179
49, 127, 128, 131, 130, 178, 179, 182, 181
50, 128, 129, 132, 131, 179, 180, 183, 182
51, 130, 131, 134, 133, 181, 182, 185, 184
52, 131, 132, 135, 134, 182, 183, 186, 185
53, 133, 134, 137, 136, 184, 185, 188, 187
54, 134, 135, 138, 137, 185, 186, 189, 188
55, 136, 137, 140, 139, 187, 188, 191, 190
56, 137, 138, 141, 140, 188, 189, 192, 191
57, 139, 140, 143, 142, 190, 191, 194, 193
58, 140, 141, 144, 143, 191, 192, 195, 194
59, 142, 143, 146, 145, 193, 194, 197, 196
60, 143, 144, 147, 146, 194, 195, 198, 197
61, 145, 146, 149, 148, 196, 197, 200, 199
62, 146, 147, 150, 149, 197, 198, 201, 200
63, 148, 149, 152, 151, 199, 200, 203, 202
64, 149, 150, 153, 152, 200, 201, 204, 203
*Elset, elset=PRIMARY_CONTACT_ELEMENTS
2, 4, 6, 8, 10, 12, 14, 16, 18, 20, 22, 24, 26, 28, 30, 32
*Elset, elset=SECONDARY_CONTACT_ELEMENTS
33, 35, 37, 39, 41, 43, 45, 47, 49, 51, 53, 55, 57, 59, 61, 63
*Elset, elset=SECONDARY_OUTER_ELEMENTS
34, 36, 38, 40, 42, 44, 46, 48, 50, 52, 54, 56, 58, 60, 62, 64
*Elset, elset=SECONDARY_OUTER_LOWER_ELEMENTS
34, 36, 38, 40, 42, 44, 46, 48
*Elset, elset=SECONDARY_OUTER_UPPER_ELEMENTS
50, 52, 54, 56, 58, 60, 62, 64
*Nset, nset=ALL_NODES
1, 2, 3, 4, 5, 6, 7, 8, 9, 10, 11, 12, 13, 14, 15, 16
17, 18, 19, 20, 21, 22, 23, 24, 25, 26, 27, 28, 29, 30, 31, 32
33, 34, 35, 36, 37, 38, 39, 40, 41, 42, 43, 44, 45, 46, 47, 48
49, 50, 51, 52, 53, 54, 55, 56, 57, 58, 59, 60, 61, 62, 63, 64
65, 66, 67, 68, 69, 70, 71, 72, 73, 74, 75, 76, 77, 78, 79, 80
81, 82, 83, 84, 85, 86, 87, 88, 89, 90, 91, 92, 93, 94, 95, 96
97, 98, 99, 100, 101, 102, 103, 104, 105, 106, 107, 108, 109, 110, 111, 112
113, 114, 115, 116, 117, 118, 119, 120, 121, 122, 123, 124, 125, 126, 127, 128
129, 130, 131, 132, 133, 134, 135, 136, 137, 138, 139, 140, 141, 142, 143, 144
145, 146, 147, 148, 149, 150, 151, 152, 153, 154, 155, 156, 157, 158, 159, 160
161, 162, 163, 164, 165, 166, 167, 168, 169, 170, 171, 172, 173, 174, 175, 176
177, 178, 179, 180, 181, 182, 183, 184, 185, 186, 187, 188, 189, 190, 191, 192
193, 194, 195, 196, 197, 198, 199, 200, 201, 202, 203, 204
*Nset, nset=PRIMARY_OUTER_NODES
1, 4, 7, 10, 13, 16, 19, 22, 25, 28, 31, 34, 37, 40, 43, 46
49, 52, 55, 58, 61, 64, 67, 70, 73, 76, 79, 82, 85, 88, 91, 94
97, 100
*Nset, nset=SECONDARY_OUTER_NODES
105, 108, 111, 114, 117, 120, 123, 126, 129, 132, 135, 138, 141, 144, 147, 150
153, 156, 159, 162, 165, 168, 171, 174, 177, 180, 183, 186, 189, 192, 195, 198
201, 204
*Nset, nset=SECONDARY_CONTACT_NODES
103, 106, 109, 112, 115, 118, 121, 124, 127, 130, 133, 136, 139, 142, 145, 148
151, 154, 157, 160, 163, 166, 169, 172, 175, 178, 181, 184, 187, 190, 193, 196
199, 202
*Nset, nset=SECONDARY_Y0
103, 104, 105, 154, 155, 156
*Surface, type=ELEMENT, name=PRIMARY_CONTACT
PRIMARY_CONTACT_ELEMENTS, S4
*Surface, type=ELEMENT, name=SECONDARY_CONTACT
SECONDARY_CONTACT_ELEMENTS, S6
*Surface, type=ELEMENT, name=SECONDARY_OUTER
SECONDARY_OUTER_ELEMENTS, S4
*Surface, type=ELEMENT, name=SECONDARY_OUTER_LOWER
SECONDARY_OUTER_LOWER_ELEMENTS, S4
*Surface, type=ELEMENT, name=SECONDARY_OUTER_UPPER
SECONDARY_OUTER_UPPER_ELEMENTS, S4
*Material, name=PRIMARY_MATERIAL
*Elastic
1.2000000000000000e8, 4.9900000000000000e-01, 3.0000000000000000e2
1.0000000000000000e8, 4.9900000000000000e-01, 5.0000000000000000e2
*Expansion, zero=3.0000000000000000e2
8.0000000000000007e-6
*Conductivity
1.5000000000000000e1, 3.0000000000000000e2
1.8000000000000000e1, 5.0000000000000000e2
*Density
1.0000000000000000e2
*Specific Heat
1.0000000000000000e0, 3.0000000000000000e2
1.2000000000000000e0, 5.0000000000000000e2
*Material, name=SECONDARY_MATERIAL
*Elastic
1.0000000000000000e8, 4.9900000000000000e-01, 3.0000000000000000e2
9.0000000000000000e7, 4.9900000000000000e-01, 5.0000000000000000e2
*Expansion, zero=3.0000000000000000e2
1.0000000000000001e-5
*Conductivity
1.0000000000000000e1, 3.0000000000000000e2
1.2000000000000000e1, 5.0000000000000000e2
*Density
1.0000000000000000e2
*Specific Heat
1.0000000000000000e0, 3.0000000000000000e2
1.2000000000000000e0, 5.0000000000000000e2
*Solid Section, elset=PRIMARY, material=PRIMARY_MATERIAL
,
*Solid Section, elset=SECONDARY, material=SECONDARY_MATERIAL
,
*Surface Interaction, name=COUPLED_CONTACT
*Surface Behavior, pressure-overclosure=LINEAR
1.0000000000000000e+09
*Friction, slip tolerance=5.0000000000000001e-03
2.0000000000000001e-01
*Gap Conductance, pressure
5.0000000000000000e+01, 0.0
5.5000000000000000e+02, 5.0e5
*Contact Pair, interaction=COUPLED_CONTACT, type=SURFACE TO SURFACE, adjust=0.
SECONDARY_CONTACT, PRIMARY_CONTACT
*Amplitude, name=TEMPERATURE_PATH, time=TOTAL TIME
0.0000000000000000e+00, 3.0000000000000000e+02, 1.0000000000000001e-01, 3.5000000000000000e+02, 2.0000000000000001e-01, 4.0000000000000000e+02, 2.9999999999999999e-01, 4.5000000000000000e+02
4.0000000000000002e-01, 5.0000000000000000e+02
*Amplitude, name=PRESSURE_PATH, time=TOTAL TIME
0.0000000000000000e+00, 0.0000000000000000e+00, 1.0000000000000001e-01, 8.7500000000000000e+04, 2.0000000000000001e-01, 1.7500000000000000e+05, 2.9999999999999999e-01, 2.6250000000000000e+05
4.0000000000000002e-01, 3.5000000000000000e+05
*Amplitude, name=NORMAL_PATH, time=TOTAL TIME
0.0000000000000000e+00, 0.0000000000000000e+00, 1.0000000000000001e-01, 0.0000000000000000e+00, 2.0000000000000001e-01, 0.0000000000000000e+00, 2.9999999999999999e-01, 0.0000000000000000e+00
4.0000000000000002e-01, 0.0000000000000000e+00
*Amplitude, name=TANGENTIAL_Y_PATH, time=TOTAL TIME
0.0000000000000000e+00, 0.0000000000000000e+00, 1.0000000000000001e-01, 5.0000000000000001e-03, 2.0000000000000001e-01, 1.0000000000000000e-02, 2.9999999999999999e-01, 1.4999999999999999e-02
4.0000000000000002e-01, 2.0000000000000000e-02
*Amplitude, name=TANGENTIAL_Z_PATH, time=TOTAL TIME
0.0000000000000000e+00, 0.0000000000000000e+00, 1.0000000000000001e-01, 2.5000000000000001e-03, 2.0000000000000001e-01, 5.0000000000000001e-03, 2.9999999999999999e-01, 7.4999999999999997e-03
4.0000000000000002e-01, 1.0000000000000000e-02
*Amplitude, name=BENDING_PATH, time=TOTAL TIME
0.0000000000000000e+00, 0.0000000000000000e+00, 1.0000000000000001e-01, 2.5000000000000000e-01, 2.0000000000000001e-01, 5.0000000000000000e-01, 2.9999999999999999e-01, 7.5000000000000000e-01
4.0000000000000002e-01, 1.0000000000000000e+00
*Initial Conditions, type=TEMPERATURE
ALL_NODES, 3.0000000000000000e2
*Diagnostics, nonhybrid=WARNING
*Step, name=PATH, nlgeom=YES, inc=160
*Coupled Temperature-Displacement
2.0000000000000000e-02, 4.0000000000000002e-01, 2.0000000000000000e-02, 2.0000000000000000e-02
*Controls, parameters=FIELD, field=DISPLACEMENT
1.0000000000000000e-10, 1.0000000000000000e-10, , , , 1.0000000000000000e-10
*Boundary
PRIMARY_OUTER_NODES, 1, 3, 0.0
PRIMARY_OUTER_NODES, 11, 11, 3.0000000000000000e2
*Boundary, amplitude=TEMPERATURE_PATH
SECONDARY_OUTER_NODES, 11, 11, 1.0
*Boundary
SECONDARY_Y0, 2, 3, 0.0
*Dsload, follower=NO, amplitude=BENDING_PATH
SECONDARY_OUTER_LOWER, TRVEC, 2.0000000000000000e+04, 0.0, 0.0, 1.0
SECONDARY_OUTER_UPPER, TRVEC, -2.0000000000000000e+04, 0.0, 0.0, 1.0
*Dsload, follower=YES, amplitude=PRESSURE_PATH
SECONDARY_OUTER, P, 1.0
*Output, field, frequency=1
*Node Output
COORD, NT, RF, RFL, U
*Element Output, directions=YES
CE, CEEQ, COORD, EE, HFL, IVOL, LE, PE, PEEQ, S, TEMP
*Contact Output
CDISP, CFORCE, CSTRESS, CTANDIR, CSTATUS, HFL
*Output, history, frequency=1
*Energy Output
ALLCD, ALLFD, ALLIE, ALLPD, ALLSE, ALLWK
*End Step
