*Heading
** b525_poisson_030: generated full-field Abaqus reference.
** through=1 tangential=16 step=2.0000000000000000e-02 distortion=8.0000000000000002e-02 initial_gap=0.0000000000000000e+00 path=monotonic
*Preprint, echo=NO, model=NO, history=NO, contact=YES
*Node
1, 0.0000000000000000e+00, 0.0000000000000000e+00, 0.0000000000000000e+00
2, 1.0000000000000000e+00, 0.0000000000000000e+00, 0.0000000000000000e+00
3, 1.5607225761290261e-02, 6.2500000000000000e-02, 0.0000000000000000e+00
4, 1.0156072257612903e+00, 6.2500000000000000e-02, 0.0000000000000000e+00
5, 3.0614674589207184e-02, 1.2500000000000000e-01, 0.0000000000000000e+00
6, 1.0306146745892071e+00, 1.2500000000000000e-01, 0.0000000000000000e+00
7, 4.4445618641568173e-02, 1.8750000000000000e-01, 0.0000000000000000e+00
8, 1.0444456186415683e+00, 1.8750000000000000e-01, 0.0000000000000000e+00
9, 5.6568542494923796e-02, 2.5000000000000000e-01, 0.0000000000000000e+00
10, 1.0565685424949238e+00, 2.5000000000000000e-01, 0.0000000000000000e+00
11, 6.6517568984203621e-02, 3.1250000000000000e-01, 0.0000000000000000e+00
12, 1.0665175689842037e+00, 3.1250000000000000e-01, 0.0000000000000000e+00
13, 7.3910362600902946e-02, 3.7500000000000000e-01, 0.0000000000000000e+00
14, 1.0739103626009030e+00, 3.7500000000000000e-01, 0.0000000000000000e+00
15, 7.8462822432258439e-02, 4.3750000000000000e-01, 0.0000000000000000e+00
16, 1.0784628224322583e+00, 4.3750000000000000e-01, 0.0000000000000000e+00
17, 8.0000000000000002e-02, 5.0000000000000000e-01, 0.0000000000000000e+00
18, 1.0800000000000001e+00, 5.0000000000000000e-01, 0.0000000000000000e+00
19, 7.8462822432258439e-02, 5.6250000000000000e-01, 0.0000000000000000e+00
20, 1.0784628224322583e+00, 5.6250000000000000e-01, 0.0000000000000000e+00
21, 7.3910362600902946e-02, 6.2500000000000000e-01, 0.0000000000000000e+00
22, 1.0739103626009030e+00, 6.2500000000000000e-01, 0.0000000000000000e+00
23, 6.6517568984203634e-02, 6.8750000000000000e-01, 0.0000000000000000e+00
24, 1.0665175689842037e+00, 6.8750000000000000e-01, 0.0000000000000000e+00
25, 5.6568542494923810e-02, 7.5000000000000000e-01, 0.0000000000000000e+00
26, 1.0565685424949238e+00, 7.5000000000000000e-01, 0.0000000000000000e+00
27, 4.4445618641568173e-02, 8.1250000000000000e-01, 0.0000000000000000e+00
28, 1.0444456186415683e+00, 8.1250000000000000e-01, 0.0000000000000000e+00
29, 3.0614674589207191e-02, 8.7500000000000000e-01, 0.0000000000000000e+00
30, 1.0306146745892071e+00, 8.7500000000000000e-01, 0.0000000000000000e+00
31, 1.5607225761290288e-02, 9.3750000000000000e-01, 0.0000000000000000e+00
32, 1.0156072257612903e+00, 9.3750000000000000e-01, 0.0000000000000000e+00
33, 9.7971743931788255e-18, 1.0000000000000000e+00, 0.0000000000000000e+00
34, 1.0000000000000000e+00, 1.0000000000000000e+00, 0.0000000000000000e+00
35, 0.0000000000000000e+00, 0.0000000000000000e+00, 1.0000000000000000e+00
36, 1.0000000000000000e+00, 0.0000000000000000e+00, 1.0000000000000000e+00
37, 1.5607225761290261e-02, 6.2500000000000000e-02, 1.0000000000000000e+00
38, 1.0156072257612903e+00, 6.2500000000000000e-02, 1.0000000000000000e+00
39, 3.0614674589207184e-02, 1.2500000000000000e-01, 1.0000000000000000e+00
40, 1.0306146745892071e+00, 1.2500000000000000e-01, 1.0000000000000000e+00
41, 4.4445618641568173e-02, 1.8750000000000000e-01, 1.0000000000000000e+00
42, 1.0444456186415683e+00, 1.8750000000000000e-01, 1.0000000000000000e+00
43, 5.6568542494923796e-02, 2.5000000000000000e-01, 1.0000000000000000e+00
44, 1.0565685424949238e+00, 2.5000000000000000e-01, 1.0000000000000000e+00
45, 6.6517568984203621e-02, 3.1250000000000000e-01, 1.0000000000000000e+00
46, 1.0665175689842037e+00, 3.1250000000000000e-01, 1.0000000000000000e+00
47, 7.3910362600902946e-02, 3.7500000000000000e-01, 1.0000000000000000e+00
48, 1.0739103626009030e+00, 3.7500000000000000e-01, 1.0000000000000000e+00
49, 7.8462822432258439e-02, 4.3750000000000000e-01, 1.0000000000000000e+00
50, 1.0784628224322583e+00, 4.3750000000000000e-01, 1.0000000000000000e+00
51, 8.0000000000000002e-02, 5.0000000000000000e-01, 1.0000000000000000e+00
52, 1.0800000000000001e+00, 5.0000000000000000e-01, 1.0000000000000000e+00
53, 7.8462822432258439e-02, 5.6250000000000000e-01, 1.0000000000000000e+00
54, 1.0784628224322583e+00, 5.6250000000000000e-01, 1.0000000000000000e+00
55, 7.3910362600902946e-02, 6.2500000000000000e-01, 1.0000000000000000e+00
56, 1.0739103626009030e+00, 6.2500000000000000e-01, 1.0000000000000000e+00
57, 6.6517568984203634e-02, 6.8750000000000000e-01, 1.0000000000000000e+00
58, 1.0665175689842037e+00, 6.8750000000000000e-01, 1.0000000000000000e+00
59, 5.6568542494923810e-02, 7.5000000000000000e-01, 1.0000000000000000e+00
60, 1.0565685424949238e+00, 7.5000000000000000e-01, 1.0000000000000000e+00
61, 4.4445618641568173e-02, 8.1250000000000000e-01, 1.0000000000000000e+00
62, 1.0444456186415683e+00, 8.1250000000000000e-01, 1.0000000000000000e+00
63, 3.0614674589207191e-02, 8.7500000000000000e-01, 1.0000000000000000e+00
64, 1.0306146745892071e+00, 8.7500000000000000e-01, 1.0000000000000000e+00
65, 1.5607225761290288e-02, 9.3750000000000000e-01, 1.0000000000000000e+00
66, 1.0156072257612903e+00, 9.3750000000000000e-01, 1.0000000000000000e+00
67, 9.7971743931788255e-18, 1.0000000000000000e+00, 1.0000000000000000e+00
68, 1.0000000000000000e+00, 1.0000000000000000e+00, 1.0000000000000000e+00
69, 1.0000000000000000e+00, 0.0000000000000000e+00, 0.0000000000000000e+00
70, 2.0000000000000000e+00, 0.0000000000000000e+00, 0.0000000000000000e+00
71, 1.0156072257612903e+00, 6.2500000000000000e-02, 0.0000000000000000e+00
72, 2.0156072257612903e+00, 6.2500000000000000e-02, 0.0000000000000000e+00
73, 1.0306146745892071e+00, 1.2500000000000000e-01, 0.0000000000000000e+00
74, 2.0306146745892071e+00, 1.2500000000000000e-01, 0.0000000000000000e+00
75, 1.0444456186415683e+00, 1.8750000000000000e-01, 0.0000000000000000e+00
76, 2.0444456186415683e+00, 1.8750000000000000e-01, 0.0000000000000000e+00
77, 1.0565685424949238e+00, 2.5000000000000000e-01, 0.0000000000000000e+00
78, 2.0565685424949236e+00, 2.5000000000000000e-01, 0.0000000000000000e+00
79, 1.0665175689842037e+00, 3.1250000000000000e-01, 0.0000000000000000e+00
80, 2.0665175689842035e+00, 3.1250000000000000e-01, 0.0000000000000000e+00
81, 1.0739103626009030e+00, 3.7500000000000000e-01, 0.0000000000000000e+00
82, 2.0739103626009028e+00, 3.7500000000000000e-01, 0.0000000000000000e+00
83, 1.0784628224322583e+00, 4.3750000000000000e-01, 0.0000000000000000e+00
84, 2.0784628224322583e+00, 4.3750000000000000e-01, 0.0000000000000000e+00
85, 1.0800000000000001e+00, 5.0000000000000000e-01, 0.0000000000000000e+00
86, 2.0800000000000001e+00, 5.0000000000000000e-01, 0.0000000000000000e+00
87, 1.0784628224322583e+00, 5.6250000000000000e-01, 0.0000000000000000e+00
88, 2.0784628224322583e+00, 5.6250000000000000e-01, 0.0000000000000000e+00
89, 1.0739103626009030e+00, 6.2500000000000000e-01, 0.0000000000000000e+00
90, 2.0739103626009028e+00, 6.2500000000000000e-01, 0.0000000000000000e+00
91, 1.0665175689842037e+00, 6.8750000000000000e-01, 0.0000000000000000e+00
92, 2.0665175689842035e+00, 6.8750000000000000e-01, 0.0000000000000000e+00
93, 1.0565685424949238e+00, 7.5000000000000000e-01, 0.0000000000000000e+00
94, 2.0565685424949236e+00, 7.5000000000000000e-01, 0.0000000000000000e+00
95, 1.0444456186415683e+00, 8.1250000000000000e-01, 0.0000000000000000e+00
96, 2.0444456186415683e+00, 8.1250000000000000e-01, 0.0000000000000000e+00
97, 1.0306146745892071e+00, 8.7500000000000000e-01, 0.0000000000000000e+00
98, 2.0306146745892071e+00, 8.7500000000000000e-01, 0.0000000000000000e+00
99, 1.0156072257612903e+00, 9.3750000000000000e-01, 0.0000000000000000e+00
100, 2.0156072257612903e+00, 9.3750000000000000e-01, 0.0000000000000000e+00
101, 1.0000000000000000e+00, 1.0000000000000000e+00, 0.0000000000000000e+00
102, 2.0000000000000000e+00, 1.0000000000000000e+00, 0.0000000000000000e+00
103, 1.0000000000000000e+00, 0.0000000000000000e+00, 1.0000000000000000e+00
104, 2.0000000000000000e+00, 0.0000000000000000e+00, 1.0000000000000000e+00
105, 1.0156072257612903e+00, 6.2500000000000000e-02, 1.0000000000000000e+00
106, 2.0156072257612903e+00, 6.2500000000000000e-02, 1.0000000000000000e+00
107, 1.0306146745892071e+00, 1.2500000000000000e-01, 1.0000000000000000e+00
108, 2.0306146745892071e+00, 1.2500000000000000e-01, 1.0000000000000000e+00
109, 1.0444456186415683e+00, 1.8750000000000000e-01, 1.0000000000000000e+00
110, 2.0444456186415683e+00, 1.8750000000000000e-01, 1.0000000000000000e+00
111, 1.0565685424949238e+00, 2.5000000000000000e-01, 1.0000000000000000e+00
112, 2.0565685424949236e+00, 2.5000000000000000e-01, 1.0000000000000000e+00
113, 1.0665175689842037e+00, 3.1250000000000000e-01, 1.0000000000000000e+00
114, 2.0665175689842035e+00, 3.1250000000000000e-01, 1.0000000000000000e+00
115, 1.0739103626009030e+00, 3.7500000000000000e-01, 1.0000000000000000e+00
116, 2.0739103626009028e+00, 3.7500000000000000e-01, 1.0000000000000000e+00
117, 1.0784628224322583e+00, 4.3750000000000000e-01, 1.0000000000000000e+00
118, 2.0784628224322583e+00, 4.3750000000000000e-01, 1.0000000000000000e+00
119, 1.0800000000000001e+00, 5.0000000000000000e-01, 1.0000000000000000e+00
120, 2.0800000000000001e+00, 5.0000000000000000e-01, 1.0000000000000000e+00
121, 1.0784628224322583e+00, 5.6250000000000000e-01, 1.0000000000000000e+00
122, 2.0784628224322583e+00, 5.6250000000000000e-01, 1.0000000000000000e+00
123, 1.0739103626009030e+00, 6.2500000000000000e-01, 1.0000000000000000e+00
124, 2.0739103626009028e+00, 6.2500000000000000e-01, 1.0000000000000000e+00
125, 1.0665175689842037e+00, 6.8750000000000000e-01, 1.0000000000000000e+00
126, 2.0665175689842035e+00, 6.8750000000000000e-01, 1.0000000000000000e+00
127, 1.0565685424949238e+00, 7.5000000000000000e-01, 1.0000000000000000e+00
128, 2.0565685424949236e+00, 7.5000000000000000e-01, 1.0000000000000000e+00
129, 1.0444456186415683e+00, 8.1250000000000000e-01, 1.0000000000000000e+00
130, 2.0444456186415683e+00, 8.1250000000000000e-01, 1.0000000000000000e+00
131, 1.0306146745892071e+00, 8.7500000000000000e-01, 1.0000000000000000e+00
132, 2.0306146745892071e+00, 8.7500000000000000e-01, 1.0000000000000000e+00
133, 1.0156072257612903e+00, 9.3750000000000000e-01, 1.0000000000000000e+00
134, 2.0156072257612903e+00, 9.3750000000000000e-01, 1.0000000000000000e+00
135, 1.0000000000000000e+00, 1.0000000000000000e+00, 1.0000000000000000e+00
136, 2.0000000000000000e+00, 1.0000000000000000e+00, 1.0000000000000000e+00
*Element, type=C3D8T, elset=PRIMARY
1, 1, 2, 4, 3, 35, 36, 38, 37
2, 3, 4, 6, 5, 37, 38, 40, 39
3, 5, 6, 8, 7, 39, 40, 42, 41
4, 7, 8, 10, 9, 41, 42, 44, 43
5, 9, 10, 12, 11, 43, 44, 46, 45
6, 11, 12, 14, 13, 45, 46, 48, 47
7, 13, 14, 16, 15, 47, 48, 50, 49
8, 15, 16, 18, 17, 49, 50, 52, 51
9, 17, 18, 20, 19, 51, 52, 54, 53
10, 19, 20, 22, 21, 53, 54, 56, 55
11, 21, 22, 24, 23, 55, 56, 58, 57
12, 23, 24, 26, 25, 57, 58, 60, 59
13, 25, 26, 28, 27, 59, 60, 62, 61
14, 27, 28, 30, 29, 61, 62, 64, 63
15, 29, 30, 32, 31, 63, 64, 66, 65
16, 31, 32, 34, 33, 65, 66, 68, 67
*Element, type=C3D8T, elset=SECONDARY
17, 69, 70, 72, 71, 103, 104, 106, 105
18, 71, 72, 74, 73, 105, 106, 108, 107
19, 73, 74, 76, 75, 107, 108, 110, 109
20, 75, 76, 78, 77, 109, 110, 112, 111
21, 77, 78, 80, 79, 111, 112, 114, 113
22, 79, 80, 82, 81, 113, 114, 116, 115
23, 81, 82, 84, 83, 115, 116, 118, 117
24, 83, 84, 86, 85, 117, 118, 120, 119
25, 85, 86, 88, 87, 119, 120, 122, 121
26, 87, 88, 90, 89, 121, 122, 124, 123
27, 89, 90, 92, 91, 123, 124, 126, 125
28, 91, 92, 94, 93, 125, 126, 128, 127
29, 93, 94, 96, 95, 127, 128, 130, 129
30, 95, 96, 98, 97, 129, 130, 132, 131
31, 97, 98, 100, 99, 131, 132, 134, 133
32, 99, 100, 102, 101, 133, 134, 136, 135
*Elset, elset=PRIMARY_CONTACT_ELEMENTS
1, 2, 3, 4, 5, 6, 7, 8, 9, 10, 11, 12, 13, 14, 15, 16
*Elset, elset=SECONDARY_CONTACT_ELEMENTS
17, 18, 19, 20, 21, 22, 23, 24, 25, 26, 27, 28, 29, 30, 31, 32
*Elset, elset=SECONDARY_OUTER_ELEMENTS
17, 18, 19, 20, 21, 22, 23, 24, 25, 26, 27, 28, 29, 30, 31, 32
*Elset, elset=SECONDARY_OUTER_LOWER_ELEMENTS
17, 18, 19, 20, 21, 22, 23, 24
*Elset, elset=SECONDARY_OUTER_UPPER_ELEMENTS
25, 26, 27, 28, 29, 30, 31, 32
*Nset, nset=ALL_NODES
1, 2, 3, 4, 5, 6, 7, 8, 9, 10, 11, 12, 13, 14, 15, 16
17, 18, 19, 20, 21, 22, 23, 24, 25, 26, 27, 28, 29, 30, 31, 32
33, 34, 35, 36, 37, 38, 39, 40, 41, 42, 43, 44, 45, 46, 47, 48
49, 50, 51, 52, 53, 54, 55, 56, 57, 58, 59, 60, 61, 62, 63, 64
65, 66, 67, 68, 69, 70, 71, 72, 73, 74, 75, 76, 77, 78, 79, 80
81, 82, 83, 84, 85, 86, 87, 88, 89, 90, 91, 92, 93, 94, 95, 96
97, 98, 99, 100, 101, 102, 103, 104, 105, 106, 107, 108, 109, 110, 111, 112
113, 114, 115, 116, 117, 118, 119, 120, 121, 122, 123, 124, 125, 126, 127, 128
129, 130, 131, 132, 133, 134, 135, 136
*Nset, nset=PRIMARY_OUTER_NODES
1, 3, 5, 7, 9, 11, 13, 15, 17, 19, 21, 23, 25, 27, 29, 31
33, 35, 37, 39, 41, 43, 45, 47, 49, 51, 53, 55, 57, 59, 61, 63
65, 67
*Nset, nset=SECONDARY_OUTER_NODES
70, 72, 74, 76, 78, 80, 82, 84, 86, 88, 90, 92, 94, 96, 98, 100
102, 104, 106, 108, 110, 112, 114, 116, 118, 120, 122, 124, 126, 128, 130, 132
134, 136
*Nset, nset=SECONDARY_CONTACT_NODES
69, 71, 73, 75, 77, 79, 81, 83, 85, 87, 89, 91, 93, 95, 97, 99
101, 103, 105, 107, 109, 111, 113, 115, 117, 119, 121, 123, 125, 127, 129, 131
133, 135
*Nset, nset=SECONDARY_Y0
69, 70, 103, 104
*Surface, type=ELEMENT, name=PRIMARY_CONTACT
PRIMARY_CONTACT_ELEMENTS, S4
*Surface, type=ELEMENT, name=SECONDARY_CONTACT
SECONDARY_CONTACT_ELEMENTS, S6
*Surface, type=ELEMENT, name=SECONDARY_OUTER
SECONDARY_OUTER_ELEMENTS, S4
*Surface, type=ELEMENT, name=SECONDARY_OUTER_LOWER
SECONDARY_OUTER_LOWER_ELEMENTS, S4
*Surface, type=ELEMENT, name=SECONDARY_OUTER_UPPER
SECONDARY_OUTER_UPPER_ELEMENTS, S4
*Material, name=PRIMARY_MATERIAL
*Elastic
1.2000000000000000e8, 2.9999999999999999e-01, 3.0000000000000000e2
1.0000000000000000e8, 2.9999999999999999e-01, 5.0000000000000000e2
*Expansion, zero=3.0000000000000000e2
8.0000000000000007e-6
*Conductivity
1.5000000000000000e1, 3.0000000000000000e2
1.8000000000000000e1, 5.0000000000000000e2
*Density
1.0000000000000000e2
*Specific Heat
1.0000000000000000e0, 3.0000000000000000e2
1.2000000000000000e0, 5.0000000000000000e2
*Material, name=SECONDARY_MATERIAL
*Elastic
1.0000000000000000e8, 2.9999999999999999e-01, 3.0000000000000000e2
9.0000000000000000e7, 2.9999999999999999e-01, 5.0000000000000000e2
*Expansion, zero=3.0000000000000000e2
1.0000000000000001e-5
*Conductivity
1.0000000000000000e1, 3.0000000000000000e2
1.2000000000000000e1, 5.0000000000000000e2
*Density
1.0000000000000000e2
*Specific Heat
1.0000000000000000e0, 3.0000000000000000e2
1.2000000000000000e0, 5.0000000000000000e2
*Solid Section, elset=PRIMARY, material=PRIMARY_MATERIAL
,
*Solid Section, elset=SECONDARY, material=SECONDARY_MATERIAL
,
*Surface Interaction, name=COUPLED_CONTACT
*Surface Behavior, pressure-overclosure=LINEAR
1.0000000000000000e+09
*Friction, slip tolerance=5.0000000000000001e-03
2.0000000000000001e-01
*Gap Conductance, pressure
5.0000000000000000e+01, 0.0
5.5000000000000000e+02, 5.0e5
*Contact Pair, interaction=COUPLED_CONTACT, type=SURFACE TO SURFACE, adjust=0.
SECONDARY_CONTACT, PRIMARY_CONTACT
*Amplitude, name=TEMPERATURE_PATH, time=TOTAL TIME
0.0000000000000000e+00, 3.0000000000000000e+02, 1.0000000000000001e-01, 3.5000000000000000e+02, 2.0000000000000001e-01, 4.0000000000000000e+02, 2.9999999999999999e-01, 4.5000000000000000e+02
4.0000000000000002e-01, 5.0000000000000000e+02
*Amplitude, name=PRESSURE_PATH, time=TOTAL TIME
0.0000000000000000e+00, 0.0000000000000000e+00, 1.0000000000000001e-01, 8.7500000000000000e+04, 2.0000000000000001e-01, 1.7500000000000000e+05, 2.9999999999999999e-01, 2.6250000000000000e+05
4.0000000000000002e-01, 3.5000000000000000e+05
*Amplitude, name=NORMAL_PATH, time=TOTAL TIME
0.0000000000000000e+00, 0.0000000000000000e+00, 1.0000000000000001e-01, 0.0000000000000000e+00, 2.0000000000000001e-01, 0.0000000000000000e+00, 2.9999999999999999e-01, 0.0000000000000000e+00
4.0000000000000002e-01, 0.0000000000000000e+00
*Amplitude, name=TANGENTIAL_Y_PATH, time=TOTAL TIME
0.0000000000000000e+00, 0.0000000000000000e+00, 1.0000000000000001e-01, 5.0000000000000001e-03, 2.0000000000000001e-01, 1.0000000000000000e-02, 2.9999999999999999e-01, 1.4999999999999999e-02
4.0000000000000002e-01, 2.0000000000000000e-02
*Amplitude, name=TANGENTIAL_Z_PATH, time=TOTAL TIME
0.0000000000000000e+00, 0.0000000000000000e+00, 1.0000000000000001e-01, 2.5000000000000001e-03, 2.0000000000000001e-01, 5.0000000000000001e-03, 2.9999999999999999e-01, 7.4999999999999997e-03
4.0000000000000002e-01, 1.0000000000000000e-02
*Amplitude, name=BENDING_PATH, time=TOTAL TIME
0.0000000000000000e+00, 0.0000000000000000e+00, 1.0000000000000001e-01, 2.5000000000000000e-01, 2.0000000000000001e-01, 5.0000000000000000e-01, 2.9999999999999999e-01, 7.5000000000000000e-01
4.0000000000000002e-01, 1.0000000000000000e+00
*Initial Conditions, type=TEMPERATURE
ALL_NODES, 3.0000000000000000e2
*Diagnostics, nonhybrid=WARNING
*Step, name=PATH, nlgeom=YES, inc=160
*Coupled Temperature-Displacement
2.0000000000000000e-02, 4.0000000000000002e-01, 2.0000000000000000e-02, 2.0000000000000000e-02
*Controls, parameters=FIELD, field=DISPLACEMENT
1.0000000000000000e-10, 1.0000000000000000e-10, , , , 1.0000000000000000e-10
*Boundary
PRIMARY_OUTER_NODES, 1, 3, 0.0
PRIMARY_OUTER_NODES, 11, 11, 3.0000000000000000e2
*Boundary, amplitude=TEMPERATURE_PATH
SECONDARY_OUTER_NODES, 11, 11, 1.0
*Boundary
SECONDARY_Y0, 2, 3, 0.0
*Dsload, follower=NO, amplitude=BENDING_PATH
SECONDARY_OUTER_LOWER, TRVEC, 2.0000000000000000e+04, 0.0, 0.0, 1.0
SECONDARY_OUTER_UPPER, TRVEC, -2.0000000000000000e+04, 0.0, 0.0, 1.0
*Dsload, follower=YES, amplitude=PRESSURE_PATH
SECONDARY_OUTER, P, 1.0
*Output, field, frequency=1
*Node Output
COORD, NT, RF, RFL, U
*Element Output, directions=YES
CE, CEEQ, COORD, EE, HFL, IVOL, LE, PE, PEEQ, S, TEMP
*Contact Output
CDISP, CFORCE, CSTRESS, CTANDIR, CSTATUS, HFL
*Output, history, frequency=1
*Energy Output
ALLCD, ALLFD, ALLIE, ALLPD, ALLSE, ALLWK
*End Step
