*Heading
** b527_coarse engineering quarter-cylinder fuel-cladding C3D8T full-field reference.
** fuel_radial=1 clad_radial=1 angular=3 axial=2 step=1.0000000000000000e+03 penalty=1.0000000000000000e+14
*Preprint, echo=NO, model=NO, history=NO, contact=YES
*Node
1, 1.0000000000000000e-03, 0.0000000000000000e+00, 0.0000000000000000e+00
2, 4.0000000000000001e-03, 0.0000000000000000e+00, 0.0000000000000000e+00
3, 8.6602540378443870e-04, 4.9999999999999990e-04, 0.0000000000000000e+00
4, 3.4641016151377548e-03, 1.9999999999999996e-03, 0.0000000000000000e+00
5, 5.0000000000000012e-04, 8.6602540378443859e-04, 0.0000000000000000e+00
6, 2.0000000000000005e-03, 3.4641016151377543e-03, 0.0000000000000000e+00
7, 6.1232339957367657e-20, 1.0000000000000000e-03, 0.0000000000000000e+00
8, 2.4492935982947063e-19, 4.0000000000000001e-03, 0.0000000000000000e+00
9, 1.0000000000000000e-03, 0.0000000000000000e+00, 2.0000000000000000e-02
10, 4.0000000000000001e-03, 0.0000000000000000e+00, 2.0000000000000000e-02
11, 8.6602540378443870e-04, 4.9999999999999990e-04, 2.0000000000000000e-02
12, 3.4641016151377548e-03, 1.9999999999999996e-03, 2.0000000000000000e-02
13, 5.0000000000000012e-04, 8.6602540378443859e-04, 2.0000000000000000e-02
14, 2.0000000000000005e-03, 3.4641016151377543e-03, 2.0000000000000000e-02
15, 6.1232339957367657e-20, 1.0000000000000000e-03, 2.0000000000000000e-02
16, 2.4492935982947063e-19, 4.0000000000000001e-03, 2.0000000000000000e-02
17, 1.0000000000000000e-03, 0.0000000000000000e+00, 4.0000000000000001e-02
18, 4.0000000000000001e-03, 0.0000000000000000e+00, 4.0000000000000001e-02
19, 8.6602540378443870e-04, 4.9999999999999990e-04, 4.0000000000000001e-02
20, 3.4641016151377548e-03, 1.9999999999999996e-03, 4.0000000000000001e-02
21, 5.0000000000000012e-04, 8.6602540378443859e-04, 4.0000000000000001e-02
22, 2.0000000000000005e-03, 3.4641016151377543e-03, 4.0000000000000001e-02
23, 6.1232339957367657e-20, 1.0000000000000000e-03, 4.0000000000000001e-02
24, 2.4492935982947063e-19, 4.0000000000000001e-03, 4.0000000000000001e-02
25, 4.0049999999999999e-03, 0.0000000000000000e+00, 0.0000000000000000e+00
26, 4.7000000000000002e-03, 0.0000000000000000e+00, 0.0000000000000000e+00
27, 3.4684317421566769e-03, 2.0024999999999995e-03, 0.0000000000000000e+00
28, 4.0703193977868618e-03, 2.3499999999999997e-03, 0.0000000000000000e+00
29, 2.0025000000000004e-03, 3.4684317421566765e-03, 0.0000000000000000e+00
30, 2.3500000000000005e-03, 4.0703193977868618e-03, 0.0000000000000000e+00
31, 2.4523552152925749e-19, 4.0049999999999999e-03, 0.0000000000000000e+00
32, 2.8779199779962800e-19, 4.7000000000000002e-03, 0.0000000000000000e+00
33, 4.0049999999999999e-03, 0.0000000000000000e+00, 2.0000000000000000e-02
34, 4.7000000000000002e-03, 0.0000000000000000e+00, 2.0000000000000000e-02
35, 3.4684317421566769e-03, 2.0024999999999995e-03, 2.0000000000000000e-02
36, 4.0703193977868618e-03, 2.3499999999999997e-03, 2.0000000000000000e-02
37, 2.0025000000000004e-03, 3.4684317421566765e-03, 2.0000000000000000e-02
38, 2.3500000000000005e-03, 4.0703193977868618e-03, 2.0000000000000000e-02
39, 2.4523552152925749e-19, 4.0049999999999999e-03, 2.0000000000000000e-02
40, 2.8779199779962800e-19, 4.7000000000000002e-03, 2.0000000000000000e-02
41, 4.0049999999999999e-03, 0.0000000000000000e+00, 4.0000000000000001e-02
42, 4.7000000000000002e-03, 0.0000000000000000e+00, 4.0000000000000001e-02
43, 3.4684317421566769e-03, 2.0024999999999995e-03, 4.0000000000000001e-02
44, 4.0703193977868618e-03, 2.3499999999999997e-03, 4.0000000000000001e-02
45, 2.0025000000000004e-03, 3.4684317421566765e-03, 4.0000000000000001e-02
46, 2.3500000000000005e-03, 4.0703193977868618e-03, 4.0000000000000001e-02
47, 2.4523552152925749e-19, 4.0049999999999999e-03, 4.0000000000000001e-02
48, 2.8779199779962800e-19, 4.7000000000000002e-03, 4.0000000000000001e-02
*Element, type=C3D8T, elset=FUEL
1, 1, 2, 4, 3, 9, 10, 12, 11
2, 3, 4, 6, 5, 11, 12, 14, 13
3, 5, 6, 8, 7, 13, 14, 16, 15
4, 9, 10, 12, 11, 17, 18, 20, 19
5, 11, 12, 14, 13, 19, 20, 22, 21
6, 13, 14, 16, 15, 21, 22, 24, 23
*Element, type=C3D8T, elset=CLAD
7, 25, 26, 28, 27, 33, 34, 36, 35
8, 27, 28, 30, 29, 35, 36, 38, 37
9, 29, 30, 32, 31, 37, 38, 40, 39
10, 33, 34, 36, 35, 41, 42, 44, 43
11, 35, 36, 38, 37, 43, 44, 46, 45
12, 37, 38, 40, 39, 45, 46, 48, 47
*Elset, elset=FUEL_CONTACT_ELEMENTS
1, 2, 3, 4, 5, 6
*Elset, elset=CLAD_CONTACT_ELEMENTS
7, 8, 9, 10, 11, 12
*Nset, nset=ALL_NODES
1, 2, 3, 4, 5, 6, 7, 8, 9, 10, 11, 12, 13, 14, 15, 16
17, 18, 19, 20, 21, 22, 23, 24, 25, 26, 27, 28, 29, 30, 31, 32
33, 34, 35, 36, 37, 38, 39, 40, 41, 42, 43, 44, 45, 46, 47, 48
*Nset, nset=FUEL_INNER_NODES
1, 3, 5, 7, 9, 11, 13, 15, 17, 19, 21, 23
*Nset, nset=CLAD_OUTER_NODES
26, 28, 30, 32, 34, 36, 38, 40, 42, 44, 46, 48
*Nset, nset=SECONDARY_CONTACT_NODES
25, 27, 29, 31, 33, 35, 37, 39, 41, 43, 45, 47
*Nset, nset=FUEL_SYMMETRY_Y_NODES
1, 2, 9, 10, 17, 18
*Nset, nset=FUEL_SYMMETRY_X_NODES
7, 8, 15, 16, 23, 24
*Nset, nset=FUEL_BOTTOM_NODES
1, 2, 3, 4, 5, 6, 7, 8
*Nset, nset=CLAD_SYMMETRY_Y_NODES
25, 26, 33, 34, 41, 42
*Nset, nset=CLAD_SYMMETRY_X_NODES
31, 32, 39, 40, 47, 48
*Nset, nset=CLAD_BOTTOM_NODES
25, 26, 27, 28, 29, 30, 31, 32
*Surface, type=ELEMENT, name=FUEL_CONTACT
FUEL_CONTACT_ELEMENTS, S4
*Surface, type=ELEMENT, name=CLAD_CONTACT
CLAD_CONTACT_ELEMENTS, S6
*Material, name=FUEL_MATERIAL
*Elastic
2.0000000000000000e11, 3.0000000000000000e-1
*Expansion, zero=6.0000000000000000e2
1.0000000000000001e-5
*Conductivity
3.0000000000000000e0
*Density
1.0000000000000000e4
*Specific Heat
3.0000000000000000e2
*Material, name=CLAD_MATERIAL
*Elastic
1.0000000000000000e11, 3.2000000000000001e-1
*Expansion, zero=6.0000000000000000e2
5.0000000000000004e-6
*Conductivity
1.5000000000000000e1
*Density
6.5000000000000000e3
*Specific Heat
3.3000000000000000e2
*Solid Section, elset=FUEL, material=FUEL_MATERIAL
,
*Solid Section, elset=CLAD, material=CLAD_MATERIAL
,
*Surface Interaction, name=FUEL_CLAD_CONTACT
*Surface Behavior, pressure-overclosure=LINEAR
1.0000000000000000e+14
*Friction, slip tolerance=5.0000000000000001e-3
1.0000000000000001e-1
*Gap Conductance, pressure
1.0000000000000000e2, 0.0
1.1000000000000000e3, 1.0e8
*Contact Pair, interaction=FUEL_CLAD_CONTACT, type=SURFACE TO SURFACE, adjust=0.
CLAD_CONTACT, FUEL_CONTACT
*Amplitude, name=FUEL_TEMPERATURE, time=TOTAL TIME
0.0, 600.0, 10000.0, 1200.0
*Initial Conditions, type=TEMPERATURE
ALL_NODES, 6.0000000000000000e2
*Step, name=PATH, nlgeom=YES, inc=80
*Coupled Temperature-Displacement
1.0000000000000000e+03, 1.0000000000000000e4, 1.0000000000000000e+03, 1.0000000000000000e+03
*Controls, parameters=FIELD, field=DISPLACEMENT
1.0000000000000000e-10, 1.0000000000000000e-10, , , , 1.0000000000000000e-10
*Boundary
FUEL_INNER_NODES, 11, 11, 6.0000000000000000e2
CLAD_OUTER_NODES, 11, 11, 6.0000000000000000e2
FUEL_SYMMETRY_Y_NODES, 2, 2, 0.0
FUEL_SYMMETRY_X_NODES, 1, 1, 0.0
FUEL_BOTTOM_NODES, 3, 3, 0.0
CLAD_SYMMETRY_Y_NODES, 2, 2, 0.0
CLAD_SYMMETRY_X_NODES, 1, 1, 0.0
CLAD_BOTTOM_NODES, 3, 3, 0.0
*Boundary, amplitude=FUEL_TEMPERATURE
FUEL_INNER_NODES, 11, 11, 1.0
*Output, field, frequency=1
*Node Output
COORD, NT, RF, RFL, U
*Element Output, directions=YES
CE, CEEQ, COORD, EE, HFL, IVOL, LE, PE, PEEQ, S, TEMP
*Contact Output
CDISP, CFORCE, CSTRESS, CTANDIR, CSTATUS, HFL
*Output, history, frequency=1
*Energy Output
ALLCD, ALLFD, ALLIE, ALLPD, ALLSE, ALLWK
*End Step
