*Heading
** b527_half_step engineering quarter-cylinder fuel-cladding C3D8T full-field reference.
** fuel_radial=2 clad_radial=1 angular=4 axial=3 step=5.0000000000000000e+02 penalty=1.0000000000000000e+14
*Preprint, echo=NO, model=NO, history=NO, contact=YES
*Node
1, 1.0000000000000000e-03, 0.0000000000000000e+00, 0.0000000000000000e+00
2, 2.5000000000000001e-03, 0.0000000000000000e+00, 0.0000000000000000e+00
3, 4.0000000000000001e-03, 0.0000000000000000e+00, 0.0000000000000000e+00
4, 9.2387953251128676e-04, 3.8268343236508978e-04, 0.0000000000000000e+00
5, 2.3096988312782171e-03, 9.5670858091272452e-04, 0.0000000000000000e+00
6, 3.6955181300451470e-03, 1.5307337294603591e-03, 0.0000000000000000e+00
7, 7.0710678118654762e-04, 7.0710678118654751e-04, 0.0000000000000000e+00
8, 1.7677669529663691e-03, 1.7677669529663686e-03, 0.0000000000000000e+00
9, 2.8284271247461905e-03, 2.8284271247461901e-03, 0.0000000000000000e+00
10, 3.8268343236508984e-04, 9.2387953251128676e-04, 0.0000000000000000e+00
11, 9.5670858091272462e-04, 2.3096988312782171e-03, 0.0000000000000000e+00
12, 1.5307337294603594e-03, 3.6955181300451470e-03, 0.0000000000000000e+00
13, 6.1232339957367657e-20, 1.0000000000000000e-03, 0.0000000000000000e+00
14, 1.5308084989341915e-19, 2.5000000000000001e-03, 0.0000000000000000e+00
15, 2.4492935982947063e-19, 4.0000000000000001e-03, 0.0000000000000000e+00
16, 1.0000000000000000e-03, 0.0000000000000000e+00, 1.3333333333333334e-02
17, 2.5000000000000001e-03, 0.0000000000000000e+00, 1.3333333333333334e-02
18, 4.0000000000000001e-03, 0.0000000000000000e+00, 1.3333333333333334e-02
19, 9.2387953251128676e-04, 3.8268343236508978e-04, 1.3333333333333334e-02
20, 2.3096988312782171e-03, 9.5670858091272452e-04, 1.3333333333333334e-02
21, 3.6955181300451470e-03, 1.5307337294603591e-03, 1.3333333333333334e-02
22, 7.0710678118654762e-04, 7.0710678118654751e-04, 1.3333333333333334e-02
23, 1.7677669529663691e-03, 1.7677669529663686e-03, 1.3333333333333334e-02
24, 2.8284271247461905e-03, 2.8284271247461901e-03, 1.3333333333333334e-02
25, 3.8268343236508984e-04, 9.2387953251128676e-04, 1.3333333333333334e-02
26, 9.5670858091272462e-04, 2.3096988312782171e-03, 1.3333333333333334e-02
27, 1.5307337294603594e-03, 3.6955181300451470e-03, 1.3333333333333334e-02
28, 6.1232339957367657e-20, 1.0000000000000000e-03, 1.3333333333333334e-02
29, 1.5308084989341915e-19, 2.5000000000000001e-03, 1.3333333333333334e-02
30, 2.4492935982947063e-19, 4.0000000000000001e-03, 1.3333333333333334e-02
31, 1.0000000000000000e-03, 0.0000000000000000e+00, 2.6666666666666668e-02
32, 2.5000000000000001e-03, 0.0000000000000000e+00, 2.6666666666666668e-02
33, 4.0000000000000001e-03, 0.0000000000000000e+00, 2.6666666666666668e-02
34, 9.2387953251128676e-04, 3.8268343236508978e-04, 2.6666666666666668e-02
35, 2.3096988312782171e-03, 9.5670858091272452e-04, 2.6666666666666668e-02
36, 3.6955181300451470e-03, 1.5307337294603591e-03, 2.6666666666666668e-02
37, 7.0710678118654762e-04, 7.0710678118654751e-04, 2.6666666666666668e-02
38, 1.7677669529663691e-03, 1.7677669529663686e-03, 2.6666666666666668e-02
39, 2.8284271247461905e-03, 2.8284271247461901e-03, 2.6666666666666668e-02
40, 3.8268343236508984e-04, 9.2387953251128676e-04, 2.6666666666666668e-02
41, 9.5670858091272462e-04, 2.3096988312782171e-03, 2.6666666666666668e-02
42, 1.5307337294603594e-03, 3.6955181300451470e-03, 2.6666666666666668e-02
43, 6.1232339957367657e-20, 1.0000000000000000e-03, 2.6666666666666668e-02
44, 1.5308084989341915e-19, 2.5000000000000001e-03, 2.6666666666666668e-02
45, 2.4492935982947063e-19, 4.0000000000000001e-03, 2.6666666666666668e-02
46, 1.0000000000000000e-03, 0.0000000000000000e+00, 4.0000000000000001e-02
47, 2.5000000000000001e-03, 0.0000000000000000e+00, 4.0000000000000001e-02
48, 4.0000000000000001e-03, 0.0000000000000000e+00, 4.0000000000000001e-02
49, 9.2387953251128676e-04, 3.8268343236508978e-04, 4.0000000000000001e-02
50, 2.3096988312782171e-03, 9.5670858091272452e-04, 4.0000000000000001e-02
51, 3.6955181300451470e-03, 1.5307337294603591e-03, 4.0000000000000001e-02
52, 7.0710678118654762e-04, 7.0710678118654751e-04, 4.0000000000000001e-02
53, 1.7677669529663691e-03, 1.7677669529663686e-03, 4.0000000000000001e-02
54, 2.8284271247461905e-03, 2.8284271247461901e-03, 4.0000000000000001e-02
55, 3.8268343236508984e-04, 9.2387953251128676e-04, 4.0000000000000001e-02
56, 9.5670858091272462e-04, 2.3096988312782171e-03, 4.0000000000000001e-02
57, 1.5307337294603594e-03, 3.6955181300451470e-03, 4.0000000000000001e-02
58, 6.1232339957367657e-20, 1.0000000000000000e-03, 4.0000000000000001e-02
59, 1.5308084989341915e-19, 2.5000000000000001e-03, 4.0000000000000001e-02
60, 2.4492935982947063e-19, 4.0000000000000001e-03, 4.0000000000000001e-02
61, 4.0049999999999999e-03, 0.0000000000000000e+00, 0.0000000000000000e+00
62, 4.7000000000000002e-03, 0.0000000000000000e+00, 0.0000000000000000e+00
63, 3.7001375277077031e-03, 1.5326471466221845e-03, 0.0000000000000000e+00
64, 4.3422338028030480e-03, 1.7986121321159221e-03, 0.0000000000000000e+00
65, 2.8319626586521228e-03, 2.8319626586521224e-03, 0.0000000000000000e+00
66, 3.3234018715767736e-03, 3.3234018715767731e-03, 0.0000000000000000e+00
67, 1.5326471466221847e-03, 3.7001375277077031e-03, 0.0000000000000000e+00
68, 1.7986121321159224e-03, 4.3422338028030480e-03, 0.0000000000000000e+00
69, 2.4523552152925749e-19, 4.0049999999999999e-03, 0.0000000000000000e+00
70, 2.8779199779962800e-19, 4.7000000000000002e-03, 0.0000000000000000e+00
71, 4.0049999999999999e-03, 0.0000000000000000e+00, 1.3333333333333334e-02
72, 4.7000000000000002e-03, 0.0000000000000000e+00, 1.3333333333333334e-02
73, 3.7001375277077031e-03, 1.5326471466221845e-03, 1.3333333333333334e-02
74, 4.3422338028030480e-03, 1.7986121321159221e-03, 1.3333333333333334e-02
75, 2.8319626586521228e-03, 2.8319626586521224e-03, 1.3333333333333334e-02
76, 3.3234018715767736e-03, 3.3234018715767731e-03, 1.3333333333333334e-02
77, 1.5326471466221847e-03, 3.7001375277077031e-03, 1.3333333333333334e-02
78, 1.7986121321159224e-03, 4.3422338028030480e-03, 1.3333333333333334e-02
79, 2.4523552152925749e-19, 4.0049999999999999e-03, 1.3333333333333334e-02
80, 2.8779199779962800e-19, 4.7000000000000002e-03, 1.3333333333333334e-02
81, 4.0049999999999999e-03, 0.0000000000000000e+00, 2.6666666666666668e-02
82, 4.7000000000000002e-03, 0.0000000000000000e+00, 2.6666666666666668e-02
83, 3.7001375277077031e-03, 1.5326471466221845e-03, 2.6666666666666668e-02
84, 4.3422338028030480e-03, 1.7986121321159221e-03, 2.6666666666666668e-02
85, 2.8319626586521228e-03, 2.8319626586521224e-03, 2.6666666666666668e-02
86, 3.3234018715767736e-03, 3.3234018715767731e-03, 2.6666666666666668e-02
87, 1.5326471466221847e-03, 3.7001375277077031e-03, 2.6666666666666668e-02
88, 1.7986121321159224e-03, 4.3422338028030480e-03, 2.6666666666666668e-02
89, 2.4523552152925749e-19, 4.0049999999999999e-03, 2.6666666666666668e-02
90, 2.8779199779962800e-19, 4.7000000000000002e-03, 2.6666666666666668e-02
91, 4.0049999999999999e-03, 0.0000000000000000e+00, 4.0000000000000001e-02
92, 4.7000000000000002e-03, 0.0000000000000000e+00, 4.0000000000000001e-02
93, 3.7001375277077031e-03, 1.5326471466221845e-03, 4.0000000000000001e-02
94, 4.3422338028030480e-03, 1.7986121321159221e-03, 4.0000000000000001e-02
95, 2.8319626586521228e-03, 2.8319626586521224e-03, 4.0000000000000001e-02
96, 3.3234018715767736e-03, 3.3234018715767731e-03, 4.0000000000000001e-02
97, 1.5326471466221847e-03, 3.7001375277077031e-03, 4.0000000000000001e-02
98, 1.7986121321159224e-03, 4.3422338028030480e-03, 4.0000000000000001e-02
99, 2.4523552152925749e-19, 4.0049999999999999e-03, 4.0000000000000001e-02
100, 2.8779199779962800e-19, 4.7000000000000002e-03, 4.0000000000000001e-02
*Element, type=C3D8T, elset=FUEL
1, 1, 2, 5, 4, 16, 17, 20, 19
2, 2, 3, 6, 5, 17, 18, 21, 20
3, 4, 5, 8, 7, 19, 20, 23, 22
4, 5, 6, 9, 8, 20, 21, 24, 23
5, 7, 8, 11, 10, 22, 23, 26, 25
6, 8, 9, 12, 11, 23, 24, 27, 26
7, 10, 11, 14, 13, 25, 26, 29, 28
8, 11, 12, 15, 14, 26, 27, 30, 29
9, 16, 17, 20, 19, 31, 32, 35, 34
10, 17, 18, 21, 20, 32, 33, 36, 35
11, 19, 20, 23, 22, 34, 35, 38, 37
12, 20, 21, 24, 23, 35, 36, 39, 38
13, 22, 23, 26, 25, 37, 38, 41, 40
14, 23, 24, 27, 26, 38, 39, 42, 41
15, 25, 26, 29, 28, 40, 41, 44, 43
16, 26, 27, 30, 29, 41, 42, 45, 44
17, 31, 32, 35, 34, 46, 47, 50, 49
18, 32, 33, 36, 35, 47, 48, 51, 50
19, 34, 35, 38, 37, 49, 50, 53, 52
20, 35, 36, 39, 38, 50, 51, 54, 53
21, 37, 38, 41, 40, 52, 53, 56, 55
22, 38, 39, 42, 41, 53, 54, 57, 56
23, 40, 41, 44, 43, 55, 56, 59, 58
24, 41, 42, 45, 44, 56, 57, 60, 59
*Element, type=C3D8T, elset=CLAD
25, 61, 62, 64, 63, 71, 72, 74, 73
26, 63, 64, 66, 65, 73, 74, 76, 75
27, 65, 66, 68, 67, 75, 76, 78, 77
28, 67, 68, 70, 69, 77, 78, 80, 79
29, 71, 72, 74, 73, 81, 82, 84, 83
30, 73, 74, 76, 75, 83, 84, 86, 85
31, 75, 76, 78, 77, 85, 86, 88, 87
32, 77, 78, 80, 79, 87, 88, 90, 89
33, 81, 82, 84, 83, 91, 92, 94, 93
34, 83, 84, 86, 85, 93, 94, 96, 95
35, 85, 86, 88, 87, 95, 96, 98, 97
36, 87, 88, 90, 89, 97, 98, 100, 99
*Elset, elset=FUEL_CONTACT_ELEMENTS
2, 4, 6, 8, 10, 12, 14, 16, 18, 20, 22, 24
*Elset, elset=CLAD_CONTACT_ELEMENTS
25, 26, 27, 28, 29, 30, 31, 32, 33, 34, 35, 36
*Nset, nset=ALL_NODES
1, 2, 3, 4, 5, 6, 7, 8, 9, 10, 11, 12, 13, 14, 15, 16
17, 18, 19, 20, 21, 22, 23, 24, 25, 26, 27, 28, 29, 30, 31, 32
33, 34, 35, 36, 37, 38, 39, 40, 41, 42, 43, 44, 45, 46, 47, 48
49, 50, 51, 52, 53, 54, 55, 56, 57, 58, 59, 60, 61, 62, 63, 64
65, 66, 67, 68, 69, 70, 71, 72, 73, 74, 75, 76, 77, 78, 79, 80
81, 82, 83, 84, 85, 86, 87, 88, 89, 90, 91, 92, 93, 94, 95, 96
97, 98, 99, 100
*Nset, nset=FUEL_INNER_NODES
1, 4, 7, 10, 13, 16, 19, 22, 25, 28, 31, 34, 37, 40, 43, 46
49, 52, 55, 58
*Nset, nset=CLAD_OUTER_NODES
62, 64, 66, 68, 70, 72, 74, 76, 78, 80, 82, 84, 86, 88, 90, 92
94, 96, 98, 100
*Nset, nset=SECONDARY_CONTACT_NODES
61, 63, 65, 67, 69, 71, 73, 75, 77, 79, 81, 83, 85, 87, 89, 91
93, 95, 97, 99
*Nset, nset=FUEL_SYMMETRY_Y_NODES
1, 2, 3, 16, 17, 18, 31, 32, 33, 46, 47, 48
*Nset, nset=FUEL_SYMMETRY_X_NODES
13, 14, 15, 28, 29, 30, 43, 44, 45, 58, 59, 60
*Nset, nset=FUEL_BOTTOM_NODES
1, 2, 3, 4, 5, 6, 7, 8, 9, 10, 11, 12, 13, 14, 15
*Nset, nset=CLAD_SYMMETRY_Y_NODES
61, 62, 71, 72, 81, 82, 91, 92
*Nset, nset=CLAD_SYMMETRY_X_NODES
69, 70, 79, 80, 89, 90, 99, 100
*Nset, nset=CLAD_BOTTOM_NODES
61, 62, 63, 64, 65, 66, 67, 68, 69, 70
*Surface, type=ELEMENT, name=FUEL_CONTACT
FUEL_CONTACT_ELEMENTS, S4
*Surface, type=ELEMENT, name=CLAD_CONTACT
CLAD_CONTACT_ELEMENTS, S6
*Material, name=FUEL_MATERIAL
*Elastic
2.0000000000000000e11, 3.0000000000000000e-1
*Expansion, zero=6.0000000000000000e2
1.0000000000000001e-5
*Conductivity
3.0000000000000000e0
*Density
1.0000000000000000e4
*Specific Heat
3.0000000000000000e2
*Material, name=CLAD_MATERIAL
*Elastic
1.0000000000000000e11, 3.2000000000000001e-1
*Expansion, zero=6.0000000000000000e2
5.0000000000000004e-6
*Conductivity
1.5000000000000000e1
*Density
6.5000000000000000e3
*Specific Heat
3.3000000000000000e2
*Solid Section, elset=FUEL, material=FUEL_MATERIAL
,
*Solid Section, elset=CLAD, material=CLAD_MATERIAL
,
*Surface Interaction, name=FUEL_CLAD_CONTACT
*Surface Behavior, pressure-overclosure=LINEAR
1.0000000000000000e+14
*Friction, slip tolerance=5.0000000000000001e-3
1.0000000000000001e-1
*Gap Conductance, pressure
1.0000000000000000e2, 0.0
1.1000000000000000e3, 1.0e8
*Contact Pair, interaction=FUEL_CLAD_CONTACT, type=SURFACE TO SURFACE, adjust=0.
CLAD_CONTACT, FUEL_CONTACT
*Amplitude, name=FUEL_TEMPERATURE, time=TOTAL TIME
0.0, 600.0, 10000.0, 1200.0
*Initial Conditions, type=TEMPERATURE
ALL_NODES, 6.0000000000000000e2
*Step, name=PATH, nlgeom=YES, inc=80
*Coupled Temperature-Displacement
5.0000000000000000e+02, 1.0000000000000000e4, 5.0000000000000000e+02, 5.0000000000000000e+02
*Controls, parameters=FIELD, field=DISPLACEMENT
1.0000000000000000e-10, 1.0000000000000000e-10, , , , 1.0000000000000000e-10
*Boundary
FUEL_INNER_NODES, 11, 11, 6.0000000000000000e2
CLAD_OUTER_NODES, 11, 11, 6.0000000000000000e2
FUEL_SYMMETRY_Y_NODES, 2, 2, 0.0
FUEL_SYMMETRY_X_NODES, 1, 1, 0.0
FUEL_BOTTOM_NODES, 3, 3, 0.0
CLAD_SYMMETRY_Y_NODES, 2, 2, 0.0
CLAD_SYMMETRY_X_NODES, 1, 1, 0.0
CLAD_BOTTOM_NODES, 3, 3, 0.0
*Boundary, amplitude=FUEL_TEMPERATURE
FUEL_INNER_NODES, 11, 11, 1.0
*Output, field, frequency=1
*Node Output
COORD, NT, RF, RFL, U
*Element Output, directions=YES
CE, CEEQ, COORD, EE, HFL, IVOL, LE, PE, PEEQ, S, TEMP
*Contact Output
CDISP, CFORCE, CSTRESS, CTANDIR, CSTATUS, HFL
*Output, history, frequency=1
*Energy Output
ALLCD, ALLFD, ALLIE, ALLPD, ALLSE, ALLWK
*End Step
