*Heading
** b527_fine engineering quarter-cylinder fuel-cladding C3D8T full-field reference.
** fuel_radial=2 clad_radial=2 angular=6 axial=4 step=1.0000000000000000e+03 penalty=1.0000000000000000e+14
*Preprint, echo=NO, model=NO, history=NO, contact=YES
*Node
1, 1.0000000000000000e-03, 0.0000000000000000e+00, 0.0000000000000000e+00
2, 2.5000000000000001e-03, 0.0000000000000000e+00, 0.0000000000000000e+00
3, 4.0000000000000001e-03, 0.0000000000000000e+00, 0.0000000000000000e+00
4, 9.6592582628906838e-04, 2.5881904510252076e-04, 0.0000000000000000e+00
5, 2.4148145657226709e-03, 6.4704761275630185e-04, 0.0000000000000000e+00
6, 3.8637033051562735e-03, 1.0352761804100830e-03, 0.0000000000000000e+00
7, 8.6602540378443870e-04, 4.9999999999999990e-04, 0.0000000000000000e+00
8, 2.1650635094610966e-03, 1.2499999999999998e-03, 0.0000000000000000e+00
9, 3.4641016151377548e-03, 1.9999999999999996e-03, 0.0000000000000000e+00
10, 7.0710678118654762e-04, 7.0710678118654751e-04, 0.0000000000000000e+00
11, 1.7677669529663691e-03, 1.7677669529663686e-03, 0.0000000000000000e+00
12, 2.8284271247461905e-03, 2.8284271247461901e-03, 0.0000000000000000e+00
13, 5.0000000000000012e-04, 8.6602540378443859e-04, 0.0000000000000000e+00
14, 1.2500000000000002e-03, 2.1650635094610966e-03, 0.0000000000000000e+00
15, 2.0000000000000005e-03, 3.4641016151377543e-03, 0.0000000000000000e+00
16, 2.5881904510252076e-04, 9.6592582628906838e-04, 0.0000000000000000e+00
17, 6.4704761275630185e-04, 2.4148145657226709e-03, 0.0000000000000000e+00
18, 1.0352761804100830e-03, 3.8637033051562735e-03, 0.0000000000000000e+00
19, 6.1232339957367657e-20, 1.0000000000000000e-03, 0.0000000000000000e+00
20, 1.5308084989341915e-19, 2.5000000000000001e-03, 0.0000000000000000e+00
21, 2.4492935982947063e-19, 4.0000000000000001e-03, 0.0000000000000000e+00
22, 1.0000000000000000e-03, 0.0000000000000000e+00, 1.0000000000000000e-02
23, 2.5000000000000001e-03, 0.0000000000000000e+00, 1.0000000000000000e-02
24, 4.0000000000000001e-03, 0.0000000000000000e+00, 1.0000000000000000e-02
25, 9.6592582628906838e-04, 2.5881904510252076e-04, 1.0000000000000000e-02
26, 2.4148145657226709e-03, 6.4704761275630185e-04, 1.0000000000000000e-02
27, 3.8637033051562735e-03, 1.0352761804100830e-03, 1.0000000000000000e-02
28, 8.6602540378443870e-04, 4.9999999999999990e-04, 1.0000000000000000e-02
29, 2.1650635094610966e-03, 1.2499999999999998e-03, 1.0000000000000000e-02
30, 3.4641016151377548e-03, 1.9999999999999996e-03, 1.0000000000000000e-02
31, 7.0710678118654762e-04, 7.0710678118654751e-04, 1.0000000000000000e-02
32, 1.7677669529663691e-03, 1.7677669529663686e-03, 1.0000000000000000e-02
33, 2.8284271247461905e-03, 2.8284271247461901e-03, 1.0000000000000000e-02
34, 5.0000000000000012e-04, 8.6602540378443859e-04, 1.0000000000000000e-02
35, 1.2500000000000002e-03, 2.1650635094610966e-03, 1.0000000000000000e-02
36, 2.0000000000000005e-03, 3.4641016151377543e-03, 1.0000000000000000e-02
37, 2.5881904510252076e-04, 9.6592582628906838e-04, 1.0000000000000000e-02
38, 6.4704761275630185e-04, 2.4148145657226709e-03, 1.0000000000000000e-02
39, 1.0352761804100830e-03, 3.8637033051562735e-03, 1.0000000000000000e-02
40, 6.1232339957367657e-20, 1.0000000000000000e-03, 1.0000000000000000e-02
41, 1.5308084989341915e-19, 2.5000000000000001e-03, 1.0000000000000000e-02
42, 2.4492935982947063e-19, 4.0000000000000001e-03, 1.0000000000000000e-02
43, 1.0000000000000000e-03, 0.0000000000000000e+00, 2.0000000000000000e-02
44, 2.5000000000000001e-03, 0.0000000000000000e+00, 2.0000000000000000e-02
45, 4.0000000000000001e-03, 0.0000000000000000e+00, 2.0000000000000000e-02
46, 9.6592582628906838e-04, 2.5881904510252076e-04, 2.0000000000000000e-02
47, 2.4148145657226709e-03, 6.4704761275630185e-04, 2.0000000000000000e-02
48, 3.8637033051562735e-03, 1.0352761804100830e-03, 2.0000000000000000e-02
49, 8.6602540378443870e-04, 4.9999999999999990e-04, 2.0000000000000000e-02
50, 2.1650635094610966e-03, 1.2499999999999998e-03, 2.0000000000000000e-02
51, 3.4641016151377548e-03, 1.9999999999999996e-03, 2.0000000000000000e-02
52, 7.0710678118654762e-04, 7.0710678118654751e-04, 2.0000000000000000e-02
53, 1.7677669529663691e-03, 1.7677669529663686e-03, 2.0000000000000000e-02
54, 2.8284271247461905e-03, 2.8284271247461901e-03, 2.0000000000000000e-02
55, 5.0000000000000012e-04, 8.6602540378443859e-04, 2.0000000000000000e-02
56, 1.2500000000000002e-03, 2.1650635094610966e-03, 2.0000000000000000e-02
57, 2.0000000000000005e-03, 3.4641016151377543e-03, 2.0000000000000000e-02
58, 2.5881904510252076e-04, 9.6592582628906838e-04, 2.0000000000000000e-02
59, 6.4704761275630185e-04, 2.4148145657226709e-03, 2.0000000000000000e-02
60, 1.0352761804100830e-03, 3.8637033051562735e-03, 2.0000000000000000e-02
61, 6.1232339957367657e-20, 1.0000000000000000e-03, 2.0000000000000000e-02
62, 1.5308084989341915e-19, 2.5000000000000001e-03, 2.0000000000000000e-02
63, 2.4492935982947063e-19, 4.0000000000000001e-03, 2.0000000000000000e-02
64, 1.0000000000000000e-03, 0.0000000000000000e+00, 2.9999999999999999e-02
65, 2.5000000000000001e-03, 0.0000000000000000e+00, 2.9999999999999999e-02
66, 4.0000000000000001e-03, 0.0000000000000000e+00, 2.9999999999999999e-02
67, 9.6592582628906838e-04, 2.5881904510252076e-04, 2.9999999999999999e-02
68, 2.4148145657226709e-03, 6.4704761275630185e-04, 2.9999999999999999e-02
69, 3.8637033051562735e-03, 1.0352761804100830e-03, 2.9999999999999999e-02
70, 8.6602540378443870e-04, 4.9999999999999990e-04, 2.9999999999999999e-02
71, 2.1650635094610966e-03, 1.2499999999999998e-03, 2.9999999999999999e-02
72, 3.4641016151377548e-03, 1.9999999999999996e-03, 2.9999999999999999e-02
73, 7.0710678118654762e-04, 7.0710678118654751e-04, 2.9999999999999999e-02
74, 1.7677669529663691e-03, 1.7677669529663686e-03, 2.9999999999999999e-02
75, 2.8284271247461905e-03, 2.8284271247461901e-03, 2.9999999999999999e-02
76, 5.0000000000000012e-04, 8.6602540378443859e-04, 2.9999999999999999e-02
77, 1.2500000000000002e-03, 2.1650635094610966e-03, 2.9999999999999999e-02
78, 2.0000000000000005e-03, 3.4641016151377543e-03, 2.9999999999999999e-02
79, 2.5881904510252076e-04, 9.6592582628906838e-04, 2.9999999999999999e-02
80, 6.4704761275630185e-04, 2.4148145657226709e-03, 2.9999999999999999e-02
81, 1.0352761804100830e-03, 3.8637033051562735e-03, 2.9999999999999999e-02
82, 6.1232339957367657e-20, 1.0000000000000000e-03, 2.9999999999999999e-02
83, 1.5308084989341915e-19, 2.5000000000000001e-03, 2.9999999999999999e-02
84, 2.4492935982947063e-19, 4.0000000000000001e-03, 2.9999999999999999e-02
85, 1.0000000000000000e-03, 0.0000000000000000e+00, 4.0000000000000001e-02
86, 2.5000000000000001e-03, 0.0000000000000000e+00, 4.0000000000000001e-02
87, 4.0000000000000001e-03, 0.0000000000000000e+00, 4.0000000000000001e-02
88, 9.6592582628906838e-04, 2.5881904510252076e-04, 4.0000000000000001e-02
89, 2.4148145657226709e-03, 6.4704761275630185e-04, 4.0000000000000001e-02
90, 3.8637033051562735e-03, 1.0352761804100830e-03, 4.0000000000000001e-02
91, 8.6602540378443870e-04, 4.9999999999999990e-04, 4.0000000000000001e-02
92, 2.1650635094610966e-03, 1.2499999999999998e-03, 4.0000000000000001e-02
93, 3.4641016151377548e-03, 1.9999999999999996e-03, 4.0000000000000001e-02
94, 7.0710678118654762e-04, 7.0710678118654751e-04, 4.0000000000000001e-02
95, 1.7677669529663691e-03, 1.7677669529663686e-03, 4.0000000000000001e-02
96, 2.8284271247461905e-03, 2.8284271247461901e-03, 4.0000000000000001e-02
97, 5.0000000000000012e-04, 8.6602540378443859e-04, 4.0000000000000001e-02
98, 1.2500000000000002e-03, 2.1650635094610966e-03, 4.0000000000000001e-02
99, 2.0000000000000005e-03, 3.4641016151377543e-03, 4.0000000000000001e-02
100, 2.5881904510252076e-04, 9.6592582628906838e-04, 4.0000000000000001e-02
101, 6.4704761275630185e-04, 2.4148145657226709e-03, 4.0000000000000001e-02
102, 1.0352761804100830e-03, 3.8637033051562735e-03, 4.0000000000000001e-02
103, 6.1232339957367657e-20, 1.0000000000000000e-03, 4.0000000000000001e-02
104, 1.5308084989341915e-19, 2.5000000000000001e-03, 4.0000000000000001e-02
105, 2.4492935982947063e-19, 4.0000000000000001e-03, 4.0000000000000001e-02
106, 4.0049999999999999e-03, 0.0000000000000000e+00, 0.0000000000000000e+00
107, 4.3525000000000005e-03, 0.0000000000000000e+00, 0.0000000000000000e+00
108, 4.7000000000000002e-03, 0.0000000000000000e+00, 0.0000000000000000e+00
109, 3.8685329342877184e-03, 1.0365702756355956e-03, 0.0000000000000000e+00
110, 4.2041921589231705e-03, 1.1265098938087216e-03, 0.0000000000000000e+00
111, 4.5398513835586216e-03, 1.2164495119818476e-03, 0.0000000000000000e+00
112, 3.4684317421566769e-03, 2.0024999999999995e-03, 0.0000000000000000e+00
113, 3.7693755699717700e-03, 2.1762499999999998e-03, 0.0000000000000000e+00
114, 4.0703193977868618e-03, 2.3499999999999997e-03, 0.0000000000000000e+00
115, 2.8319626586521228e-03, 2.8319626586521224e-03, 0.0000000000000000e+00
116, 3.0776822651144486e-03, 3.0776822651144482e-03, 0.0000000000000000e+00
117, 3.3234018715767736e-03, 3.3234018715767731e-03, 0.0000000000000000e+00
118, 2.0025000000000004e-03, 3.4684317421566765e-03, 0.0000000000000000e+00
119, 2.1762500000000007e-03, 3.7693755699717696e-03, 0.0000000000000000e+00
120, 2.3500000000000005e-03, 4.0703193977868618e-03, 0.0000000000000000e+00
121, 1.0365702756355956e-03, 3.8685329342877184e-03, 0.0000000000000000e+00
122, 1.1265098938087216e-03, 4.2041921589231705e-03, 0.0000000000000000e+00
123, 1.2164495119818476e-03, 4.5398513835586216e-03, 0.0000000000000000e+00
124, 2.4523552152925749e-19, 4.0049999999999999e-03, 0.0000000000000000e+00
125, 2.6651375966444277e-19, 4.3525000000000005e-03, 0.0000000000000000e+00
126, 2.8779199779962800e-19, 4.7000000000000002e-03, 0.0000000000000000e+00
127, 4.0049999999999999e-03, 0.0000000000000000e+00, 1.0000000000000000e-02
128, 4.3525000000000005e-03, 0.0000000000000000e+00, 1.0000000000000000e-02
129, 4.7000000000000002e-03, 0.0000000000000000e+00, 1.0000000000000000e-02
130, 3.8685329342877184e-03, 1.0365702756355956e-03, 1.0000000000000000e-02
131, 4.2041921589231705e-03, 1.1265098938087216e-03, 1.0000000000000000e-02
132, 4.5398513835586216e-03, 1.2164495119818476e-03, 1.0000000000000000e-02
133, 3.4684317421566769e-03, 2.0024999999999995e-03, 1.0000000000000000e-02
134, 3.7693755699717700e-03, 2.1762499999999998e-03, 1.0000000000000000e-02
135, 4.0703193977868618e-03, 2.3499999999999997e-03, 1.0000000000000000e-02
136, 2.8319626586521228e-03, 2.8319626586521224e-03, 1.0000000000000000e-02
137, 3.0776822651144486e-03, 3.0776822651144482e-03, 1.0000000000000000e-02
138, 3.3234018715767736e-03, 3.3234018715767731e-03, 1.0000000000000000e-02
139, 2.0025000000000004e-03, 3.4684317421566765e-03, 1.0000000000000000e-02
140, 2.1762500000000007e-03, 3.7693755699717696e-03, 1.0000000000000000e-02
141, 2.3500000000000005e-03, 4.0703193977868618e-03, 1.0000000000000000e-02
142, 1.0365702756355956e-03, 3.8685329342877184e-03, 1.0000000000000000e-02
143, 1.1265098938087216e-03, 4.2041921589231705e-03, 1.0000000000000000e-02
144, 1.2164495119818476e-03, 4.5398513835586216e-03, 1.0000000000000000e-02
145, 2.4523552152925749e-19, 4.0049999999999999e-03, 1.0000000000000000e-02
146, 2.6651375966444277e-19, 4.3525000000000005e-03, 1.0000000000000000e-02
147, 2.8779199779962800e-19, 4.7000000000000002e-03, 1.0000000000000000e-02
148, 4.0049999999999999e-03, 0.0000000000000000e+00, 2.0000000000000000e-02
149, 4.3525000000000005e-03, 0.0000000000000000e+00, 2.0000000000000000e-02
150, 4.7000000000000002e-03, 0.0000000000000000e+00, 2.0000000000000000e-02
151, 3.8685329342877184e-03, 1.0365702756355956e-03, 2.0000000000000000e-02
152, 4.2041921589231705e-03, 1.1265098938087216e-03, 2.0000000000000000e-02
153, 4.5398513835586216e-03, 1.2164495119818476e-03, 2.0000000000000000e-02
154, 3.4684317421566769e-03, 2.0024999999999995e-03, 2.0000000000000000e-02
155, 3.7693755699717700e-03, 2.1762499999999998e-03, 2.0000000000000000e-02
156, 4.0703193977868618e-03, 2.3499999999999997e-03, 2.0000000000000000e-02
157, 2.8319626586521228e-03, 2.8319626586521224e-03, 2.0000000000000000e-02
158, 3.0776822651144486e-03, 3.0776822651144482e-03, 2.0000000000000000e-02
159, 3.3234018715767736e-03, 3.3234018715767731e-03, 2.0000000000000000e-02
160, 2.0025000000000004e-03, 3.4684317421566765e-03, 2.0000000000000000e-02
161, 2.1762500000000007e-03, 3.7693755699717696e-03, 2.0000000000000000e-02
162, 2.3500000000000005e-03, 4.0703193977868618e-03, 2.0000000000000000e-02
163, 1.0365702756355956e-03, 3.8685329342877184e-03, 2.0000000000000000e-02
164, 1.1265098938087216e-03, 4.2041921589231705e-03, 2.0000000000000000e-02
165, 1.2164495119818476e-03, 4.5398513835586216e-03, 2.0000000000000000e-02
166, 2.4523552152925749e-19, 4.0049999999999999e-03, 2.0000000000000000e-02
167, 2.6651375966444277e-19, 4.3525000000000005e-03, 2.0000000000000000e-02
168, 2.8779199779962800e-19, 4.7000000000000002e-03, 2.0000000000000000e-02
169, 4.0049999999999999e-03, 0.0000000000000000e+00, 2.9999999999999999e-02
170, 4.3525000000000005e-03, 0.0000000000000000e+00, 2.9999999999999999e-02
171, 4.7000000000000002e-03, 0.0000000000000000e+00, 2.9999999999999999e-02
172, 3.8685329342877184e-03, 1.0365702756355956e-03, 2.9999999999999999e-02
173, 4.2041921589231705e-03, 1.1265098938087216e-03, 2.9999999999999999e-02
174, 4.5398513835586216e-03, 1.2164495119818476e-03, 2.9999999999999999e-02
175, 3.4684317421566769e-03, 2.0024999999999995e-03, 2.9999999999999999e-02
176, 3.7693755699717700e-03, 2.1762499999999998e-03, 2.9999999999999999e-02
177, 4.0703193977868618e-03, 2.3499999999999997e-03, 2.9999999999999999e-02
178, 2.8319626586521228e-03, 2.8319626586521224e-03, 2.9999999999999999e-02
179, 3.0776822651144486e-03, 3.0776822651144482e-03, 2.9999999999999999e-02
180, 3.3234018715767736e-03, 3.3234018715767731e-03, 2.9999999999999999e-02
181, 2.0025000000000004e-03, 3.4684317421566765e-03, 2.9999999999999999e-02
182, 2.1762500000000007e-03, 3.7693755699717696e-03, 2.9999999999999999e-02
183, 2.3500000000000005e-03, 4.0703193977868618e-03, 2.9999999999999999e-02
184, 1.0365702756355956e-03, 3.8685329342877184e-03, 2.9999999999999999e-02
185, 1.1265098938087216e-03, 4.2041921589231705e-03, 2.9999999999999999e-02
186, 1.2164495119818476e-03, 4.5398513835586216e-03, 2.9999999999999999e-02
187, 2.4523552152925749e-19, 4.0049999999999999e-03, 2.9999999999999999e-02
188, 2.6651375966444277e-19, 4.3525000000000005e-03, 2.9999999999999999e-02
189, 2.8779199779962800e-19, 4.7000000000000002e-03, 2.9999999999999999e-02
190, 4.0049999999999999e-03, 0.0000000000000000e+00, 4.0000000000000001e-02
191, 4.3525000000000005e-03, 0.0000000000000000e+00, 4.0000000000000001e-02
192, 4.7000000000000002e-03, 0.0000000000000000e+00, 4.0000000000000001e-02
193, 3.8685329342877184e-03, 1.0365702756355956e-03, 4.0000000000000001e-02
194, 4.2041921589231705e-03, 1.1265098938087216e-03, 4.0000000000000001e-02
195, 4.5398513835586216e-03, 1.2164495119818476e-03, 4.0000000000000001e-02
196, 3.4684317421566769e-03, 2.0024999999999995e-03, 4.0000000000000001e-02
197, 3.7693755699717700e-03, 2.1762499999999998e-03, 4.0000000000000001e-02
198, 4.0703193977868618e-03, 2.3499999999999997e-03, 4.0000000000000001e-02
199, 2.8319626586521228e-03, 2.8319626586521224e-03, 4.0000000000000001e-02
200, 3.0776822651144486e-03, 3.0776822651144482e-03, 4.0000000000000001e-02
201, 3.3234018715767736e-03, 3.3234018715767731e-03, 4.0000000000000001e-02
202, 2.0025000000000004e-03, 3.4684317421566765e-03, 4.0000000000000001e-02
203, 2.1762500000000007e-03, 3.7693755699717696e-03, 4.0000000000000001e-02
204, 2.3500000000000005e-03, 4.0703193977868618e-03, 4.0000000000000001e-02
205, 1.0365702756355956e-03, 3.8685329342877184e-03, 4.0000000000000001e-02
206, 1.1265098938087216e-03, 4.2041921589231705e-03, 4.0000000000000001e-02
207, 1.2164495119818476e-03, 4.5398513835586216e-03, 4.0000000000000001e-02
208, 2.4523552152925749e-19, 4.0049999999999999e-03, 4.0000000000000001e-02
209, 2.6651375966444277e-19, 4.3525000000000005e-03, 4.0000000000000001e-02
210, 2.8779199779962800e-19, 4.7000000000000002e-03, 4.0000000000000001e-02
*Element, type=C3D8T, elset=FUEL
1, 1, 2, 5, 4, 22, 23, 26, 25
2, 2, 3, 6, 5, 23, 24, 27, 26
3, 4, 5, 8, 7, 25, 26, 29, 28
4, 5, 6, 9, 8, 26, 27, 30, 29
5, 7, 8, 11, 10, 28, 29, 32, 31
6, 8, 9, 12, 11, 29, 30, 33, 32
7, 10, 11, 14, 13, 31, 32, 35, 34
8, 11, 12, 15, 14, 32, 33, 36, 35
9, 13, 14, 17, 16, 34, 35, 38, 37
10, 14, 15, 18, 17, 35, 36, 39, 38
11, 16, 17, 20, 19, 37, 38, 41, 40
12, 17, 18, 21, 20, 38, 39, 42, 41
13, 22, 23, 26, 25, 43, 44, 47, 46
14, 23, 24, 27, 26, 44, 45, 48, 47
15, 25, 26, 29, 28, 46, 47, 50, 49
16, 26, 27, 30, 29, 47, 48, 51, 50
17, 28, 29, 32, 31, 49, 50, 53, 52
18, 29, 30, 33, 32, 50, 51, 54, 53
19, 31, 32, 35, 34, 52, 53, 56, 55
20, 32, 33, 36, 35, 53, 54, 57, 56
21, 34, 35, 38, 37, 55, 56, 59, 58
22, 35, 36, 39, 38, 56, 57, 60, 59
23, 37, 38, 41, 40, 58, 59, 62, 61
24, 38, 39, 42, 41, 59, 60, 63, 62
25, 43, 44, 47, 46, 64, 65, 68, 67
26, 44, 45, 48, 47, 65, 66, 69, 68
27, 46, 47, 50, 49, 67, 68, 71, 70
28, 47, 48, 51, 50, 68, 69, 72, 71
29, 49, 50, 53, 52, 70, 71, 74, 73
30, 50, 51, 54, 53, 71, 72, 75, 74
31, 52, 53, 56, 55, 73, 74, 77, 76
32, 53, 54, 57, 56, 74, 75, 78, 77
33, 55, 56, 59, 58, 76, 77, 80, 79
34, 56, 57, 60, 59, 77, 78, 81, 80
35, 58, 59, 62, 61, 79, 80, 83, 82
36, 59, 60, 63, 62, 80, 81, 84, 83
37, 64, 65, 68, 67, 85, 86, 89, 88
38, 65, 66, 69, 68, 86, 87, 90, 89
39, 67, 68, 71, 70, 88, 89, 92, 91
40, 68, 69, 72, 71, 89, 90, 93, 92
41, 70, 71, 74, 73, 91, 92, 95, 94
42, 71, 72, 75, 74, 92, 93, 96, 95
43, 73, 74, 77, 76, 94, 95, 98, 97
44, 74, 75, 78, 77, 95, 96, 99, 98
45, 76, 77, 80, 79, 97, 98, 101, 100
46, 77, 78, 81, 80, 98, 99, 102, 101
47, 79, 80, 83, 82, 100, 101, 104, 103
48, 80, 81, 84, 83, 101, 102, 105, 104
*Element, type=C3D8T, elset=CLAD
49, 106, 107, 110, 109, 127, 128, 131, 130
50, 107, 108, 111, 110, 128, 129, 132, 131
51, 109, 110, 113, 112, 130, 131, 134, 133
52, 110, 111, 114, 113, 131, 132, 135, 134
53, 112, 113, 116, 115, 133, 134, 137, 136
54, 113, 114, 117, 116, 134, 135, 138, 137
55, 115, 116, 119, 118, 136, 137, 140, 139
56, 116, 117, 120, 119, 137, 138, 141, 140
57, 118, 119, 122, 121, 139, 140, 143, 142
58, 119, 120, 123, 122, 140, 141, 144, 143
59, 121, 122, 125, 124, 142, 143, 146, 145
60, 122, 123, 126, 125, 143, 144, 147, 146
61, 127, 128, 131, 130, 148, 149, 152, 151
62, 128, 129, 132, 131, 149, 150, 153, 152
63, 130, 131, 134, 133, 151, 152, 155, 154
64, 131, 132, 135, 134, 152, 153, 156, 155
65, 133, 134, 137, 136, 154, 155, 158, 157
66, 134, 135, 138, 137, 155, 156, 159, 158
67, 136, 137, 140, 139, 157, 158, 161, 160
68, 137, 138, 141, 140, 158, 159, 162, 161
69, 139, 140, 143, 142, 160, 161, 164, 163
70, 140, 141, 144, 143, 161, 162, 165, 164
71, 142, 143, 146, 145, 163, 164, 167, 166
72, 143, 144, 147, 146, 164, 165, 168, 167
73, 148, 149, 152, 151, 169, 170, 173, 172
74, 149, 150, 153, 152, 170, 171, 174, 173
75, 151, 152, 155, 154, 172, 173, 176, 175
76, 152, 153, 156, 155, 173, 174, 177, 176
77, 154, 155, 158, 157, 175, 176, 179, 178
78, 155, 156, 159, 158, 176, 177, 180, 179
79, 157, 158, 161, 160, 178, 179, 182, 181
80, 158, 159, 162, 161, 179, 180, 183, 182
81, 160, 161, 164, 163, 181, 182, 185, 184
82, 161, 162, 165, 164, 182, 183, 186, 185
83, 163, 164, 167, 166, 184, 185, 188, 187
84, 164, 165, 168, 167, 185, 186, 189, 188
85, 169, 170, 173, 172, 190, 191, 194, 193
86, 170, 171, 174, 173, 191, 192, 195, 194
87, 172, 173, 176, 175, 193, 194, 197, 196
88, 173, 174, 177, 176, 194, 195, 198, 197
89, 175, 176, 179, 178, 196, 197, 200, 199
90, 176, 177, 180, 179, 197, 198, 201, 200
91, 178, 179, 182, 181, 199, 200, 203, 202
92, 179, 180, 183, 182, 200, 201, 204, 203
93, 181, 182, 185, 184, 202, 203, 206, 205
94, 182, 183, 186, 185, 203, 204, 207, 206
95, 184, 185, 188, 187, 205, 206, 209, 208
96, 185, 186, 189, 188, 206, 207, 210, 209
*Elset, elset=FUEL_CONTACT_ELEMENTS
2, 4, 6, 8, 10, 12, 14, 16, 18, 20, 22, 24, 26, 28, 30, 32
34, 36, 38, 40, 42, 44, 46, 48
*Elset, elset=CLAD_CONTACT_ELEMENTS
49, 51, 53, 55, 57, 59, 61, 63, 65, 67, 69, 71, 73, 75, 77, 79
81, 83, 85, 87, 89, 91, 93, 95
*Nset, nset=ALL_NODES
1, 2, 3, 4, 5, 6, 7, 8, 9, 10, 11, 12, 13, 14, 15, 16
17, 18, 19, 20, 21, 22, 23, 24, 25, 26, 27, 28, 29, 30, 31, 32
33, 34, 35, 36, 37, 38, 39, 40, 41, 42, 43, 44, 45, 46, 47, 48
49, 50, 51, 52, 53, 54, 55, 56, 57, 58, 59, 60, 61, 62, 63, 64
65, 66, 67, 68, 69, 70, 71, 72, 73, 74, 75, 76, 77, 78, 79, 80
81, 82, 83, 84, 85, 86, 87, 88, 89, 90, 91, 92, 93, 94, 95, 96
97, 98, 99, 100, 101, 102, 103, 104, 105, 106, 107, 108, 109, 110, 111, 112
113, 114, 115, 116, 117, 118, 119, 120, 121, 122, 123, 124, 125, 126, 127, 128
129, 130, 131, 132, 133, 134, 135, 136, 137, 138, 139, 140, 141, 142, 143, 144
145, 146, 147, 148, 149, 150, 151, 152, 153, 154, 155, 156, 157, 158, 159, 160
161, 162, 163, 164, 165, 166, 167, 168, 169, 170, 171, 172, 173, 174, 175, 176
177, 178, 179, 180, 181, 182, 183, 184, 185, 186, 187, 188, 189, 190, 191, 192
193, 194, 195, 196, 197, 198, 199, 200, 201, 202, 203, 204, 205, 206, 207, 208
209, 210
*Nset, nset=FUEL_INNER_NODES
1, 4, 7, 10, 13, 16, 19, 22, 25, 28, 31, 34, 37, 40, 43, 46
49, 52, 55, 58, 61, 64, 67, 70, 73, 76, 79, 82, 85, 88, 91, 94
97, 100, 103
*Nset, nset=CLAD_OUTER_NODES
108, 111, 114, 117, 120, 123, 126, 129, 132, 135, 138, 141, 144, 147, 150, 153
156, 159, 162, 165, 168, 171, 174, 177, 180, 183, 186, 189, 192, 195, 198, 201
204, 207, 210
*Nset, nset=SECONDARY_CONTACT_NODES
106, 109, 112, 115, 118, 121, 124, 127, 130, 133, 136, 139, 142, 145, 148, 151
154, 157, 160, 163, 166, 169, 172, 175, 178, 181, 184, 187, 190, 193, 196, 199
202, 205, 208
*Nset, nset=FUEL_SYMMETRY_Y_NODES
1, 2, 3, 22, 23, 24, 43, 44, 45, 64, 65, 66, 85, 86, 87
*Nset, nset=FUEL_SYMMETRY_X_NODES
19, 20, 21, 40, 41, 42, 61, 62, 63, 82, 83, 84, 103, 104, 105
*Nset, nset=FUEL_BOTTOM_NODES
1, 2, 3, 4, 5, 6, 7, 8, 9, 10, 11, 12, 13, 14, 15, 16
17, 18, 19, 20, 21
*Nset, nset=CLAD_SYMMETRY_Y_NODES
106, 107, 108, 127, 128, 129, 148, 149, 150, 169, 170, 171, 190, 191, 192
*Nset, nset=CLAD_SYMMETRY_X_NODES
124, 125, 126, 145, 146, 147, 166, 167, 168, 187, 188, 189, 208, 209, 210
*Nset, nset=CLAD_BOTTOM_NODES
106, 107, 108, 109, 110, 111, 112, 113, 114, 115, 116, 117, 118, 119, 120, 121
122, 123, 124, 125, 126
*Surface, type=ELEMENT, name=FUEL_CONTACT
FUEL_CONTACT_ELEMENTS, S4
*Surface, type=ELEMENT, name=CLAD_CONTACT
CLAD_CONTACT_ELEMENTS, S6
*Material, name=FUEL_MATERIAL
*Elastic
2.0000000000000000e11, 3.0000000000000000e-1
*Expansion, zero=6.0000000000000000e2
1.0000000000000001e-5
*Conductivity
3.0000000000000000e0
*Density
1.0000000000000000e4
*Specific Heat
3.0000000000000000e2
*Material, name=CLAD_MATERIAL
*Elastic
1.0000000000000000e11, 3.2000000000000001e-1
*Expansion, zero=6.0000000000000000e2
5.0000000000000004e-6
*Conductivity
1.5000000000000000e1
*Density
6.5000000000000000e3
*Specific Heat
3.3000000000000000e2
*Solid Section, elset=FUEL, material=FUEL_MATERIAL
,
*Solid Section, elset=CLAD, material=CLAD_MATERIAL
,
*Surface Interaction, name=FUEL_CLAD_CONTACT
*Surface Behavior, pressure-overclosure=LINEAR
1.0000000000000000e+14
*Friction, slip tolerance=5.0000000000000001e-3
1.0000000000000001e-1
*Gap Conductance, pressure
1.0000000000000000e2, 0.0
1.1000000000000000e3, 1.0e8
*Contact Pair, interaction=FUEL_CLAD_CONTACT, type=SURFACE TO SURFACE, adjust=0.
CLAD_CONTACT, FUEL_CONTACT
*Amplitude, name=FUEL_TEMPERATURE, time=TOTAL TIME
0.0, 600.0, 10000.0, 1200.0
*Initial Conditions, type=TEMPERATURE
ALL_NODES, 6.0000000000000000e2
*Step, name=PATH, nlgeom=YES, inc=80
*Coupled Temperature-Displacement
1.0000000000000000e+03, 1.0000000000000000e4, 1.0000000000000000e+03, 1.0000000000000000e+03
*Controls, parameters=FIELD, field=DISPLACEMENT
1.0000000000000000e-10, 1.0000000000000000e-10, , , , 1.0000000000000000e-10
*Boundary
FUEL_INNER_NODES, 11, 11, 6.0000000000000000e2
CLAD_OUTER_NODES, 11, 11, 6.0000000000000000e2
FUEL_SYMMETRY_Y_NODES, 2, 2, 0.0
FUEL_SYMMETRY_X_NODES, 1, 1, 0.0
FUEL_BOTTOM_NODES, 3, 3, 0.0
CLAD_SYMMETRY_Y_NODES, 2, 2, 0.0
CLAD_SYMMETRY_X_NODES, 1, 1, 0.0
CLAD_BOTTOM_NODES, 3, 3, 0.0
*Boundary, amplitude=FUEL_TEMPERATURE
FUEL_INNER_NODES, 11, 11, 1.0
*Output, field, frequency=1
*Node Output
COORD, NT, RF, RFL, U
*Element Output, directions=YES
CE, CEEQ, COORD, EE, HFL, IVOL, LE, PE, PEEQ, S, TEMP
*Contact Output
CDISP, CFORCE, CSTRESS, CTANDIR, CSTATUS, HFL
*Output, history, frequency=1
*Energy Output
ALLCD, ALLFD, ALLIE, ALLPD, ALLSE, ALLWK
*End Step
