*Heading
** B5.2 Abaqus/Standard C3D8T fixed-gap thermal-contact probe.
** SI units: metre, second, kelvin, watt.
*Preprint, echo=NO, model=NO, history=NO, contact=NO
*Node
1, 0.0000000000000000e+00, 0.0000000000000000e+00, 0.0000000000000000e+00
2, 1.0000000000000000e+00, 0.0000000000000000e+00, 0.0000000000000000e+00
3, 1.0000000000000000e+00, 1.0000000000000000e+00, 0.0000000000000000e+00
4, 0.0000000000000000e+00, 1.0000000000000000e+00, 0.0000000000000000e+00
5, 0.0000000000000000e+00, 0.0000000000000000e+00, 1.0000000000000000e+00
6, 1.0000000000000000e+00, 0.0000000000000000e+00, 1.0000000000000000e+00
7, 1.0000000000000000e+00, 1.0000000000000000e+00, 1.0000000000000000e+00
8, 0.0000000000000000e+00, 1.0000000000000000e+00, 1.0000000000000000e+00
9, 1.1000000000000001e+00, 0.0000000000000000e+00, 0.0000000000000000e+00
10, 2.1000000000000001e+00, 0.0000000000000000e+00, 0.0000000000000000e+00
11, 2.1000000000000001e+00, 1.0000000000000000e+00, 0.0000000000000000e+00
12, 1.1000000000000001e+00, 1.0000000000000000e+00, 0.0000000000000000e+00
13, 1.1000000000000001e+00, 0.0000000000000000e+00, 1.0000000000000000e+00
14, 2.1000000000000001e+00, 0.0000000000000000e+00, 1.0000000000000000e+00
15, 2.1000000000000001e+00, 1.0000000000000000e+00, 1.0000000000000000e+00
16, 1.1000000000000001e+00, 1.0000000000000000e+00, 1.0000000000000000e+00
*Element, type=C3D8T, elset=BLOCKS
1, 1, 2, 3, 4, 5, 6, 7, 8
2, 9, 10, 11, 12, 13, 14, 15, 16
*Nset, nset=ALL_NODES, generate
1, 16, 1
*Nset, nset=HOT
1, 4, 5, 8
*Nset, nset=COLD
10, 11, 14, 15
*Surface, type=ELEMENT, name=SECONDARY_CONTACT
1, S4
*Surface, type=ELEMENT, name=PRIMARY_CONTACT
2, S6
*Material, name=THERMAL
*Elastic
2.0000000000000000e11, 2.5000000000000000e-1
*Expansion, zero=3.0000000000000000e2
0.0
*Conductivity
4.0000000000000000e0
*Density
2.0000000000000000e3
*Specific Heat
3.0000000000000000e3
*Solid Section, elset=BLOCKS, material=THERMAL
,
*Surface Interaction, name=THERMAL_GAP
*Gap Conductance
4.0000000000000000e1, 0.0000000000000000e0
4.0000000000000000e1, 2.0000000000000001e-1
*Contact Pair, interaction=THERMAL_GAP, type=SURFACE TO SURFACE, small sliding, adjust=0.
SECONDARY_CONTACT, PRIMARY_CONTACT
*Initial Conditions, type=TEMPERATURE
ALL_NODES, 3.0000000000000000e2
*Step, name=HEAT, nlgeom=NO, inc=20
*Coupled Temperature-Displacement, steady state
1.0, 1.0, 1.0e-8, 1.0
*Boundary
ALL_NODES, 1, 3, 0.0
HOT, 11, 11, 4.0000000000000000e2
COLD, 11, 11, 3.0000000000000000e2
*Output, field, frequency=1
*Node Output
COORD, NT, RFL, U
*Element Output, directions=YES
COORD, HFL
*End Step
