*Heading
** C3D8RT Abaqus/Standard C3D8RT corner-integrated thermal-load probe.
** SI units: metre, kelvin, watt.
*Preprint, echo=NO, model=NO, history=NO, contact=NO
*Node
1, 0.0000000000000000e+00, 0.0000000000000000e+00, 0.0000000000000000e+00
2, 1.2000000000000000e+00, 1.0000000000000001e-01, -5.0000000000000003e-02
3, 1.1000000000000001e+00, 1.0000000000000000e+00, 1.0000000000000001e-01
4, -1.0000000000000001e-01, 9.0000000000000002e-01, 0.0000000000000000e+00
5, 5.0000000000000003e-02, -1.0000000000000001e-01, 1.0000000000000000e+00
6, 1.3000000000000000e+00, 0.0000000000000000e+00, 1.1000000000000001e+00
7, 1.0000000000000000e+00, 1.2000000000000000e+00, 9.0000000000000002e-01
8, -2.0000000000000001e-01, 1.0000000000000000e+00, 1.2000000000000000e+00
9, 3.0000000000000000e+00, 0.0000000000000000e+00, 0.0000000000000000e+00
10, 4.2000000000000002e+00, 1.0000000000000001e-01, -5.0000000000000003e-02
11, 4.0999999999999996e+00, 1.0000000000000000e+00, 1.0000000000000001e-01
12, 2.8999999999999999e+00, 9.0000000000000002e-01, 0.0000000000000000e+00
13, 3.0499999999999998e+00, -1.0000000000000001e-01, 1.0000000000000000e+00
14, 4.2999999999999998e+00, 0.0000000000000000e+00, 1.1000000000000001e+00
15, 4.0000000000000000e+00, 1.2000000000000000e+00, 9.0000000000000002e-01
16, 2.7999999999999998e+00, 1.0000000000000000e+00, 1.2000000000000000e+00
17, 6.0000000000000000e+00, 0.0000000000000000e+00, 0.0000000000000000e+00
18, 7.2000000000000002e+00, 1.0000000000000001e-01, -5.0000000000000003e-02
19, 7.0999999999999996e+00, 1.0000000000000000e+00, 1.0000000000000001e-01
20, 5.9000000000000004e+00, 9.0000000000000002e-01, 0.0000000000000000e+00
21, 6.0499999999999998e+00, -1.0000000000000001e-01, 1.0000000000000000e+00
22, 7.2999999999999998e+00, 0.0000000000000000e+00, 1.1000000000000001e+00
23, 7.0000000000000000e+00, 1.2000000000000000e+00, 9.0000000000000002e-01
24, 5.7999999999999998e+00, 1.0000000000000000e+00, 1.2000000000000000e+00
25, 9.0000000000000000e+00, 0.0000000000000000e+00, 0.0000000000000000e+00
26, 1.1000000000000000e+01, 0.0000000000000000e+00, 0.0000000000000000e+00
27, 1.0500000000000000e+01, 1.0000000000000000e+00, 0.0000000000000000e+00
28, 9.0000000000000000e+00, 1.0000000000000000e+00, 0.0000000000000000e+00
29, 9.0000000000000000e+00, 0.0000000000000000e+00, 1.0000000000000000e+00
30, 1.1000000000000000e+01, 0.0000000000000000e+00, 1.0000000000000000e+00
31, 1.0500000000000000e+01, 1.0000000000000000e+00, 1.0000000000000000e+00
32, 9.0000000000000000e+00, 1.0000000000000000e+00, 1.0000000000000000e+00
33, 1.2050000000000001e+01, -1.0000000000000001e-01, 0.0000000000000000e+00
34, 1.3300000000000001e+01, 0.0000000000000000e+00, 1.0000000000000009e-01
35, 1.3000000000000000e+01, 1.2000000000000000e+00, -9.9999999999999978e-02
36, 1.1800000000000001e+01, 1.0000000000000000e+00, 1.9999999999999996e-01
37, 1.2050000000000001e+01, -1.0000000000000001e-01, 1.0000000000000000e+00
38, 1.3300000000000001e+01, 0.0000000000000000e+00, 1.1000000000000001e+00
39, 1.3000000000000000e+01, 1.2000000000000000e+00, 9.0000000000000002e-01
40, 1.1800000000000001e+01, 1.0000000000000000e+00, 1.2000000000000000e+00
41, 1.5000000000000000e+01, 0.0000000000000000e+00, 0.0000000000000000e+00
42, 1.6000000000000000e+01, 0.0000000000000000e+00, 0.0000000000000000e+00
43, 1.6000000000000000e+01, 1.0000000000000000e+00, 1.0000000000000009e-01
44, 1.5000000000000000e+01, 1.0000000000000000e+00, 0.0000000000000000e+00
45, 1.5000000000000000e+01, 0.0000000000000000e+00, 1.0000000000000000e+00
46, 1.6000000000000000e+01, 0.0000000000000000e+00, 1.0000000000000000e+00
47, 1.6000000000000000e+01, 1.0000000000000000e+00, 1.1000000000000001e+00
48, 1.5000000000000000e+01, 1.0000000000000000e+00, 1.0000000000000000e+00
49, 1.8000000000000000e+01, 0.0000000000000000e+00, 0.0000000000000000e+00
50, 1.9000000000000000e+01, 0.0000000000000000e+00, 0.0000000000000000e+00
51, 1.9000000000000000e+01, 1.0000000000000000e+00, 5.0000000000000000e-01
52, 1.8000000000000000e+01, 1.0000000000000000e+00, 0.0000000000000000e+00
53, 1.8000000000000000e+01, 0.0000000000000000e+00, 1.0000000000000000e+00
54, 1.9000000000000000e+01, 0.0000000000000000e+00, 1.0000000000000000e+00
55, 1.9000000000000000e+01, 1.0000000000000000e+00, 1.5000000000000000e+00
56, 1.8000000000000000e+01, 1.0000000000000000e+00, 1.0000000000000000e+00
57, 2.1000000000000000e+01, 0.0000000000000000e+00, 0.0000000000000000e+00
58, 2.2000000000000000e+01, 0.0000000000000000e+00, 0.0000000000000000e+00
59, 2.2000000000000000e+01, 1.0000000000000000e+00, 1.0000000000000000e+00
60, 2.1000000000000000e+01, 1.0000000000000000e+00, 0.0000000000000000e+00
61, 2.1000000000000000e+01, 0.0000000000000000e+00, 1.0000000000000000e+00
62, 2.2000000000000000e+01, 0.0000000000000000e+00, 1.0000000000000000e+00
63, 2.2000000000000000e+01, 1.0000000000000000e+00, 2.0000000000000000e+00
64, 2.1000000000000000e+01, 1.0000000000000000e+00, 1.0000000000000000e+00
*Element, type=C3D8RT, elset=VOLUME
1, 1, 2, 3, 4, 5, 6, 7, 8
2, 9, 10, 11, 12, 13, 14, 15, 16
3, 17, 18, 19, 20, 21, 22, 23, 24
4, 25, 26, 27, 28, 29, 30, 31, 32
5, 33, 34, 35, 36, 37, 38, 39, 40
6, 41, 42, 43, 44, 45, 46, 47, 48
7, 49, 50, 51, 52, 53, 54, 55, 56
8, 57, 58, 59, 60, 61, 62, 63, 64
*Nset, nset=ALL_NODES, generate
1, 64, 1
*Material, name=THERMAL
*Elastic
2.0000000000000000e11, 2.5000000000000000e-1
*Conductivity
4.0000000000000000e0
*Density
2.0000000000000000e3
*Specific Heat
3.0000000000000000e3
*Solid Section, elset=VOLUME, material=THERMAL
,
*Initial Conditions, type=TEMPERATURE
ALL_NODES, 3.0000000000000000e2
*Step, name=BODY, nlgeom=NO, inc=20
*Coupled Temperature-Displacement, steady state
1.0, 1.0, 1.0e-8, 1.0
*Boundary, op=NEW
1, 1, 3, 0.0
1, 11, 11, 3.0000000000000000e+02
2, 1, 3, 0.0
2, 11, 11, 3.0000000000000000e+02
3, 1, 3, 0.0
3, 11, 11, 3.0000000000000000e+02
4, 1, 3, 0.0
4, 11, 11, 3.0000000000000000e+02
5, 1, 3, 0.0
5, 11, 11, 3.0000000000000000e+02
6, 1, 3, 0.0
6, 11, 11, 3.0000000000000000e+02
7, 1, 3, 0.0
7, 11, 11, 3.0000000000000000e+02
8, 1, 3, 0.0
8, 11, 11, 3.0000000000000000e+02
9, 1, 3, 0.0
9, 11, 11, 3.0000000000000000e+02
10, 1, 3, 0.0
10, 11, 11, 3.0000000000000000e+02
11, 1, 3, 0.0
11, 11, 11, 3.0000000000000000e+02
12, 1, 3, 0.0
12, 11, 11, 3.0000000000000000e+02
13, 1, 3, 0.0
13, 11, 11, 3.0000000000000000e+02
14, 1, 3, 0.0
14, 11, 11, 3.0000000000000000e+02
15, 1, 3, 0.0
15, 11, 11, 3.0000000000000000e+02
16, 1, 3, 0.0
16, 11, 11, 3.0000000000000000e+02
17, 1, 3, 0.0
17, 11, 11, 3.0000000000000000e+02
18, 1, 3, 0.0
18, 11, 11, 3.0000000000000000e+02
19, 1, 3, 0.0
19, 11, 11, 3.0000000000000000e+02
20, 1, 3, 0.0
20, 11, 11, 3.0000000000000000e+02
21, 1, 3, 0.0
21, 11, 11, 3.0000000000000000e+02
22, 1, 3, 0.0
22, 11, 11, 3.0000000000000000e+02
23, 1, 3, 0.0
23, 11, 11, 3.0000000000000000e+02
24, 1, 3, 0.0
24, 11, 11, 3.0000000000000000e+02
25, 1, 3, 0.0
25, 11, 11, 3.0000000000000000e+02
26, 1, 3, 0.0
26, 11, 11, 3.0000000000000000e+02
27, 1, 3, 0.0
27, 11, 11, 3.0000000000000000e+02
28, 1, 3, 0.0
28, 11, 11, 3.0000000000000000e+02
29, 1, 3, 0.0
29, 11, 11, 3.0000000000000000e+02
30, 1, 3, 0.0
30, 11, 11, 3.0000000000000000e+02
31, 1, 3, 0.0
31, 11, 11, 3.0000000000000000e+02
32, 1, 3, 0.0
32, 11, 11, 3.0000000000000000e+02
33, 1, 3, 0.0
33, 11, 11, 3.0000000000000000e+02
34, 1, 3, 0.0
34, 11, 11, 3.0000000000000000e+02
35, 1, 3, 0.0
35, 11, 11, 3.0000000000000000e+02
36, 1, 3, 0.0
36, 11, 11, 3.0000000000000000e+02
37, 1, 3, 0.0
37, 11, 11, 3.0000000000000000e+02
38, 1, 3, 0.0
38, 11, 11, 3.0000000000000000e+02
39, 1, 3, 0.0
39, 11, 11, 3.0000000000000000e+02
40, 1, 3, 0.0
40, 11, 11, 3.0000000000000000e+02
41, 1, 3, 0.0
41, 11, 11, 3.0000000000000000e+02
42, 1, 3, 0.0
42, 11, 11, 3.0000000000000000e+02
43, 1, 3, 0.0
43, 11, 11, 3.0000000000000000e+02
44, 1, 3, 0.0
44, 11, 11, 3.0000000000000000e+02
45, 1, 3, 0.0
45, 11, 11, 3.0000000000000000e+02
46, 1, 3, 0.0
46, 11, 11, 3.0000000000000000e+02
47, 1, 3, 0.0
47, 11, 11, 3.0000000000000000e+02
48, 1, 3, 0.0
48, 11, 11, 3.0000000000000000e+02
49, 1, 3, 0.0
49, 11, 11, 3.0000000000000000e+02
50, 1, 3, 0.0
50, 11, 11, 3.0000000000000000e+02
51, 1, 3, 0.0
51, 11, 11, 3.0000000000000000e+02
52, 1, 3, 0.0
52, 11, 11, 3.0000000000000000e+02
53, 1, 3, 0.0
53, 11, 11, 3.0000000000000000e+02
54, 1, 3, 0.0
54, 11, 11, 3.0000000000000000e+02
55, 1, 3, 0.0
55, 11, 11, 3.0000000000000000e+02
56, 1, 3, 0.0
56, 11, 11, 3.0000000000000000e+02
57, 1, 3, 0.0
57, 11, 11, 3.0000000000000000e+02
58, 1, 3, 0.0
58, 11, 11, 3.0000000000000000e+02
59, 1, 3, 0.0
59, 11, 11, 3.0000000000000000e+02
60, 1, 3, 0.0
60, 11, 11, 3.0000000000000000e+02
61, 1, 3, 0.0
61, 11, 11, 3.0000000000000000e+02
62, 1, 3, 0.0
62, 11, 11, 3.0000000000000000e+02
63, 1, 3, 0.0
63, 11, 11, 3.0000000000000000e+02
64, 1, 3, 0.0
64, 11, 11, 3.0000000000000000e+02
*Dflux, op=NEW
1, BF, 8.0000000000000000e1
*Output, field, frequency=1
*Node Output
NT, RFL
*Element Output
IVOL, TEMP
*End Step
*Step, name=SURFACE, nlgeom=NO, inc=20
*Coupled Temperature-Displacement, steady state
1.0, 1.0, 1.0e-8, 1.0
*Boundary, op=NEW
1, 1, 3, 0.0
1, 11, 11, 3.0000000000000000e+02
2, 1, 3, 0.0
2, 11, 11, 3.0000000000000000e+02
3, 1, 3, 0.0
3, 11, 11, 3.0000000000000000e+02
4, 1, 3, 0.0
4, 11, 11, 3.0000000000000000e+02
5, 1, 3, 0.0
5, 11, 11, 3.0000000000000000e+02
6, 1, 3, 0.0
6, 11, 11, 3.0000000000000000e+02
7, 1, 3, 0.0
7, 11, 11, 3.0000000000000000e+02
8, 1, 3, 0.0
8, 11, 11, 3.0000000000000000e+02
9, 1, 3, 0.0
9, 11, 11, 3.0000000000000000e+02
10, 1, 3, 0.0
10, 11, 11, 3.0000000000000000e+02
11, 1, 3, 0.0
11, 11, 11, 3.0000000000000000e+02
12, 1, 3, 0.0
12, 11, 11, 3.0000000000000000e+02
13, 1, 3, 0.0
13, 11, 11, 3.0000000000000000e+02
14, 1, 3, 0.0
14, 11, 11, 3.0000000000000000e+02
15, 1, 3, 0.0
15, 11, 11, 3.0000000000000000e+02
16, 1, 3, 0.0
16, 11, 11, 3.0000000000000000e+02
17, 1, 3, 0.0
17, 11, 11, 3.0000000000000000e+02
18, 1, 3, 0.0
18, 11, 11, 3.0000000000000000e+02
19, 1, 3, 0.0
19, 11, 11, 3.0000000000000000e+02
20, 1, 3, 0.0
20, 11, 11, 3.0000000000000000e+02
21, 1, 3, 0.0
21, 11, 11, 3.0000000000000000e+02
22, 1, 3, 0.0
22, 11, 11, 3.0000000000000000e+02
23, 1, 3, 0.0
23, 11, 11, 3.0000000000000000e+02
24, 1, 3, 0.0
24, 11, 11, 3.0000000000000000e+02
25, 1, 3, 0.0
25, 11, 11, 3.0000000000000000e+02
26, 1, 3, 0.0
26, 11, 11, 3.0000000000000000e+02
27, 1, 3, 0.0
27, 11, 11, 3.0000000000000000e+02
28, 1, 3, 0.0
28, 11, 11, 3.0000000000000000e+02
29, 1, 3, 0.0
29, 11, 11, 3.0000000000000000e+02
30, 1, 3, 0.0
30, 11, 11, 3.0000000000000000e+02
31, 1, 3, 0.0
31, 11, 11, 3.0000000000000000e+02
32, 1, 3, 0.0
32, 11, 11, 3.0000000000000000e+02
33, 1, 3, 0.0
33, 11, 11, 3.0000000000000000e+02
34, 1, 3, 0.0
34, 11, 11, 3.0000000000000000e+02
35, 1, 3, 0.0
35, 11, 11, 3.0000000000000000e+02
36, 1, 3, 0.0
36, 11, 11, 3.0000000000000000e+02
37, 1, 3, 0.0
37, 11, 11, 3.0000000000000000e+02
38, 1, 3, 0.0
38, 11, 11, 3.0000000000000000e+02
39, 1, 3, 0.0
39, 11, 11, 3.0000000000000000e+02
40, 1, 3, 0.0
40, 11, 11, 3.0000000000000000e+02
41, 1, 3, 0.0
41, 11, 11, 3.0000000000000000e+02
42, 1, 3, 0.0
42, 11, 11, 3.0000000000000000e+02
43, 1, 3, 0.0
43, 11, 11, 3.0000000000000000e+02
44, 1, 3, 0.0
44, 11, 11, 3.0000000000000000e+02
45, 1, 3, 0.0
45, 11, 11, 3.0000000000000000e+02
46, 1, 3, 0.0
46, 11, 11, 3.0000000000000000e+02
47, 1, 3, 0.0
47, 11, 11, 3.0000000000000000e+02
48, 1, 3, 0.0
48, 11, 11, 3.0000000000000000e+02
49, 1, 3, 0.0
49, 11, 11, 3.0000000000000000e+02
50, 1, 3, 0.0
50, 11, 11, 3.0000000000000000e+02
51, 1, 3, 0.0
51, 11, 11, 3.0000000000000000e+02
52, 1, 3, 0.0
52, 11, 11, 3.0000000000000000e+02
53, 1, 3, 0.0
53, 11, 11, 3.0000000000000000e+02
54, 1, 3, 0.0
54, 11, 11, 3.0000000000000000e+02
55, 1, 3, 0.0
55, 11, 11, 3.0000000000000000e+02
56, 1, 3, 0.0
56, 11, 11, 3.0000000000000000e+02
57, 1, 3, 0.0
57, 11, 11, 3.0000000000000000e+02
58, 1, 3, 0.0
58, 11, 11, 3.0000000000000000e+02
59, 1, 3, 0.0
59, 11, 11, 3.0000000000000000e+02
60, 1, 3, 0.0
60, 11, 11, 3.0000000000000000e+02
61, 1, 3, 0.0
61, 11, 11, 3.0000000000000000e+02
62, 1, 3, 0.0
62, 11, 11, 3.0000000000000000e+02
63, 1, 3, 0.0
63, 11, 11, 3.0000000000000000e+02
64, 1, 3, 0.0
64, 11, 11, 3.0000000000000000e+02
*Dflux, op=NEW
2, S2, 4.0000000000000000e1
*Output, field, frequency=1
*Node Output
NT, RFL
*Element Output
IVOL, TEMP
*End Step
*Step, name=FILM_BASE, nlgeom=NO, inc=20
*Coupled Temperature-Displacement, steady state
1.0, 1.0, 1.0e-8, 1.0
*Boundary, op=NEW
1, 1, 3, 0.0
1, 11, 11, 3.0000000000000000e+02
2, 1, 3, 0.0
2, 11, 11, 3.0000000000000000e+02
3, 1, 3, 0.0
3, 11, 11, 3.0000000000000000e+02
4, 1, 3, 0.0
4, 11, 11, 3.0000000000000000e+02
5, 1, 3, 0.0
5, 11, 11, 3.6000000000000000e+02
6, 1, 3, 0.0
6, 11, 11, 4.1000000000000000e+02
7, 1, 3, 0.0
7, 11, 11, 4.4500000000000000e+02
8, 1, 3, 0.0
8, 11, 11, 3.8500000000000000e+02
9, 1, 3, 0.0
9, 11, 11, 3.0000000000000000e+02
10, 1, 3, 0.0
10, 11, 11, 3.0000000000000000e+02
11, 1, 3, 0.0
11, 11, 11, 3.0000000000000000e+02
12, 1, 3, 0.0
12, 11, 11, 3.0000000000000000e+02
13, 1, 3, 0.0
13, 11, 11, 3.6000000000000000e+02
14, 1, 3, 0.0
14, 11, 11, 4.1000000000000000e+02
15, 1, 3, 0.0
15, 11, 11, 4.4500000000000000e+02
16, 1, 3, 0.0
16, 11, 11, 3.8500000000000000e+02
17, 1, 3, 0.0
17, 11, 11, 3.0000000000000000e+02
18, 1, 3, 0.0
18, 11, 11, 3.0000000000000000e+02
19, 1, 3, 0.0
19, 11, 11, 3.0000000000000000e+02
20, 1, 3, 0.0
20, 11, 11, 3.0000000000000000e+02
21, 1, 3, 0.0
21, 11, 11, 3.6000000000000000e+02
22, 1, 3, 0.0
22, 11, 11, 4.1000000000000000e+02
23, 1, 3, 0.0
23, 11, 11, 4.4500000000000000e+02
24, 1, 3, 0.0
24, 11, 11, 3.8500000000000000e+02
25, 1, 3, 0.0
25, 11, 11, 3.0000000000000000e+02
26, 1, 3, 0.0
26, 11, 11, 3.0000000000000000e+02
27, 1, 3, 0.0
27, 11, 11, 3.0000000000000000e+02
28, 1, 3, 0.0
28, 11, 11, 3.0000000000000000e+02
29, 1, 3, 0.0
29, 11, 11, 3.6000000000000000e+02
30, 1, 3, 0.0
30, 11, 11, 4.1000000000000000e+02
31, 1, 3, 0.0
31, 11, 11, 4.4500000000000000e+02
32, 1, 3, 0.0
32, 11, 11, 3.8500000000000000e+02
33, 1, 3, 0.0
33, 11, 11, 3.0000000000000000e+02
34, 1, 3, 0.0
34, 11, 11, 3.0000000000000000e+02
35, 1, 3, 0.0
35, 11, 11, 3.0000000000000000e+02
36, 1, 3, 0.0
36, 11, 11, 3.0000000000000000e+02
37, 1, 3, 0.0
37, 11, 11, 3.6000000000000000e+02
38, 1, 3, 0.0
38, 11, 11, 4.1000000000000000e+02
39, 1, 3, 0.0
39, 11, 11, 4.4500000000000000e+02
40, 1, 3, 0.0
40, 11, 11, 3.8500000000000000e+02
41, 1, 3, 0.0
41, 11, 11, 3.0000000000000000e+02
42, 1, 3, 0.0
42, 11, 11, 3.0000000000000000e+02
43, 1, 3, 0.0
43, 11, 11, 3.0000000000000000e+02
44, 1, 3, 0.0
44, 11, 11, 3.0000000000000000e+02
45, 1, 3, 0.0
45, 11, 11, 3.6000000000000000e+02
46, 1, 3, 0.0
46, 11, 11, 4.1000000000000000e+02
47, 1, 3, 0.0
47, 11, 11, 4.4500000000000000e+02
48, 1, 3, 0.0
48, 11, 11, 3.8500000000000000e+02
49, 1, 3, 0.0
49, 11, 11, 3.0000000000000000e+02
50, 1, 3, 0.0
50, 11, 11, 3.0000000000000000e+02
51, 1, 3, 0.0
51, 11, 11, 3.0000000000000000e+02
52, 1, 3, 0.0
52, 11, 11, 3.0000000000000000e+02
53, 1, 3, 0.0
53, 11, 11, 3.6000000000000000e+02
54, 1, 3, 0.0
54, 11, 11, 4.1000000000000000e+02
55, 1, 3, 0.0
55, 11, 11, 4.4500000000000000e+02
56, 1, 3, 0.0
56, 11, 11, 3.8500000000000000e+02
57, 1, 3, 0.0
57, 11, 11, 3.0000000000000000e+02
58, 1, 3, 0.0
58, 11, 11, 3.0000000000000000e+02
59, 1, 3, 0.0
59, 11, 11, 3.0000000000000000e+02
60, 1, 3, 0.0
60, 11, 11, 3.0000000000000000e+02
61, 1, 3, 0.0
61, 11, 11, 3.6000000000000000e+02
62, 1, 3, 0.0
62, 11, 11, 4.1000000000000000e+02
63, 1, 3, 0.0
63, 11, 11, 4.4500000000000000e+02
64, 1, 3, 0.0
64, 11, 11, 3.8500000000000000e+02
*Dflux, op=NEW
3, BF, 0.0
*Output, field, frequency=1
*Node Output
NT, RFL
*Element Output
IVOL, TEMP
*End Step
*Step, name=FILM_ACTIVE, nlgeom=NO, inc=20
*Coupled Temperature-Displacement, steady state
1.0, 1.0, 1.0e-8, 1.0
*Boundary, op=NEW
1, 1, 3, 0.0
1, 11, 11, 3.0000000000000000e+02
2, 1, 3, 0.0
2, 11, 11, 3.0000000000000000e+02
3, 1, 3, 0.0
3, 11, 11, 3.0000000000000000e+02
4, 1, 3, 0.0
4, 11, 11, 3.0000000000000000e+02
5, 1, 3, 0.0
5, 11, 11, 3.6000000000000000e+02
6, 1, 3, 0.0
6, 11, 11, 4.1000000000000000e+02
7, 1, 3, 0.0
7, 11, 11, 4.4500000000000000e+02
8, 1, 3, 0.0
8, 11, 11, 3.8500000000000000e+02
9, 1, 3, 0.0
9, 11, 11, 3.0000000000000000e+02
10, 1, 3, 0.0
10, 11, 11, 3.0000000000000000e+02
11, 1, 3, 0.0
11, 11, 11, 3.0000000000000000e+02
12, 1, 3, 0.0
12, 11, 11, 3.0000000000000000e+02
13, 1, 3, 0.0
13, 11, 11, 3.6000000000000000e+02
14, 1, 3, 0.0
14, 11, 11, 4.1000000000000000e+02
15, 1, 3, 0.0
15, 11, 11, 4.4500000000000000e+02
16, 1, 3, 0.0
16, 11, 11, 3.8500000000000000e+02
17, 1, 3, 0.0
17, 11, 11, 3.0000000000000000e+02
18, 1, 3, 0.0
18, 11, 11, 3.0000000000000000e+02
19, 1, 3, 0.0
19, 11, 11, 3.0000000000000000e+02
20, 1, 3, 0.0
20, 11, 11, 3.0000000000000000e+02
21, 1, 3, 0.0
21, 11, 11, 3.6000000000000000e+02
22, 1, 3, 0.0
22, 11, 11, 4.1000000000000000e+02
23, 1, 3, 0.0
23, 11, 11, 4.4500000000000000e+02
24, 1, 3, 0.0
24, 11, 11, 3.8500000000000000e+02
25, 1, 3, 0.0
25, 11, 11, 3.0000000000000000e+02
26, 1, 3, 0.0
26, 11, 11, 3.0000000000000000e+02
27, 1, 3, 0.0
27, 11, 11, 3.0000000000000000e+02
28, 1, 3, 0.0
28, 11, 11, 3.0000000000000000e+02
29, 1, 3, 0.0
29, 11, 11, 3.6000000000000000e+02
30, 1, 3, 0.0
30, 11, 11, 4.1000000000000000e+02
31, 1, 3, 0.0
31, 11, 11, 4.4500000000000000e+02
32, 1, 3, 0.0
32, 11, 11, 3.8500000000000000e+02
33, 1, 3, 0.0
33, 11, 11, 3.0000000000000000e+02
34, 1, 3, 0.0
34, 11, 11, 3.0000000000000000e+02
35, 1, 3, 0.0
35, 11, 11, 3.0000000000000000e+02
36, 1, 3, 0.0
36, 11, 11, 3.0000000000000000e+02
37, 1, 3, 0.0
37, 11, 11, 3.6000000000000000e+02
38, 1, 3, 0.0
38, 11, 11, 4.1000000000000000e+02
39, 1, 3, 0.0
39, 11, 11, 4.4500000000000000e+02
40, 1, 3, 0.0
40, 11, 11, 3.8500000000000000e+02
41, 1, 3, 0.0
41, 11, 11, 3.0000000000000000e+02
42, 1, 3, 0.0
42, 11, 11, 3.0000000000000000e+02
43, 1, 3, 0.0
43, 11, 11, 3.0000000000000000e+02
44, 1, 3, 0.0
44, 11, 11, 3.0000000000000000e+02
45, 1, 3, 0.0
45, 11, 11, 3.6000000000000000e+02
46, 1, 3, 0.0
46, 11, 11, 4.1000000000000000e+02
47, 1, 3, 0.0
47, 11, 11, 4.4500000000000000e+02
48, 1, 3, 0.0
48, 11, 11, 3.8500000000000000e+02
49, 1, 3, 0.0
49, 11, 11, 3.0000000000000000e+02
50, 1, 3, 0.0
50, 11, 11, 3.0000000000000000e+02
51, 1, 3, 0.0
51, 11, 11, 3.0000000000000000e+02
52, 1, 3, 0.0
52, 11, 11, 3.0000000000000000e+02
53, 1, 3, 0.0
53, 11, 11, 3.6000000000000000e+02
54, 1, 3, 0.0
54, 11, 11, 4.1000000000000000e+02
55, 1, 3, 0.0
55, 11, 11, 4.4500000000000000e+02
56, 1, 3, 0.0
56, 11, 11, 3.8500000000000000e+02
57, 1, 3, 0.0
57, 11, 11, 3.0000000000000000e+02
58, 1, 3, 0.0
58, 11, 11, 3.0000000000000000e+02
59, 1, 3, 0.0
59, 11, 11, 3.0000000000000000e+02
60, 1, 3, 0.0
60, 11, 11, 3.0000000000000000e+02
61, 1, 3, 0.0
61, 11, 11, 3.6000000000000000e+02
62, 1, 3, 0.0
62, 11, 11, 4.1000000000000000e+02
63, 1, 3, 0.0
63, 11, 11, 4.4500000000000000e+02
64, 1, 3, 0.0
64, 11, 11, 3.8500000000000000e+02
*Dflux, op=NEW
3, BF, 0.0
*Film, op=NEW
3, F2, 2.5000000000000000e2, 1.0000000000000000e1
*Output, field, frequency=1
*Node Output
NT, RFL
*Element Output
IVOL, TEMP
*End Step
*Step, name=SURFACE_GEOMETRY, nlgeom=NO, inc=20
*Coupled Temperature-Displacement, steady state
1.0, 1.0, 1.0e-8, 1.0
*Boundary, op=NEW
1, 1, 3, 0.0
1, 11, 11, 3.0000000000000000e+02
2, 1, 3, 0.0
2, 11, 11, 3.0000000000000000e+02
3, 1, 3, 0.0
3, 11, 11, 3.0000000000000000e+02
4, 1, 3, 0.0
4, 11, 11, 3.0000000000000000e+02
5, 1, 3, 0.0
5, 11, 11, 3.0000000000000000e+02
6, 1, 3, 0.0
6, 11, 11, 3.0000000000000000e+02
7, 1, 3, 0.0
7, 11, 11, 3.0000000000000000e+02
8, 1, 3, 0.0
8, 11, 11, 3.0000000000000000e+02
9, 1, 3, 0.0
9, 11, 11, 3.0000000000000000e+02
10, 1, 3, 0.0
10, 11, 11, 3.0000000000000000e+02
11, 1, 3, 0.0
11, 11, 11, 3.0000000000000000e+02
12, 1, 3, 0.0
12, 11, 11, 3.0000000000000000e+02
13, 1, 3, 0.0
13, 11, 11, 3.0000000000000000e+02
14, 1, 3, 0.0
14, 11, 11, 3.0000000000000000e+02
15, 1, 3, 0.0
15, 11, 11, 3.0000000000000000e+02
16, 1, 3, 0.0
16, 11, 11, 3.0000000000000000e+02
17, 1, 3, 0.0
17, 11, 11, 3.0000000000000000e+02
18, 1, 3, 0.0
18, 11, 11, 3.0000000000000000e+02
19, 1, 3, 0.0
19, 11, 11, 3.0000000000000000e+02
20, 1, 3, 0.0
20, 11, 11, 3.0000000000000000e+02
21, 1, 3, 0.0
21, 11, 11, 3.0000000000000000e+02
22, 1, 3, 0.0
22, 11, 11, 3.0000000000000000e+02
23, 1, 3, 0.0
23, 11, 11, 3.0000000000000000e+02
24, 1, 3, 0.0
24, 11, 11, 3.0000000000000000e+02
25, 1, 3, 0.0
25, 11, 11, 3.0000000000000000e+02
26, 1, 3, 0.0
26, 11, 11, 3.0000000000000000e+02
27, 1, 3, 0.0
27, 11, 11, 3.0000000000000000e+02
28, 1, 3, 0.0
28, 11, 11, 3.0000000000000000e+02
29, 1, 3, 0.0
29, 11, 11, 3.0000000000000000e+02
30, 1, 3, 0.0
30, 11, 11, 3.0000000000000000e+02
31, 1, 3, 0.0
31, 11, 11, 3.0000000000000000e+02
32, 1, 3, 0.0
32, 11, 11, 3.0000000000000000e+02
33, 1, 3, 0.0
33, 11, 11, 3.0000000000000000e+02
34, 1, 3, 0.0
34, 11, 11, 3.0000000000000000e+02
35, 1, 3, 0.0
35, 11, 11, 3.0000000000000000e+02
36, 1, 3, 0.0
36, 11, 11, 3.0000000000000000e+02
37, 1, 3, 0.0
37, 11, 11, 3.0000000000000000e+02
38, 1, 3, 0.0
38, 11, 11, 3.0000000000000000e+02
39, 1, 3, 0.0
39, 11, 11, 3.0000000000000000e+02
40, 1, 3, 0.0
40, 11, 11, 3.0000000000000000e+02
41, 1, 3, 0.0
41, 11, 11, 3.0000000000000000e+02
42, 1, 3, 0.0
42, 11, 11, 3.0000000000000000e+02
43, 1, 3, 0.0
43, 11, 11, 3.0000000000000000e+02
44, 1, 3, 0.0
44, 11, 11, 3.0000000000000000e+02
45, 1, 3, 0.0
45, 11, 11, 3.0000000000000000e+02
46, 1, 3, 0.0
46, 11, 11, 3.0000000000000000e+02
47, 1, 3, 0.0
47, 11, 11, 3.0000000000000000e+02
48, 1, 3, 0.0
48, 11, 11, 3.0000000000000000e+02
49, 1, 3, 0.0
49, 11, 11, 3.0000000000000000e+02
50, 1, 3, 0.0
50, 11, 11, 3.0000000000000000e+02
51, 1, 3, 0.0
51, 11, 11, 3.0000000000000000e+02
52, 1, 3, 0.0
52, 11, 11, 3.0000000000000000e+02
53, 1, 3, 0.0
53, 11, 11, 3.0000000000000000e+02
54, 1, 3, 0.0
54, 11, 11, 3.0000000000000000e+02
55, 1, 3, 0.0
55, 11, 11, 3.0000000000000000e+02
56, 1, 3, 0.0
56, 11, 11, 3.0000000000000000e+02
57, 1, 3, 0.0
57, 11, 11, 3.0000000000000000e+02
58, 1, 3, 0.0
58, 11, 11, 3.0000000000000000e+02
59, 1, 3, 0.0
59, 11, 11, 3.0000000000000000e+02
60, 1, 3, 0.0
60, 11, 11, 3.0000000000000000e+02
61, 1, 3, 0.0
61, 11, 11, 3.0000000000000000e+02
62, 1, 3, 0.0
62, 11, 11, 3.0000000000000000e+02
63, 1, 3, 0.0
63, 11, 11, 3.0000000000000000e+02
64, 1, 3, 0.0
64, 11, 11, 3.0000000000000000e+02
*Dflux, op=NEW
2, S2, 4.0000000000000000e1
4, S2, 4.0000000000000000e1
5, S2, 4.0000000000000000e1
6, S2, 4.0000000000000000e1
7, S2, 4.0000000000000000e1
8, S2, 4.0000000000000000e1
*Output, field, frequency=1
*Node Output
NT, RFL
*Element Output
IVOL, TEMP
*End Step
