*Heading
** B5.33 Abaqus/Standard finite-strain C3D8RT isolated default hourglass probe.
*Preprint, echo=NO, model=NO, history=NO, contact=NO
*Node
1, 0.0000000000000000e+00, 0.0000000000000000e+00, 0.0000000000000000e+00
2, 1.0000000000000000e+00, 0.0000000000000000e+00, 0.0000000000000000e+00
3, 1.0000000000000000e+00, 1.0000000000000000e+00, 0.0000000000000000e+00
4, 0.0000000000000000e+00, 1.0000000000000000e+00, 0.0000000000000000e+00
5, 0.0000000000000000e+00, 0.0000000000000000e+00, 1.0000000000000000e+00
6, 1.0000000000000000e+00, 0.0000000000000000e+00, 1.0000000000000000e+00
7, 1.0000000000000000e+00, 1.0000000000000000e+00, 1.0000000000000000e+00
8, 0.0000000000000000e+00, 1.0000000000000000e+00, 1.0000000000000000e+00
9, 3.0000000000000000e+00, 0.0000000000000000e+00, 0.0000000000000000e+00
10, 4.0000000000000000e+00, 0.0000000000000000e+00, 0.0000000000000000e+00
11, 4.0000000000000000e+00, 1.0000000000000000e+00, 0.0000000000000000e+00
12, 3.0000000000000000e+00, 1.0000000000000000e+00, 0.0000000000000000e+00
13, 3.0000000000000000e+00, 0.0000000000000000e+00, 1.0000000000000000e+00
14, 4.0000000000000000e+00, 0.0000000000000000e+00, 1.0000000000000000e+00
15, 4.0000000000000000e+00, 1.0000000000000000e+00, 1.0000000000000000e+00
16, 3.0000000000000000e+00, 1.0000000000000000e+00, 1.0000000000000000e+00
17, 6.0000000000000000e+00, 0.0000000000000000e+00, 0.0000000000000000e+00
18, 7.0000000000000000e+00, 0.0000000000000000e+00, 0.0000000000000000e+00
19, 7.0000000000000000e+00, 1.0000000000000000e+00, 0.0000000000000000e+00
20, 6.0000000000000000e+00, 1.0000000000000000e+00, 0.0000000000000000e+00
21, 6.0000000000000000e+00, 0.0000000000000000e+00, 1.0000000000000000e+00
22, 7.0000000000000000e+00, 0.0000000000000000e+00, 1.0000000000000000e+00
23, 7.0000000000000000e+00, 1.0000000000000000e+00, 1.0000000000000000e+00
24, 6.0000000000000000e+00, 1.0000000000000000e+00, 1.0000000000000000e+00
25, 9.0000000000000000e+00, 0.0000000000000000e+00, 0.0000000000000000e+00
26, 1.0000000000000000e+01, 0.0000000000000000e+00, 0.0000000000000000e+00
27, 1.0000000000000000e+01, 1.0000000000000000e+00, 0.0000000000000000e+00
28, 9.0000000000000000e+00, 1.0000000000000000e+00, 0.0000000000000000e+00
29, 9.0000000000000000e+00, 0.0000000000000000e+00, 1.0000000000000000e+00
30, 1.0000000000000000e+01, 0.0000000000000000e+00, 1.0000000000000000e+00
31, 1.0000000000000000e+01, 1.0000000000000000e+00, 1.0000000000000000e+00
32, 9.0000000000000000e+00, 1.0000000000000000e+00, 1.0000000000000000e+00
33, 1.2000000000000000e+01, 0.0000000000000000e+00, 0.0000000000000000e+00
34, 1.3000000000000000e+01, 0.0000000000000000e+00, 0.0000000000000000e+00
35, 1.3000000000000000e+01, 1.0000000000000000e+00, 0.0000000000000000e+00
36, 1.2000000000000000e+01, 1.0000000000000000e+00, 0.0000000000000000e+00
37, 1.2000000000000000e+01, 0.0000000000000000e+00, 1.0000000000000000e+00
38, 1.3000000000000000e+01, 0.0000000000000000e+00, 1.0000000000000000e+00
39, 1.3000000000000000e+01, 1.0000000000000000e+00, 1.0000000000000000e+00
40, 1.2000000000000000e+01, 1.0000000000000000e+00, 1.0000000000000000e+00
41, 1.5000000000000000e+01, 0.0000000000000000e+00, 0.0000000000000000e+00
42, 1.6000000000000000e+01, 0.0000000000000000e+00, 0.0000000000000000e+00
43, 1.6000000000000000e+01, 1.0000000000000000e+00, 0.0000000000000000e+00
44, 1.5000000000000000e+01, 1.0000000000000000e+00, 0.0000000000000000e+00
45, 1.5000000000000000e+01, 0.0000000000000000e+00, 1.0000000000000000e+00
46, 1.6000000000000000e+01, 0.0000000000000000e+00, 1.0000000000000000e+00
47, 1.6000000000000000e+01, 1.0000000000000000e+00, 1.0000000000000000e+00
48, 1.5000000000000000e+01, 1.0000000000000000e+00, 1.0000000000000000e+00
49, 1.8000000000000000e+01, 0.0000000000000000e+00, 0.0000000000000000e+00
50, 1.9000000000000000e+01, 0.0000000000000000e+00, 0.0000000000000000e+00
51, 1.9000000000000000e+01, 1.0000000000000000e+00, 0.0000000000000000e+00
52, 1.8000000000000000e+01, 1.0000000000000000e+00, 0.0000000000000000e+00
53, 1.8000000000000000e+01, 0.0000000000000000e+00, 1.0000000000000000e+00
54, 1.9000000000000000e+01, 0.0000000000000000e+00, 1.0000000000000000e+00
55, 1.9000000000000000e+01, 1.0000000000000000e+00, 1.0000000000000000e+00
56, 1.8000000000000000e+01, 1.0000000000000000e+00, 1.0000000000000000e+00
57, 2.1000000000000000e+01, 0.0000000000000000e+00, 0.0000000000000000e+00
58, 2.2000000000000000e+01, 0.0000000000000000e+00, 0.0000000000000000e+00
59, 2.2000000000000000e+01, 1.0000000000000000e+00, 0.0000000000000000e+00
60, 2.1000000000000000e+01, 1.0000000000000000e+00, 0.0000000000000000e+00
61, 2.1000000000000000e+01, 0.0000000000000000e+00, 1.0000000000000000e+00
62, 2.2000000000000000e+01, 0.0000000000000000e+00, 1.0000000000000000e+00
63, 2.2000000000000000e+01, 1.0000000000000000e+00, 1.0000000000000000e+00
64, 2.1000000000000000e+01, 1.0000000000000000e+00, 1.0000000000000000e+00
65, 2.4000000000000000e+01, 0.0000000000000000e+00, 0.0000000000000000e+00
66, 2.5000000000000000e+01, 0.0000000000000000e+00, 0.0000000000000000e+00
67, 2.5000000000000000e+01, 1.0000000000000000e+00, 0.0000000000000000e+00
68, 2.4000000000000000e+01, 1.0000000000000000e+00, 0.0000000000000000e+00
69, 2.4000000000000000e+01, 0.0000000000000000e+00, 1.0000000000000000e+00
70, 2.5000000000000000e+01, 0.0000000000000000e+00, 1.0000000000000000e+00
71, 2.5000000000000000e+01, 1.0000000000000000e+00, 1.0000000000000000e+00
72, 2.4000000000000000e+01, 1.0000000000000000e+00, 1.0000000000000000e+00
73, 2.7000000000000000e+01, 0.0000000000000000e+00, 0.0000000000000000e+00
74, 2.8000000000000000e+01, 0.0000000000000000e+00, 0.0000000000000000e+00
75, 2.8000000000000000e+01, 1.0000000000000000e+00, 0.0000000000000000e+00
76, 2.7000000000000000e+01, 1.0000000000000000e+00, 0.0000000000000000e+00
77, 2.7000000000000000e+01, 0.0000000000000000e+00, 1.0000000000000000e+00
78, 2.8000000000000000e+01, 0.0000000000000000e+00, 1.0000000000000000e+00
79, 2.8000000000000000e+01, 1.0000000000000000e+00, 1.0000000000000000e+00
80, 2.7000000000000000e+01, 1.0000000000000000e+00, 1.0000000000000000e+00
81, 3.0000000000000000e+01, 0.0000000000000000e+00, 0.0000000000000000e+00
82, 3.1000000000000000e+01, 0.0000000000000000e+00, 0.0000000000000000e+00
83, 3.1000000000000000e+01, 1.0000000000000000e+00, 0.0000000000000000e+00
84, 3.0000000000000000e+01, 1.0000000000000000e+00, 0.0000000000000000e+00
85, 3.0000000000000000e+01, 0.0000000000000000e+00, 1.0000000000000000e+00
86, 3.1000000000000000e+01, 0.0000000000000000e+00, 1.0000000000000000e+00
87, 3.1000000000000000e+01, 1.0000000000000000e+00, 1.0000000000000000e+00
88, 3.0000000000000000e+01, 1.0000000000000000e+00, 1.0000000000000000e+00
89, 3.3000000000000000e+01, 0.0000000000000000e+00, 0.0000000000000000e+00
90, 3.4000000000000000e+01, 0.0000000000000000e+00, 0.0000000000000000e+00
91, 3.4000000000000000e+01, 1.0000000000000000e+00, 0.0000000000000000e+00
92, 3.3000000000000000e+01, 1.0000000000000000e+00, 0.0000000000000000e+00
93, 3.3000000000000000e+01, 0.0000000000000000e+00, 1.0000000000000000e+00
94, 3.4000000000000000e+01, 0.0000000000000000e+00, 1.0000000000000000e+00
95, 3.4000000000000000e+01, 1.0000000000000000e+00, 1.0000000000000000e+00
96, 3.3000000000000000e+01, 1.0000000000000000e+00, 1.0000000000000000e+00
97, 3.6000000000000000e+01, 0.0000000000000000e+00, 0.0000000000000000e+00
98, 3.7200000000000003e+01, 1.0000000000000001e-01, -5.0000000000000003e-02
99, 3.7100000000000001e+01, 1.0000000000000000e+00, 1.0000000000000001e-01
100, 3.5899999999999999e+01, 9.0000000000000002e-01, 0.0000000000000000e+00
101, 3.6049999999999997e+01, -5.0000000000000003e-02, 1.0000000000000000e+00
102, 3.7149999999999999e+01, 0.0000000000000000e+00, 1.2000000000000000e+00
103, 3.7000000000000000e+01, 1.1000000000000001e+00, 1.1000000000000001e+00
104, 3.5950000000000003e+01, 1.0000000000000000e+00, 9.0000000000000002e-01
105, 3.9000000000000000e+01, 0.0000000000000000e+00, 0.0000000000000000e+00
106, 4.0200000000000003e+01, 1.0000000000000001e-01, -5.0000000000000003e-02
107, 4.0100000000000001e+01, 1.0000000000000000e+00, 1.0000000000000001e-01
108, 3.8899999999999999e+01, 9.0000000000000002e-01, 0.0000000000000000e+00
109, 3.9049999999999997e+01, -5.0000000000000003e-02, 1.0000000000000000e+00
110, 4.0149999999999999e+01, 0.0000000000000000e+00, 1.2000000000000000e+00
111, 4.0000000000000000e+01, 1.1000000000000001e+00, 1.1000000000000001e+00
112, 3.8950000000000003e+01, 1.0000000000000000e+00, 9.0000000000000002e-01
113, 4.2000000000000000e+01, 0.0000000000000000e+00, 0.0000000000000000e+00
114, 4.3200000000000003e+01, 1.0000000000000001e-01, -5.0000000000000003e-02
115, 4.3100000000000001e+01, 1.0000000000000000e+00, 1.0000000000000001e-01
116, 4.1899999999999999e+01, 9.0000000000000002e-01, 0.0000000000000000e+00
117, 4.2049999999999997e+01, -5.0000000000000003e-02, 1.0000000000000000e+00
118, 4.3149999999999999e+01, 0.0000000000000000e+00, 1.2000000000000000e+00
119, 4.3000000000000000e+01, 1.1000000000000001e+00, 1.1000000000000001e+00
120, 4.1950000000000003e+01, 1.0000000000000000e+00, 9.0000000000000002e-01
121, 4.5000000000000000e+01, 0.0000000000000000e+00, 0.0000000000000000e+00
122, 4.6200000000000003e+01, 1.0000000000000001e-01, -5.0000000000000003e-02
123, 4.6100000000000001e+01, 1.0000000000000000e+00, 1.0000000000000001e-01
124, 4.4899999999999999e+01, 9.0000000000000002e-01, 0.0000000000000000e+00
125, 4.5049999999999997e+01, -5.0000000000000003e-02, 1.0000000000000000e+00
126, 4.6149999999999999e+01, 0.0000000000000000e+00, 1.2000000000000000e+00
127, 4.6000000000000000e+01, 1.1000000000000001e+00, 1.1000000000000001e+00
128, 4.4950000000000003e+01, 1.0000000000000000e+00, 9.0000000000000002e-01
129, 4.8000000000000000e+01, 0.0000000000000000e+00, 0.0000000000000000e+00
130, 4.9200000000000003e+01, 1.0000000000000001e-01, -5.0000000000000003e-02
131, 4.9100000000000001e+01, 1.0000000000000000e+00, 1.0000000000000001e-01
132, 4.7899999999999999e+01, 9.0000000000000002e-01, 0.0000000000000000e+00
133, 4.8049999999999997e+01, -5.0000000000000003e-02, 1.0000000000000000e+00
134, 4.9149999999999999e+01, 0.0000000000000000e+00, 1.2000000000000000e+00
135, 4.9000000000000000e+01, 1.1000000000000001e+00, 1.1000000000000001e+00
136, 4.7950000000000003e+01, 1.0000000000000000e+00, 9.0000000000000002e-01
137, 5.1000000000000000e+01, 0.0000000000000000e+00, 0.0000000000000000e+00
138, 5.2200000000000003e+01, 1.0000000000000001e-01, -5.0000000000000003e-02
139, 5.2100000000000001e+01, 1.0000000000000000e+00, 1.0000000000000001e-01
140, 5.0899999999999999e+01, 9.0000000000000002e-01, 0.0000000000000000e+00
141, 5.1049999999999997e+01, -5.0000000000000003e-02, 1.0000000000000000e+00
142, 5.2149999999999999e+01, 0.0000000000000000e+00, 1.2000000000000000e+00
143, 5.2000000000000000e+01, 1.1000000000000001e+00, 1.1000000000000001e+00
144, 5.0950000000000003e+01, 1.0000000000000000e+00, 9.0000000000000002e-01
145, 5.4000000000000000e+01, 0.0000000000000000e+00, 0.0000000000000000e+00
146, 5.5200000000000003e+01, 1.0000000000000001e-01, -5.0000000000000003e-02
147, 5.5100000000000001e+01, 1.0000000000000000e+00, 1.0000000000000001e-01
148, 5.3899999999999999e+01, 9.0000000000000002e-01, 0.0000000000000000e+00
149, 5.4049999999999997e+01, -5.0000000000000003e-02, 1.0000000000000000e+00
150, 5.5149999999999999e+01, 0.0000000000000000e+00, 1.2000000000000000e+00
151, 5.5000000000000000e+01, 1.1000000000000001e+00, 1.1000000000000001e+00
152, 5.3950000000000003e+01, 1.0000000000000000e+00, 9.0000000000000002e-01
153, 5.7000000000000000e+01, 0.0000000000000000e+00, 0.0000000000000000e+00
154, 5.8200000000000003e+01, 1.0000000000000001e-01, -5.0000000000000003e-02
155, 5.8100000000000001e+01, 1.0000000000000000e+00, 1.0000000000000001e-01
156, 5.6899999999999999e+01, 9.0000000000000002e-01, 0.0000000000000000e+00
157, 5.7049999999999997e+01, -5.0000000000000003e-02, 1.0000000000000000e+00
158, 5.8149999999999999e+01, 0.0000000000000000e+00, 1.2000000000000000e+00
159, 5.8000000000000000e+01, 1.1000000000000001e+00, 1.1000000000000001e+00
160, 5.6950000000000003e+01, 1.0000000000000000e+00, 9.0000000000000002e-01
161, 6.0000000000000000e+01, 0.0000000000000000e+00, 0.0000000000000000e+00
162, 6.1200000000000003e+01, 1.0000000000000001e-01, -5.0000000000000003e-02
163, 6.1100000000000001e+01, 1.0000000000000000e+00, 1.0000000000000001e-01
164, 5.9899999999999999e+01, 9.0000000000000002e-01, 0.0000000000000000e+00
165, 6.0049999999999997e+01, -5.0000000000000003e-02, 1.0000000000000000e+00
166, 6.1149999999999999e+01, 0.0000000000000000e+00, 1.2000000000000000e+00
167, 6.1000000000000000e+01, 1.1000000000000001e+00, 1.1000000000000001e+00
168, 5.9950000000000003e+01, 1.0000000000000000e+00, 9.0000000000000002e-01
169, 6.3000000000000000e+01, 0.0000000000000000e+00, 0.0000000000000000e+00
170, 6.4200000000000003e+01, 1.0000000000000001e-01, -5.0000000000000003e-02
171, 6.4099999999999994e+01, 1.0000000000000000e+00, 1.0000000000000001e-01
172, 6.2899999999999999e+01, 9.0000000000000002e-01, 0.0000000000000000e+00
173, 6.3049999999999997e+01, -5.0000000000000003e-02, 1.0000000000000000e+00
174, 6.4150000000000006e+01, 0.0000000000000000e+00, 1.2000000000000000e+00
175, 6.4000000000000000e+01, 1.1000000000000001e+00, 1.1000000000000001e+00
176, 6.2950000000000003e+01, 1.0000000000000000e+00, 9.0000000000000002e-01
177, 6.6000000000000000e+01, 0.0000000000000000e+00, 0.0000000000000000e+00
178, 6.7200000000000003e+01, 1.0000000000000001e-01, -5.0000000000000003e-02
179, 6.7099999999999994e+01, 1.0000000000000000e+00, 1.0000000000000001e-01
180, 6.5900000000000006e+01, 9.0000000000000002e-01, 0.0000000000000000e+00
181, 6.6049999999999997e+01, -5.0000000000000003e-02, 1.0000000000000000e+00
182, 6.7150000000000006e+01, 0.0000000000000000e+00, 1.2000000000000000e+00
183, 6.7000000000000000e+01, 1.1000000000000001e+00, 1.1000000000000001e+00
184, 6.5950000000000003e+01, 1.0000000000000000e+00, 9.0000000000000002e-01
185, 6.9000000000000000e+01, 0.0000000000000000e+00, 0.0000000000000000e+00
186, 7.0200000000000003e+01, 1.0000000000000001e-01, -5.0000000000000003e-02
187, 7.0099999999999994e+01, 1.0000000000000000e+00, 1.0000000000000001e-01
188, 6.8900000000000006e+01, 9.0000000000000002e-01, 0.0000000000000000e+00
189, 6.9049999999999997e+01, -5.0000000000000003e-02, 1.0000000000000000e+00
190, 7.0150000000000006e+01, 0.0000000000000000e+00, 1.2000000000000000e+00
191, 7.0000000000000000e+01, 1.1000000000000001e+00, 1.1000000000000001e+00
192, 6.8950000000000003e+01, 1.0000000000000000e+00, 9.0000000000000002e-01
*Element, type=C3D8RT
1, 1, 2, 3, 4, 5, 6, 7, 8
2, 9, 10, 11, 12, 13, 14, 15, 16
3, 17, 18, 19, 20, 21, 22, 23, 24
4, 25, 26, 27, 28, 29, 30, 31, 32
5, 33, 34, 35, 36, 37, 38, 39, 40
6, 41, 42, 43, 44, 45, 46, 47, 48
7, 49, 50, 51, 52, 53, 54, 55, 56
8, 57, 58, 59, 60, 61, 62, 63, 64
9, 65, 66, 67, 68, 69, 70, 71, 72
10, 73, 74, 75, 76, 77, 78, 79, 80
11, 81, 82, 83, 84, 85, 86, 87, 88
12, 89, 90, 91, 92, 93, 94, 95, 96
13, 97, 98, 99, 100, 101, 102, 103, 104
14, 105, 106, 107, 108, 109, 110, 111, 112
15, 113, 114, 115, 116, 117, 118, 119, 120
16, 121, 122, 123, 124, 125, 126, 127, 128
17, 129, 130, 131, 132, 133, 134, 135, 136
18, 137, 138, 139, 140, 141, 142, 143, 144
19, 145, 146, 147, 148, 149, 150, 151, 152
20, 153, 154, 155, 156, 157, 158, 159, 160
21, 161, 162, 163, 164, 165, 166, 167, 168
22, 169, 170, 171, 172, 173, 174, 175, 176
23, 177, 178, 179, 180, 181, 182, 183, 184
24, 185, 186, 187, 188, 189, 190, 191, 192
*Elset, elset=DEFAULT_HOURGLASS
1, 3, 5, 7, 9, 11, 13, 15, 17, 19, 21, 23
*Elset, elset=WEAK_HOURGLASS
2, 4, 6, 8, 10, 12, 14, 16, 18, 20, 22, 24
*Nset, nset=ALL_NODES, generate
1, 192, 1
*Material, name=ELASTIC
*Elastic
2.0000000000000000e11, 2.5000000000000000e-1
*Expansion, zero=3.0000000000000000e2
1.2000000000000000e-5
*Conductivity
4.0
*Density
2.0e3
*Specific Heat
3.0e3
*Solid Section, elset=DEFAULT_HOURGLASS, material=ELASTIC
,
*Solid Section, elset=WEAK_HOURGLASS, material=ELASTIC
,
*Hourglass Stiffness
1.0
*Initial Conditions, type=TEMPERATURE
ALL_NODES, 3.0e2
*Step, name=FINITE_HOURGLASS, nlgeom=YES, inc=1
*Coupled Temperature-Displacement
1.0, 1.0, 1.0e-8, 1.0
*Boundary
1, 1, 1, 0.0000000000000000e+00
1, 2, 2, 0.0000000000000000e+00
1, 3, 3, 0.0000000000000000e+00
1, 11, 11, 3.6000000000000000e+02
2, 1, 1, 4.8000000000000001e-02
2, 2, 2, -8.0000000000000002e-03
2, 3, 3, 1.2000000000000000e-02
2, 11, 11, 4.1000000000000000e+02
3, 1, 1, 6.8000000000000005e-02
3, 2, 2, 3.5999999999999997e-02
3, 3, 3, -1.6000000000000000e-02
3, 11, 11, 4.4500000000000000e+02
4, 1, 1, -1.6000000000000000e-02
4, 2, 2, 4.3999999999999997e-02
4, 3, 3, 8.0000000000000002e-03
4, 11, 11, 3.8500000000000000e+02
5, 1, 1, 1.2000000000000000e-02
5, 2, 2, -2.0000000000000000e-02
5, 3, 3, 5.6000000000000001e-02
5, 11, 11, 4.7000000000000000e+02
6, 1, 1, 4.0000000000000001e-02
6, 2, 2, 1.6000000000000000e-02
6, 3, 3, 4.0000000000000001e-02
6, 11, 11, 4.3000000000000000e+02
7, 1, 1, 9.1999999999999998e-02
7, 2, 2, 6.4000000000000001e-02
7, 3, 3, 7.1999999999999995e-02
7, 11, 11, 5.1500000000000000e+02
8, 1, 1, -3.2000000000000001e-02
8, 2, 2, 2.8000000000000001e-02
8, 3, 3, 4.3999999999999997e-02
8, 11, 11, 4.5500000000000000e+02
9, 1, 1, 0.0000000000000000e+00
9, 2, 2, 0.0000000000000000e+00
9, 3, 3, 0.0000000000000000e+00
9, 11, 11, 3.6000000000000000e+02
10, 1, 1, 4.8000000000000001e-02
10, 2, 2, -8.0000000000000002e-03
10, 3, 3, 1.2000000000000000e-02
10, 11, 11, 4.1000000000000000e+02
11, 1, 1, 6.8000000000000005e-02
11, 2, 2, 3.5999999999999997e-02
11, 3, 3, -1.6000000000000000e-02
11, 11, 11, 4.4500000000000000e+02
12, 1, 1, -1.6000000000000000e-02
12, 2, 2, 4.3999999999999997e-02
12, 3, 3, 8.0000000000000002e-03
12, 11, 11, 3.8500000000000000e+02
13, 1, 1, 1.2000000000000000e-02
13, 2, 2, -2.0000000000000000e-02
13, 3, 3, 5.6000000000000001e-02
13, 11, 11, 4.7000000000000000e+02
14, 1, 1, 4.0000000000000001e-02
14, 2, 2, 1.6000000000000000e-02
14, 3, 3, 4.0000000000000001e-02
14, 11, 11, 4.3000000000000000e+02
15, 1, 1, 9.1999999999999998e-02
15, 2, 2, 6.4000000000000001e-02
15, 3, 3, 7.1999999999999995e-02
15, 11, 11, 5.1500000000000000e+02
16, 1, 1, -3.2000000000000001e-02
16, 2, 2, 2.8000000000000001e-02
16, 3, 3, 4.3999999999999997e-02
16, 11, 11, 4.5500000000000000e+02
17, 1, 1, 1.2000000000000000e-02
17, 2, 2, -7.0000000000000001e-03
17, 3, 3, 8.9999999999999993e-03
17, 11, 11, 3.6000000000000000e+02
18, 1, 1, -1.2000000000000000e-02
18, 2, 2, 7.0000000000000001e-03
18, 3, 3, -8.9999999999999993e-03
18, 11, 11, 4.1000000000000000e+02
19, 1, 1, 1.2000000000000000e-02
19, 2, 2, -7.0000000000000001e-03
19, 3, 3, 8.9999999999999993e-03
19, 11, 11, 4.4500000000000000e+02
20, 1, 1, -1.2000000000000000e-02
20, 2, 2, 7.0000000000000001e-03
20, 3, 3, -8.9999999999999993e-03
20, 11, 11, 3.8500000000000000e+02
21, 1, 1, 1.2000000000000000e-02
21, 2, 2, -7.0000000000000001e-03
21, 3, 3, 8.9999999999999993e-03
21, 11, 11, 4.7000000000000000e+02
22, 1, 1, -1.2000000000000000e-02
22, 2, 2, 7.0000000000000001e-03
22, 3, 3, -8.9999999999999993e-03
22, 11, 11, 4.3000000000000000e+02
23, 1, 1, 1.2000000000000000e-02
23, 2, 2, -7.0000000000000001e-03
23, 3, 3, 8.9999999999999993e-03
23, 11, 11, 5.1500000000000000e+02
24, 1, 1, -1.2000000000000000e-02
24, 2, 2, 7.0000000000000001e-03
24, 3, 3, -8.9999999999999993e-03
24, 11, 11, 4.5500000000000000e+02
25, 1, 1, 1.2000000000000000e-02
25, 2, 2, -7.0000000000000001e-03
25, 3, 3, 8.9999999999999993e-03
25, 11, 11, 3.6000000000000000e+02
26, 1, 1, -1.2000000000000000e-02
26, 2, 2, 7.0000000000000001e-03
26, 3, 3, -8.9999999999999993e-03
26, 11, 11, 4.1000000000000000e+02
27, 1, 1, 1.2000000000000000e-02
27, 2, 2, -7.0000000000000001e-03
27, 3, 3, 8.9999999999999993e-03
27, 11, 11, 4.4500000000000000e+02
28, 1, 1, -1.2000000000000000e-02
28, 2, 2, 7.0000000000000001e-03
28, 3, 3, -8.9999999999999993e-03
28, 11, 11, 3.8500000000000000e+02
29, 1, 1, 1.2000000000000000e-02
29, 2, 2, -7.0000000000000001e-03
29, 3, 3, 8.9999999999999993e-03
29, 11, 11, 4.7000000000000000e+02
30, 1, 1, -1.2000000000000000e-02
30, 2, 2, 7.0000000000000001e-03
30, 3, 3, -8.9999999999999993e-03
30, 11, 11, 4.3000000000000000e+02
31, 1, 1, 1.2000000000000000e-02
31, 2, 2, -7.0000000000000001e-03
31, 3, 3, 8.9999999999999993e-03
31, 11, 11, 5.1500000000000000e+02
32, 1, 1, -1.2000000000000000e-02
32, 2, 2, 7.0000000000000001e-03
32, 3, 3, -8.9999999999999993e-03
32, 11, 11, 4.5500000000000000e+02
33, 1, 1, 1.0000000000000000e-04
33, 2, 2, 0.0000000000000000e+00
33, 3, 3, 0.0000000000000000e+00
33, 11, 11, 3.6000000000000000e+02
34, 1, 1, -1.0000000000000000e-04
34, 2, 2, -0.0000000000000000e+00
34, 3, 3, -0.0000000000000000e+00
34, 11, 11, 4.1000000000000000e+02
35, 1, 1, 1.0000000000000000e-04
35, 2, 2, 0.0000000000000000e+00
35, 3, 3, 0.0000000000000000e+00
35, 11, 11, 4.4500000000000000e+02
36, 1, 1, -1.0000000000000000e-04
36, 2, 2, -0.0000000000000000e+00
36, 3, 3, -0.0000000000000000e+00
36, 11, 11, 3.8500000000000000e+02
37, 1, 1, 1.0000000000000000e-04
37, 2, 2, 0.0000000000000000e+00
37, 3, 3, 0.0000000000000000e+00
37, 11, 11, 4.7000000000000000e+02
38, 1, 1, -1.0000000000000000e-04
38, 2, 2, -0.0000000000000000e+00
38, 3, 3, -0.0000000000000000e+00
38, 11, 11, 4.3000000000000000e+02
39, 1, 1, 1.0000000000000000e-04
39, 2, 2, 0.0000000000000000e+00
39, 3, 3, 0.0000000000000000e+00
39, 11, 11, 5.1500000000000000e+02
40, 1, 1, -1.0000000000000000e-04
40, 2, 2, -0.0000000000000000e+00
40, 3, 3, -0.0000000000000000e+00
40, 11, 11, 4.5500000000000000e+02
41, 1, 1, 1.0000000000000000e-04
41, 2, 2, 0.0000000000000000e+00
41, 3, 3, 0.0000000000000000e+00
41, 11, 11, 3.6000000000000000e+02
42, 1, 1, -1.0000000000000000e-04
42, 2, 2, -0.0000000000000000e+00
42, 3, 3, -0.0000000000000000e+00
42, 11, 11, 4.1000000000000000e+02
43, 1, 1, 1.0000000000000000e-04
43, 2, 2, 0.0000000000000000e+00
43, 3, 3, 0.0000000000000000e+00
43, 11, 11, 4.4500000000000000e+02
44, 1, 1, -1.0000000000000000e-04
44, 2, 2, -0.0000000000000000e+00
44, 3, 3, -0.0000000000000000e+00
44, 11, 11, 3.8500000000000000e+02
45, 1, 1, 1.0000000000000000e-04
45, 2, 2, 0.0000000000000000e+00
45, 3, 3, 0.0000000000000000e+00
45, 11, 11, 4.7000000000000000e+02
46, 1, 1, -1.0000000000000000e-04
46, 2, 2, -0.0000000000000000e+00
46, 3, 3, -0.0000000000000000e+00
46, 11, 11, 4.3000000000000000e+02
47, 1, 1, 1.0000000000000000e-04
47, 2, 2, 0.0000000000000000e+00
47, 3, 3, 0.0000000000000000e+00
47, 11, 11, 5.1500000000000000e+02
48, 1, 1, -1.0000000000000000e-04
48, 2, 2, -0.0000000000000000e+00
48, 3, 3, -0.0000000000000000e+00
48, 11, 11, 4.5500000000000000e+02
49, 1, 1, 1.2000000000000000e-02
49, 2, 2, 0.0000000000000000e+00
49, 3, 3, 0.0000000000000000e+00
49, 11, 11, 3.6000000000000000e+02
50, 1, 1, -1.2000000000000000e-02
50, 2, 2, -0.0000000000000000e+00
50, 3, 3, -0.0000000000000000e+00
50, 11, 11, 4.1000000000000000e+02
51, 1, 1, 1.2000000000000000e-02
51, 2, 2, 0.0000000000000000e+00
51, 3, 3, 0.0000000000000000e+00
51, 11, 11, 4.4500000000000000e+02
52, 1, 1, -1.2000000000000000e-02
52, 2, 2, -0.0000000000000000e+00
52, 3, 3, -0.0000000000000000e+00
52, 11, 11, 3.8500000000000000e+02
53, 1, 1, 1.2000000000000000e-02
53, 2, 2, 0.0000000000000000e+00
53, 3, 3, 0.0000000000000000e+00
53, 11, 11, 4.7000000000000000e+02
54, 1, 1, -1.2000000000000000e-02
54, 2, 2, -0.0000000000000000e+00
54, 3, 3, -0.0000000000000000e+00
54, 11, 11, 4.3000000000000000e+02
55, 1, 1, 1.2000000000000000e-02
55, 2, 2, 0.0000000000000000e+00
55, 3, 3, 0.0000000000000000e+00
55, 11, 11, 5.1500000000000000e+02
56, 1, 1, -1.2000000000000000e-02
56, 2, 2, -0.0000000000000000e+00
56, 3, 3, -0.0000000000000000e+00
56, 11, 11, 4.5500000000000000e+02
57, 1, 1, 1.2000000000000000e-02
57, 2, 2, 0.0000000000000000e+00
57, 3, 3, 0.0000000000000000e+00
57, 11, 11, 3.6000000000000000e+02
58, 1, 1, -1.2000000000000000e-02
58, 2, 2, -0.0000000000000000e+00
58, 3, 3, -0.0000000000000000e+00
58, 11, 11, 4.1000000000000000e+02
59, 1, 1, 1.2000000000000000e-02
59, 2, 2, 0.0000000000000000e+00
59, 3, 3, 0.0000000000000000e+00
59, 11, 11, 4.4500000000000000e+02
60, 1, 1, -1.2000000000000000e-02
60, 2, 2, -0.0000000000000000e+00
60, 3, 3, -0.0000000000000000e+00
60, 11, 11, 3.8500000000000000e+02
61, 1, 1, 1.2000000000000000e-02
61, 2, 2, 0.0000000000000000e+00
61, 3, 3, 0.0000000000000000e+00
61, 11, 11, 4.7000000000000000e+02
62, 1, 1, -1.2000000000000000e-02
62, 2, 2, -0.0000000000000000e+00
62, 3, 3, -0.0000000000000000e+00
62, 11, 11, 4.3000000000000000e+02
63, 1, 1, 1.2000000000000000e-02
63, 2, 2, 0.0000000000000000e+00
63, 3, 3, 0.0000000000000000e+00
63, 11, 11, 5.1500000000000000e+02
64, 1, 1, -1.2000000000000000e-02
64, 2, 2, -0.0000000000000000e+00
64, 3, 3, -0.0000000000000000e+00
64, 11, 11, 4.5500000000000000e+02
65, 1, 1, 0.0000000000000000e+00
65, 2, 2, -1.2000000000000000e-02
65, 3, 3, 0.0000000000000000e+00
65, 11, 11, 3.6000000000000000e+02
66, 1, 1, -0.0000000000000000e+00
66, 2, 2, 1.2000000000000000e-02
66, 3, 3, -0.0000000000000000e+00
66, 11, 11, 4.1000000000000000e+02
67, 1, 1, 0.0000000000000000e+00
67, 2, 2, -1.2000000000000000e-02
67, 3, 3, 0.0000000000000000e+00
67, 11, 11, 4.4500000000000000e+02
68, 1, 1, -0.0000000000000000e+00
68, 2, 2, 1.2000000000000000e-02
68, 3, 3, -0.0000000000000000e+00
68, 11, 11, 3.8500000000000000e+02
69, 1, 1, 0.0000000000000000e+00
69, 2, 2, -1.2000000000000000e-02
69, 3, 3, 0.0000000000000000e+00
69, 11, 11, 4.7000000000000000e+02
70, 1, 1, -0.0000000000000000e+00
70, 2, 2, 1.2000000000000000e-02
70, 3, 3, -0.0000000000000000e+00
70, 11, 11, 4.3000000000000000e+02
71, 1, 1, 0.0000000000000000e+00
71, 2, 2, -1.2000000000000000e-02
71, 3, 3, 0.0000000000000000e+00
71, 11, 11, 5.1500000000000000e+02
72, 1, 1, -0.0000000000000000e+00
72, 2, 2, 1.2000000000000000e-02
72, 3, 3, -0.0000000000000000e+00
72, 11, 11, 4.5500000000000000e+02
73, 1, 1, 0.0000000000000000e+00
73, 2, 2, -1.2000000000000000e-02
73, 3, 3, 0.0000000000000000e+00
73, 11, 11, 3.6000000000000000e+02
74, 1, 1, -0.0000000000000000e+00
74, 2, 2, 1.2000000000000000e-02
74, 3, 3, -0.0000000000000000e+00
74, 11, 11, 4.1000000000000000e+02
75, 1, 1, 0.0000000000000000e+00
75, 2, 2, -1.2000000000000000e-02
75, 3, 3, 0.0000000000000000e+00
75, 11, 11, 4.4500000000000000e+02
76, 1, 1, -0.0000000000000000e+00
76, 2, 2, 1.2000000000000000e-02
76, 3, 3, -0.0000000000000000e+00
76, 11, 11, 3.8500000000000000e+02
77, 1, 1, 0.0000000000000000e+00
77, 2, 2, -1.2000000000000000e-02
77, 3, 3, 0.0000000000000000e+00
77, 11, 11, 4.7000000000000000e+02
78, 1, 1, -0.0000000000000000e+00
78, 2, 2, 1.2000000000000000e-02
78, 3, 3, -0.0000000000000000e+00
78, 11, 11, 4.3000000000000000e+02
79, 1, 1, 0.0000000000000000e+00
79, 2, 2, -1.2000000000000000e-02
79, 3, 3, 0.0000000000000000e+00
79, 11, 11, 5.1500000000000000e+02
80, 1, 1, -0.0000000000000000e+00
80, 2, 2, 1.2000000000000000e-02
80, 3, 3, -0.0000000000000000e+00
80, 11, 11, 4.5500000000000000e+02
81, 1, 1, 0.0000000000000000e+00
81, 2, 2, 0.0000000000000000e+00
81, 3, 3, 1.2000000000000000e-02
81, 11, 11, 3.6000000000000000e+02
82, 1, 1, -0.0000000000000000e+00
82, 2, 2, -0.0000000000000000e+00
82, 3, 3, -1.2000000000000000e-02
82, 11, 11, 4.1000000000000000e+02
83, 1, 1, 0.0000000000000000e+00
83, 2, 2, 0.0000000000000000e+00
83, 3, 3, 1.2000000000000000e-02
83, 11, 11, 4.4500000000000000e+02
84, 1, 1, -0.0000000000000000e+00
84, 2, 2, -0.0000000000000000e+00
84, 3, 3, -1.2000000000000000e-02
84, 11, 11, 3.8500000000000000e+02
85, 1, 1, 0.0000000000000000e+00
85, 2, 2, 0.0000000000000000e+00
85, 3, 3, 1.2000000000000000e-02
85, 11, 11, 4.7000000000000000e+02
86, 1, 1, -0.0000000000000000e+00
86, 2, 2, -0.0000000000000000e+00
86, 3, 3, -1.2000000000000000e-02
86, 11, 11, 4.3000000000000000e+02
87, 1, 1, 0.0000000000000000e+00
87, 2, 2, 0.0000000000000000e+00
87, 3, 3, 1.2000000000000000e-02
87, 11, 11, 5.1500000000000000e+02
88, 1, 1, -0.0000000000000000e+00
88, 2, 2, -0.0000000000000000e+00
88, 3, 3, -1.2000000000000000e-02
88, 11, 11, 4.5500000000000000e+02
89, 1, 1, 0.0000000000000000e+00
89, 2, 2, 0.0000000000000000e+00
89, 3, 3, 1.2000000000000000e-02
89, 11, 11, 3.6000000000000000e+02
90, 1, 1, -0.0000000000000000e+00
90, 2, 2, -0.0000000000000000e+00
90, 3, 3, -1.2000000000000000e-02
90, 11, 11, 4.1000000000000000e+02
91, 1, 1, 0.0000000000000000e+00
91, 2, 2, 0.0000000000000000e+00
91, 3, 3, 1.2000000000000000e-02
91, 11, 11, 4.4500000000000000e+02
92, 1, 1, -0.0000000000000000e+00
92, 2, 2, -0.0000000000000000e+00
92, 3, 3, -1.2000000000000000e-02
92, 11, 11, 3.8500000000000000e+02
93, 1, 1, 0.0000000000000000e+00
93, 2, 2, 0.0000000000000000e+00
93, 3, 3, 1.2000000000000000e-02
93, 11, 11, 4.7000000000000000e+02
94, 1, 1, -0.0000000000000000e+00
94, 2, 2, -0.0000000000000000e+00
94, 3, 3, -1.2000000000000000e-02
94, 11, 11, 4.3000000000000000e+02
95, 1, 1, 0.0000000000000000e+00
95, 2, 2, 0.0000000000000000e+00
95, 3, 3, 1.2000000000000000e-02
95, 11, 11, 5.1500000000000000e+02
96, 1, 1, -0.0000000000000000e+00
96, 2, 2, -0.0000000000000000e+00
96, 3, 3, -1.2000000000000000e-02
96, 11, 11, 4.5500000000000000e+02
97, 1, 1, 0.0000000000000000e+00
97, 2, 2, 0.0000000000000000e+00
97, 3, 3, 0.0000000000000000e+00
97, 11, 11, 3.6000000000000000e+02
98, 1, 1, 4.8000000000000001e-02
98, 2, 2, -8.0000000000000002e-03
98, 3, 3, 1.2000000000000000e-02
98, 11, 11, 4.1000000000000000e+02
99, 1, 1, 6.8000000000000005e-02
99, 2, 2, 3.5999999999999997e-02
99, 3, 3, -1.6000000000000000e-02
99, 11, 11, 4.4500000000000000e+02
100, 1, 1, -1.6000000000000000e-02
100, 2, 2, 4.3999999999999997e-02
100, 3, 3, 8.0000000000000002e-03
100, 11, 11, 3.8500000000000000e+02
101, 1, 1, 1.2000000000000000e-02
101, 2, 2, -2.0000000000000000e-02
101, 3, 3, 5.6000000000000001e-02
101, 11, 11, 4.7000000000000000e+02
102, 1, 1, 4.0000000000000001e-02
102, 2, 2, 1.6000000000000000e-02
102, 3, 3, 4.0000000000000001e-02
102, 11, 11, 4.3000000000000000e+02
103, 1, 1, 9.1999999999999998e-02
103, 2, 2, 6.4000000000000001e-02
103, 3, 3, 7.1999999999999995e-02
103, 11, 11, 5.1500000000000000e+02
104, 1, 1, -3.2000000000000001e-02
104, 2, 2, 2.8000000000000001e-02
104, 3, 3, 4.3999999999999997e-02
104, 11, 11, 4.5500000000000000e+02
105, 1, 1, 0.0000000000000000e+00
105, 2, 2, 0.0000000000000000e+00
105, 3, 3, 0.0000000000000000e+00
105, 11, 11, 3.6000000000000000e+02
106, 1, 1, 4.8000000000000001e-02
106, 2, 2, -8.0000000000000002e-03
106, 3, 3, 1.2000000000000000e-02
106, 11, 11, 4.1000000000000000e+02
107, 1, 1, 6.8000000000000005e-02
107, 2, 2, 3.5999999999999997e-02
107, 3, 3, -1.6000000000000000e-02
107, 11, 11, 4.4500000000000000e+02
108, 1, 1, -1.6000000000000000e-02
108, 2, 2, 4.3999999999999997e-02
108, 3, 3, 8.0000000000000002e-03
108, 11, 11, 3.8500000000000000e+02
109, 1, 1, 1.2000000000000000e-02
109, 2, 2, -2.0000000000000000e-02
109, 3, 3, 5.6000000000000001e-02
109, 11, 11, 4.7000000000000000e+02
110, 1, 1, 4.0000000000000001e-02
110, 2, 2, 1.6000000000000000e-02
110, 3, 3, 4.0000000000000001e-02
110, 11, 11, 4.3000000000000000e+02
111, 1, 1, 9.1999999999999998e-02
111, 2, 2, 6.4000000000000001e-02
111, 3, 3, 7.1999999999999995e-02
111, 11, 11, 5.1500000000000000e+02
112, 1, 1, -3.2000000000000001e-02
112, 2, 2, 2.8000000000000001e-02
112, 3, 3, 4.3999999999999997e-02
112, 11, 11, 4.5500000000000000e+02
113, 1, 1, 1.2000000000000000e-02
113, 2, 2, -7.0000000000000001e-03
113, 3, 3, 8.9999999999999993e-03
113, 11, 11, 3.6000000000000000e+02
114, 1, 1, -1.2000000000000000e-02
114, 2, 2, 7.0000000000000001e-03
114, 3, 3, -8.9999999999999993e-03
114, 11, 11, 4.1000000000000000e+02
115, 1, 1, 1.2000000000000000e-02
115, 2, 2, -7.0000000000000001e-03
115, 3, 3, 8.9999999999999993e-03
115, 11, 11, 4.4500000000000000e+02
116, 1, 1, -1.2000000000000000e-02
116, 2, 2, 7.0000000000000001e-03
116, 3, 3, -8.9999999999999993e-03
116, 11, 11, 3.8500000000000000e+02
117, 1, 1, 1.2000000000000000e-02
117, 2, 2, -7.0000000000000001e-03
117, 3, 3, 8.9999999999999993e-03
117, 11, 11, 4.7000000000000000e+02
118, 1, 1, -1.2000000000000000e-02
118, 2, 2, 7.0000000000000001e-03
118, 3, 3, -8.9999999999999993e-03
118, 11, 11, 4.3000000000000000e+02
119, 1, 1, 1.2000000000000000e-02
119, 2, 2, -7.0000000000000001e-03
119, 3, 3, 8.9999999999999993e-03
119, 11, 11, 5.1500000000000000e+02
120, 1, 1, -1.2000000000000000e-02
120, 2, 2, 7.0000000000000001e-03
120, 3, 3, -8.9999999999999993e-03
120, 11, 11, 4.5500000000000000e+02
121, 1, 1, 1.2000000000000000e-02
121, 2, 2, -7.0000000000000001e-03
121, 3, 3, 8.9999999999999993e-03
121, 11, 11, 3.6000000000000000e+02
122, 1, 1, -1.2000000000000000e-02
122, 2, 2, 7.0000000000000001e-03
122, 3, 3, -8.9999999999999993e-03
122, 11, 11, 4.1000000000000000e+02
123, 1, 1, 1.2000000000000000e-02
123, 2, 2, -7.0000000000000001e-03
123, 3, 3, 8.9999999999999993e-03
123, 11, 11, 4.4500000000000000e+02
124, 1, 1, -1.2000000000000000e-02
124, 2, 2, 7.0000000000000001e-03
124, 3, 3, -8.9999999999999993e-03
124, 11, 11, 3.8500000000000000e+02
125, 1, 1, 1.2000000000000000e-02
125, 2, 2, -7.0000000000000001e-03
125, 3, 3, 8.9999999999999993e-03
125, 11, 11, 4.7000000000000000e+02
126, 1, 1, -1.2000000000000000e-02
126, 2, 2, 7.0000000000000001e-03
126, 3, 3, -8.9999999999999993e-03
126, 11, 11, 4.3000000000000000e+02
127, 1, 1, 1.2000000000000000e-02
127, 2, 2, -7.0000000000000001e-03
127, 3, 3, 8.9999999999999993e-03
127, 11, 11, 5.1500000000000000e+02
128, 1, 1, -1.2000000000000000e-02
128, 2, 2, 7.0000000000000001e-03
128, 3, 3, -8.9999999999999993e-03
128, 11, 11, 4.5500000000000000e+02
129, 1, 1, 1.0000000000000000e-04
129, 2, 2, 0.0000000000000000e+00
129, 3, 3, 0.0000000000000000e+00
129, 11, 11, 3.6000000000000000e+02
130, 1, 1, -1.0000000000000000e-04
130, 2, 2, -0.0000000000000000e+00
130, 3, 3, -0.0000000000000000e+00
130, 11, 11, 4.1000000000000000e+02
131, 1, 1, 1.0000000000000000e-04
131, 2, 2, 0.0000000000000000e+00
131, 3, 3, 0.0000000000000000e+00
131, 11, 11, 4.4500000000000000e+02
132, 1, 1, -1.0000000000000000e-04
132, 2, 2, -0.0000000000000000e+00
132, 3, 3, -0.0000000000000000e+00
132, 11, 11, 3.8500000000000000e+02
133, 1, 1, 1.0000000000000000e-04
133, 2, 2, 0.0000000000000000e+00
133, 3, 3, 0.0000000000000000e+00
133, 11, 11, 4.7000000000000000e+02
134, 1, 1, -1.0000000000000000e-04
134, 2, 2, -0.0000000000000000e+00
134, 3, 3, -0.0000000000000000e+00
134, 11, 11, 4.3000000000000000e+02
135, 1, 1, 1.0000000000000000e-04
135, 2, 2, 0.0000000000000000e+00
135, 3, 3, 0.0000000000000000e+00
135, 11, 11, 5.1500000000000000e+02
136, 1, 1, -1.0000000000000000e-04
136, 2, 2, -0.0000000000000000e+00
136, 3, 3, -0.0000000000000000e+00
136, 11, 11, 4.5500000000000000e+02
137, 1, 1, 1.0000000000000000e-04
137, 2, 2, 0.0000000000000000e+00
137, 3, 3, 0.0000000000000000e+00
137, 11, 11, 3.6000000000000000e+02
138, 1, 1, -1.0000000000000000e-04
138, 2, 2, -0.0000000000000000e+00
138, 3, 3, -0.0000000000000000e+00
138, 11, 11, 4.1000000000000000e+02
139, 1, 1, 1.0000000000000000e-04
139, 2, 2, 0.0000000000000000e+00
139, 3, 3, 0.0000000000000000e+00
139, 11, 11, 4.4500000000000000e+02
140, 1, 1, -1.0000000000000000e-04
140, 2, 2, -0.0000000000000000e+00
140, 3, 3, -0.0000000000000000e+00
140, 11, 11, 3.8500000000000000e+02
141, 1, 1, 1.0000000000000000e-04
141, 2, 2, 0.0000000000000000e+00
141, 3, 3, 0.0000000000000000e+00
141, 11, 11, 4.7000000000000000e+02
142, 1, 1, -1.0000000000000000e-04
142, 2, 2, -0.0000000000000000e+00
142, 3, 3, -0.0000000000000000e+00
142, 11, 11, 4.3000000000000000e+02
143, 1, 1, 1.0000000000000000e-04
143, 2, 2, 0.0000000000000000e+00
143, 3, 3, 0.0000000000000000e+00
143, 11, 11, 5.1500000000000000e+02
144, 1, 1, -1.0000000000000000e-04
144, 2, 2, -0.0000000000000000e+00
144, 3, 3, -0.0000000000000000e+00
144, 11, 11, 4.5500000000000000e+02
145, 1, 1, 1.2000000000000000e-02
145, 2, 2, 0.0000000000000000e+00
145, 3, 3, 0.0000000000000000e+00
145, 11, 11, 3.6000000000000000e+02
146, 1, 1, -1.2000000000000000e-02
146, 2, 2, -0.0000000000000000e+00
146, 3, 3, -0.0000000000000000e+00
146, 11, 11, 4.1000000000000000e+02
147, 1, 1, 1.2000000000000000e-02
147, 2, 2, 0.0000000000000000e+00
147, 3, 3, 0.0000000000000000e+00
147, 11, 11, 4.4500000000000000e+02
148, 1, 1, -1.2000000000000000e-02
148, 2, 2, -0.0000000000000000e+00
148, 3, 3, -0.0000000000000000e+00
148, 11, 11, 3.8500000000000000e+02
149, 1, 1, 1.2000000000000000e-02
149, 2, 2, 0.0000000000000000e+00
149, 3, 3, 0.0000000000000000e+00
149, 11, 11, 4.7000000000000000e+02
150, 1, 1, -1.2000000000000000e-02
150, 2, 2, -0.0000000000000000e+00
150, 3, 3, -0.0000000000000000e+00
150, 11, 11, 4.3000000000000000e+02
151, 1, 1, 1.2000000000000000e-02
151, 2, 2, 0.0000000000000000e+00
151, 3, 3, 0.0000000000000000e+00
151, 11, 11, 5.1500000000000000e+02
152, 1, 1, -1.2000000000000000e-02
152, 2, 2, -0.0000000000000000e+00
152, 3, 3, -0.0000000000000000e+00
152, 11, 11, 4.5500000000000000e+02
153, 1, 1, 1.2000000000000000e-02
153, 2, 2, 0.0000000000000000e+00
153, 3, 3, 0.0000000000000000e+00
153, 11, 11, 3.6000000000000000e+02
154, 1, 1, -1.2000000000000000e-02
154, 2, 2, -0.0000000000000000e+00
154, 3, 3, -0.0000000000000000e+00
154, 11, 11, 4.1000000000000000e+02
155, 1, 1, 1.2000000000000000e-02
155, 2, 2, 0.0000000000000000e+00
155, 3, 3, 0.0000000000000000e+00
155, 11, 11, 4.4500000000000000e+02
156, 1, 1, -1.2000000000000000e-02
156, 2, 2, -0.0000000000000000e+00
156, 3, 3, -0.0000000000000000e+00
156, 11, 11, 3.8500000000000000e+02
157, 1, 1, 1.2000000000000000e-02
157, 2, 2, 0.0000000000000000e+00
157, 3, 3, 0.0000000000000000e+00
157, 11, 11, 4.7000000000000000e+02
158, 1, 1, -1.2000000000000000e-02
158, 2, 2, -0.0000000000000000e+00
158, 3, 3, -0.0000000000000000e+00
158, 11, 11, 4.3000000000000000e+02
159, 1, 1, 1.2000000000000000e-02
159, 2, 2, 0.0000000000000000e+00
159, 3, 3, 0.0000000000000000e+00
159, 11, 11, 5.1500000000000000e+02
160, 1, 1, -1.2000000000000000e-02
160, 2, 2, -0.0000000000000000e+00
160, 3, 3, -0.0000000000000000e+00
160, 11, 11, 4.5500000000000000e+02
161, 1, 1, 0.0000000000000000e+00
161, 2, 2, -1.2000000000000000e-02
161, 3, 3, 0.0000000000000000e+00
161, 11, 11, 3.6000000000000000e+02
162, 1, 1, -0.0000000000000000e+00
162, 2, 2, 1.2000000000000000e-02
162, 3, 3, -0.0000000000000000e+00
162, 11, 11, 4.1000000000000000e+02
163, 1, 1, 0.0000000000000000e+00
163, 2, 2, -1.2000000000000000e-02
163, 3, 3, 0.0000000000000000e+00
163, 11, 11, 4.4500000000000000e+02
164, 1, 1, -0.0000000000000000e+00
164, 2, 2, 1.2000000000000000e-02
164, 3, 3, -0.0000000000000000e+00
164, 11, 11, 3.8500000000000000e+02
165, 1, 1, 0.0000000000000000e+00
165, 2, 2, -1.2000000000000000e-02
165, 3, 3, 0.0000000000000000e+00
165, 11, 11, 4.7000000000000000e+02
166, 1, 1, -0.0000000000000000e+00
166, 2, 2, 1.2000000000000000e-02
166, 3, 3, -0.0000000000000000e+00
166, 11, 11, 4.3000000000000000e+02
167, 1, 1, 0.0000000000000000e+00
167, 2, 2, -1.2000000000000000e-02
167, 3, 3, 0.0000000000000000e+00
167, 11, 11, 5.1500000000000000e+02
168, 1, 1, -0.0000000000000000e+00
168, 2, 2, 1.2000000000000000e-02
168, 3, 3, -0.0000000000000000e+00
168, 11, 11, 4.5500000000000000e+02
169, 1, 1, 0.0000000000000000e+00
169, 2, 2, -1.2000000000000000e-02
169, 3, 3, 0.0000000000000000e+00
169, 11, 11, 3.6000000000000000e+02
170, 1, 1, -0.0000000000000000e+00
170, 2, 2, 1.2000000000000000e-02
170, 3, 3, -0.0000000000000000e+00
170, 11, 11, 4.1000000000000000e+02
171, 1, 1, 0.0000000000000000e+00
171, 2, 2, -1.2000000000000000e-02
171, 3, 3, 0.0000000000000000e+00
171, 11, 11, 4.4500000000000000e+02
172, 1, 1, -0.0000000000000000e+00
172, 2, 2, 1.2000000000000000e-02
172, 3, 3, -0.0000000000000000e+00
172, 11, 11, 3.8500000000000000e+02
173, 1, 1, 0.0000000000000000e+00
173, 2, 2, -1.2000000000000000e-02
173, 3, 3, 0.0000000000000000e+00
173, 11, 11, 4.7000000000000000e+02
174, 1, 1, -0.0000000000000000e+00
174, 2, 2, 1.2000000000000000e-02
174, 3, 3, -0.0000000000000000e+00
174, 11, 11, 4.3000000000000000e+02
175, 1, 1, 0.0000000000000000e+00
175, 2, 2, -1.2000000000000000e-02
175, 3, 3, 0.0000000000000000e+00
175, 11, 11, 5.1500000000000000e+02
176, 1, 1, -0.0000000000000000e+00
176, 2, 2, 1.2000000000000000e-02
176, 3, 3, -0.0000000000000000e+00
176, 11, 11, 4.5500000000000000e+02
177, 1, 1, 0.0000000000000000e+00
177, 2, 2, 0.0000000000000000e+00
177, 3, 3, 1.2000000000000000e-02
177, 11, 11, 3.6000000000000000e+02
178, 1, 1, -0.0000000000000000e+00
178, 2, 2, -0.0000000000000000e+00
178, 3, 3, -1.2000000000000000e-02
178, 11, 11, 4.1000000000000000e+02
179, 1, 1, 0.0000000000000000e+00
179, 2, 2, 0.0000000000000000e+00
179, 3, 3, 1.2000000000000000e-02
179, 11, 11, 4.4500000000000000e+02
180, 1, 1, -0.0000000000000000e+00
180, 2, 2, -0.0000000000000000e+00
180, 3, 3, -1.2000000000000000e-02
180, 11, 11, 3.8500000000000000e+02
181, 1, 1, 0.0000000000000000e+00
181, 2, 2, 0.0000000000000000e+00
181, 3, 3, 1.2000000000000000e-02
181, 11, 11, 4.7000000000000000e+02
182, 1, 1, -0.0000000000000000e+00
182, 2, 2, -0.0000000000000000e+00
182, 3, 3, -1.2000000000000000e-02
182, 11, 11, 4.3000000000000000e+02
183, 1, 1, 0.0000000000000000e+00
183, 2, 2, 0.0000000000000000e+00
183, 3, 3, 1.2000000000000000e-02
183, 11, 11, 5.1500000000000000e+02
184, 1, 1, -0.0000000000000000e+00
184, 2, 2, -0.0000000000000000e+00
184, 3, 3, -1.2000000000000000e-02
184, 11, 11, 4.5500000000000000e+02
185, 1, 1, 0.0000000000000000e+00
185, 2, 2, 0.0000000000000000e+00
185, 3, 3, 1.2000000000000000e-02
185, 11, 11, 3.6000000000000000e+02
186, 1, 1, -0.0000000000000000e+00
186, 2, 2, -0.0000000000000000e+00
186, 3, 3, -1.2000000000000000e-02
186, 11, 11, 4.1000000000000000e+02
187, 1, 1, 0.0000000000000000e+00
187, 2, 2, 0.0000000000000000e+00
187, 3, 3, 1.2000000000000000e-02
187, 11, 11, 4.4500000000000000e+02
188, 1, 1, -0.0000000000000000e+00
188, 2, 2, -0.0000000000000000e+00
188, 3, 3, -1.2000000000000000e-02
188, 11, 11, 3.8500000000000000e+02
189, 1, 1, 0.0000000000000000e+00
189, 2, 2, 0.0000000000000000e+00
189, 3, 3, 1.2000000000000000e-02
189, 11, 11, 4.7000000000000000e+02
190, 1, 1, -0.0000000000000000e+00
190, 2, 2, -0.0000000000000000e+00
190, 3, 3, -1.2000000000000000e-02
190, 11, 11, 4.3000000000000000e+02
191, 1, 1, 0.0000000000000000e+00
191, 2, 2, 0.0000000000000000e+00
191, 3, 3, 1.2000000000000000e-02
191, 11, 11, 5.1500000000000000e+02
192, 1, 1, -0.0000000000000000e+00
192, 2, 2, -0.0000000000000000e+00
192, 3, 3, -1.2000000000000000e-02
192, 11, 11, 4.5500000000000000e+02
*Output, field, frequency=1
*Node Output
RF, U
*Element Output
IVOL, S, TEMP
*End Step
