*Heading
** B5.4 Abaqus/Standard C3D8T finite-deformation thermal-load probe.
** SI units: metre, second, kelvin, watt.
*Preprint, echo=NO, model=NO, history=NO, contact=NO
*Node
1, 0.0000000000000000e+00, 0.0000000000000000e+00, 0.0000000000000000e+00
2, 1.2000000000000000e+00, 1.0000000000000001e-01, -5.0000000000000003e-02
3, 1.1000000000000001e+00, 1.0000000000000000e+00, 1.0000000000000001e-01
4, -1.0000000000000001e-01, 9.0000000000000002e-01, 0.0000000000000000e+00
5, 5.0000000000000003e-02, -1.0000000000000001e-01, 1.0000000000000000e+00
6, 1.3000000000000000e+00, 0.0000000000000000e+00, 1.1000000000000001e+00
7, 1.0000000000000000e+00, 1.2000000000000000e+00, 9.0000000000000002e-01
8, -2.0000000000000001e-01, 1.0000000000000000e+00, 1.2000000000000000e+00
9, 3.0000000000000000e+00, 0.0000000000000000e+00, 0.0000000000000000e+00
10, 4.2000000000000002e+00, 1.0000000000000001e-01, -5.0000000000000003e-02
11, 4.0999999999999996e+00, 1.0000000000000000e+00, 1.0000000000000001e-01
12, 2.8999999999999999e+00, 9.0000000000000002e-01, 0.0000000000000000e+00
13, 3.0499999999999998e+00, -1.0000000000000001e-01, 1.0000000000000000e+00
14, 4.2999999999999998e+00, 0.0000000000000000e+00, 1.1000000000000001e+00
15, 4.0000000000000000e+00, 1.2000000000000000e+00, 9.0000000000000002e-01
16, 2.7999999999999998e+00, 1.0000000000000000e+00, 1.2000000000000000e+00
17, 6.0000000000000000e+00, 0.0000000000000000e+00, 0.0000000000000000e+00
18, 7.2000000000000002e+00, 1.0000000000000001e-01, -5.0000000000000003e-02
19, 7.0999999999999996e+00, 1.0000000000000000e+00, 1.0000000000000001e-01
20, 5.9000000000000004e+00, 9.0000000000000002e-01, 0.0000000000000000e+00
21, 6.0499999999999998e+00, -1.0000000000000001e-01, 1.0000000000000000e+00
22, 7.2999999999999998e+00, 0.0000000000000000e+00, 1.1000000000000001e+00
23, 7.0000000000000000e+00, 1.2000000000000000e+00, 9.0000000000000002e-01
24, 5.7999999999999998e+00, 1.0000000000000000e+00, 1.2000000000000000e+00
25, 9.0000000000000000e+00, 0.0000000000000000e+00, 0.0000000000000000e+00
26, 1.0199999999999999e+01, 1.0000000000000001e-01, -5.0000000000000003e-02
27, 1.0100000000000000e+01, 1.0000000000000000e+00, 1.0000000000000001e-01
28, 8.9000000000000004e+00, 9.0000000000000002e-01, 0.0000000000000000e+00
29, 9.0500000000000007e+00, -1.0000000000000001e-01, 1.0000000000000000e+00
30, 1.0300000000000001e+01, 0.0000000000000000e+00, 1.1000000000000001e+00
31, 1.0000000000000000e+01, 1.2000000000000000e+00, 9.0000000000000002e-01
32, 8.8000000000000007e+00, 1.0000000000000000e+00, 1.2000000000000000e+00
33, 1.2000000000000000e+01, 0.0000000000000000e+00, 0.0000000000000000e+00
34, 1.3199999999999999e+01, 1.0000000000000001e-01, -5.0000000000000003e-02
35, 1.3100000000000000e+01, 1.0000000000000000e+00, 1.0000000000000001e-01
36, 1.1900000000000000e+01, 9.0000000000000002e-01, 0.0000000000000000e+00
37, 1.2050000000000001e+01, -1.0000000000000001e-01, 1.0000000000000000e+00
38, 1.3300000000000001e+01, 0.0000000000000000e+00, 1.1000000000000001e+00
39, 1.3000000000000000e+01, 1.2000000000000000e+00, 9.0000000000000002e-01
40, 1.1800000000000001e+01, 1.0000000000000000e+00, 1.2000000000000000e+00
41, 1.5000000000000000e+01, 0.0000000000000000e+00, 0.0000000000000000e+00
42, 1.6199999999999999e+01, 1.0000000000000001e-01, -5.0000000000000003e-02
43, 1.6100000000000001e+01, 1.0000000000000000e+00, 1.0000000000000001e-01
44, 1.4900000000000000e+01, 9.0000000000000002e-01, 0.0000000000000000e+00
45, 1.5050000000000001e+01, -1.0000000000000001e-01, 1.0000000000000000e+00
46, 1.6300000000000001e+01, 0.0000000000000000e+00, 1.1000000000000001e+00
47, 1.6000000000000000e+01, 1.2000000000000000e+00, 9.0000000000000002e-01
48, 1.4800000000000001e+01, 1.0000000000000000e+00, 1.2000000000000000e+00
49, 1.8000000000000000e+01, 0.0000000000000000e+00, 0.0000000000000000e+00
50, 1.9199999999999999e+01, 1.0000000000000001e-01, -5.0000000000000003e-02
51, 1.9100000000000001e+01, 1.0000000000000000e+00, 1.0000000000000001e-01
52, 1.7899999999999999e+01, 9.0000000000000002e-01, 0.0000000000000000e+00
53, 1.8050000000000001e+01, -1.0000000000000001e-01, 1.0000000000000000e+00
54, 1.9300000000000001e+01, 0.0000000000000000e+00, 1.1000000000000001e+00
55, 1.9000000000000000e+01, 1.2000000000000000e+00, 9.0000000000000002e-01
56, 1.7800000000000001e+01, 1.0000000000000000e+00, 1.2000000000000000e+00
57, 2.1000000000000000e+01, 0.0000000000000000e+00, 0.0000000000000000e+00
58, 2.2199999999999999e+01, 1.0000000000000001e-01, -5.0000000000000003e-02
59, 2.2100000000000001e+01, 1.0000000000000000e+00, 1.0000000000000001e-01
60, 2.0899999999999999e+01, 9.0000000000000002e-01, 0.0000000000000000e+00
61, 2.1050000000000001e+01, -1.0000000000000001e-01, 1.0000000000000000e+00
62, 2.2300000000000001e+01, 0.0000000000000000e+00, 1.1000000000000001e+00
63, 2.2000000000000000e+01, 1.2000000000000000e+00, 9.0000000000000002e-01
64, 2.0800000000000001e+01, 1.0000000000000000e+00, 1.2000000000000000e+00
65, 2.4000000000000000e+01, 0.0000000000000000e+00, 0.0000000000000000e+00
66, 2.5199999999999999e+01, 1.0000000000000001e-01, -5.0000000000000003e-02
67, 2.5100000000000001e+01, 1.0000000000000000e+00, 1.0000000000000001e-01
68, 2.3899999999999999e+01, 9.0000000000000002e-01, 0.0000000000000000e+00
69, 2.4050000000000001e+01, -1.0000000000000001e-01, 1.0000000000000000e+00
70, 2.5300000000000001e+01, 0.0000000000000000e+00, 1.1000000000000001e+00
71, 2.5000000000000000e+01, 1.2000000000000000e+00, 9.0000000000000002e-01
72, 2.3800000000000001e+01, 1.0000000000000000e+00, 1.2000000000000000e+00
73, 2.7000000000000000e+01, 0.0000000000000000e+00, 0.0000000000000000e+00
74, 2.8199999999999999e+01, 1.0000000000000001e-01, -5.0000000000000003e-02
75, 2.8100000000000001e+01, 1.0000000000000000e+00, 1.0000000000000001e-01
76, 2.6899999999999999e+01, 9.0000000000000002e-01, 0.0000000000000000e+00
77, 2.7050000000000001e+01, -1.0000000000000001e-01, 1.0000000000000000e+00
78, 2.8300000000000001e+01, 0.0000000000000000e+00, 1.1000000000000001e+00
79, 2.8000000000000000e+01, 1.2000000000000000e+00, 9.0000000000000002e-01
80, 2.6800000000000001e+01, 1.0000000000000000e+00, 1.2000000000000000e+00
81, 3.0000000000000000e+01, 0.0000000000000000e+00, 0.0000000000000000e+00
82, 3.1199999999999999e+01, 1.0000000000000001e-01, -5.0000000000000003e-02
83, 3.1100000000000001e+01, 1.0000000000000000e+00, 1.0000000000000001e-01
84, 2.9899999999999999e+01, 9.0000000000000002e-01, 0.0000000000000000e+00
85, 3.0050000000000001e+01, -1.0000000000000001e-01, 1.0000000000000000e+00
86, 3.1300000000000001e+01, 0.0000000000000000e+00, 1.1000000000000001e+00
87, 3.1000000000000000e+01, 1.2000000000000000e+00, 9.0000000000000002e-01
88, 2.9800000000000001e+01, 1.0000000000000000e+00, 1.2000000000000000e+00
*Element, type=C3D8T, elset=VOLUME
1, 1, 2, 3, 4, 5, 6, 7, 8
2, 9, 10, 11, 12, 13, 14, 15, 16
3, 17, 18, 19, 20, 21, 22, 23, 24
4, 25, 26, 27, 28, 29, 30, 31, 32
5, 33, 34, 35, 36, 37, 38, 39, 40
6, 41, 42, 43, 44, 45, 46, 47, 48
7, 49, 50, 51, 52, 53, 54, 55, 56
8, 57, 58, 59, 60, 61, 62, 63, 64
9, 65, 66, 67, 68, 69, 70, 71, 72
10, 73, 74, 75, 76, 77, 78, 79, 80
11, 81, 82, 83, 84, 85, 86, 87, 88
*Nset, nset=ALL_NODES, generate
1, 88, 1
*Material, name=THERMAL
*Elastic
2.0000000000000000e11, 2.5000000000000000e-1
*Expansion, zero=3.0000000000000000e2
0.0
*Conductivity
4.0000000000000000e0
*Density
2.0000000000000000e3
*Specific Heat
3.0000000000000000e3
*Solid Section, elset=VOLUME, material=THERMAL
,
*Initial Conditions, type=TEMPERATURE
ALL_NODES, 3.0000000000000000e2
*Step, name=DEFORM, nlgeom=YES, inc=20
*Coupled Temperature-Displacement, steady state
1.0, 1.0, 1.0e-8, 1.0
*Boundary, op=NEW
1, 1, 1, 0.0000000000000000e+00
1, 2, 2, 0.0000000000000000e+00
1, 3, 3, 0.0000000000000000e+00
1, 11, 11, 3.0000000000000000e+02
2, 1, 1, 6.0999999999999999e-01
2, 2, 2, 2.2499999999999999e-02
2, 3, 3, 1.0600000000000001e-01
2, 11, 11, 3.0000000000000000e+02
3, 1, 1, 6.5000000000000002e-01
3, 2, 2, 2.5500000000000000e-01
3, 3, 3, 6.8000000000000005e-02
3, 11, 11, 3.0000000000000000e+02
4, 1, 1, 4.0000000000000008e-02
4, 2, 2, 2.2500000000000001e-01
4, 3, 3, -8.0000000000000002e-03
4, 11, 11, 3.0000000000000000e+02
5, 1, 1, 1.4999999999999999e-02
5, 2, 2, 2.5000000000000001e-02
5, 3, 3, -1.9600000000000001e-01
5, 11, 11, 3.0000000000000000e+02
6, 1, 1, 6.5000000000000002e-01
6, 2, 2, 5.5000000000000007e-02
6, 3, 3, -1.1600000000000002e-01
6, 11, 11, 3.0000000000000000e+02
7, 1, 1, 6.2000000000000000e-01
7, 2, 2, 3.4499999999999997e-01
7, 3, 3, -1.0000000000000002e-01
7, 11, 11, 3.0000000000000000e+02
8, 1, 1, 0.0000000000000000e+00
8, 2, 2, 3.1000000000000000e-01
8, 3, 3, -2.5600000000000001e-01
8, 11, 11, 3.0000000000000000e+02
9, 1, 1, 0.0000000000000000e+00
9, 2, 2, 0.0000000000000000e+00
9, 3, 3, 0.0000000000000000e+00
9, 11, 11, 3.0000000000000000e+02
10, 1, 1, 6.0999999999999999e-01
10, 2, 2, 2.2499999999999999e-02
10, 3, 3, 1.0600000000000001e-01
10, 11, 11, 3.0000000000000000e+02
11, 1, 1, 6.5000000000000002e-01
11, 2, 2, 2.5500000000000000e-01
11, 3, 3, 6.8000000000000005e-02
11, 11, 11, 3.0000000000000000e+02
12, 1, 1, 4.0000000000000008e-02
12, 2, 2, 2.2500000000000001e-01
12, 3, 3, -8.0000000000000002e-03
12, 11, 11, 3.0000000000000000e+02
13, 1, 1, 1.4999999999999999e-02
13, 2, 2, 2.5000000000000001e-02
13, 3, 3, -1.9600000000000001e-01
13, 11, 11, 3.0000000000000000e+02
14, 1, 1, 6.5000000000000002e-01
14, 2, 2, 5.5000000000000007e-02
14, 3, 3, -1.1600000000000002e-01
14, 11, 11, 3.0000000000000000e+02
15, 1, 1, 6.2000000000000000e-01
15, 2, 2, 3.4499999999999997e-01
15, 3, 3, -1.0000000000000002e-01
15, 11, 11, 3.0000000000000000e+02
16, 1, 1, 0.0000000000000000e+00
16, 2, 2, 3.1000000000000000e-01
16, 3, 3, -2.5600000000000001e-01
16, 11, 11, 3.0000000000000000e+02
17, 1, 1, 0.0000000000000000e+00
17, 2, 2, 0.0000000000000000e+00
17, 3, 3, 0.0000000000000000e+00
17, 11, 11, 3.0000000000000000e+02
18, 1, 1, 6.0999999999999999e-01
18, 2, 2, 2.2499999999999999e-02
18, 3, 3, 1.0600000000000001e-01
18, 11, 11, 3.0000000000000000e+02
19, 1, 1, 6.5000000000000002e-01
19, 2, 2, 2.5500000000000000e-01
19, 3, 3, 6.8000000000000005e-02
19, 11, 11, 3.0000000000000000e+02
20, 1, 1, 4.0000000000000008e-02
20, 2, 2, 2.2500000000000001e-01
20, 3, 3, -8.0000000000000002e-03
20, 11, 11, 3.0000000000000000e+02
21, 1, 1, 1.4999999999999999e-02
21, 2, 2, 2.5000000000000001e-02
21, 3, 3, -1.9600000000000001e-01
21, 11, 11, 3.0000000000000000e+02
22, 1, 1, 6.5000000000000002e-01
22, 2, 2, 5.5000000000000007e-02
22, 3, 3, -1.1600000000000002e-01
22, 11, 11, 3.0000000000000000e+02
23, 1, 1, 6.2000000000000000e-01
23, 2, 2, 3.4499999999999997e-01
23, 3, 3, -1.0000000000000002e-01
23, 11, 11, 3.0000000000000000e+02
24, 1, 1, 0.0000000000000000e+00
24, 2, 2, 3.1000000000000000e-01
24, 3, 3, -2.5600000000000001e-01
24, 11, 11, 3.0000000000000000e+02
25, 1, 1, 0.0000000000000000e+00
25, 2, 2, 0.0000000000000000e+00
25, 3, 3, 0.0000000000000000e+00
25, 11, 11, 3.0000000000000000e+02
26, 1, 1, 6.0999999999999999e-01
26, 2, 2, 2.2499999999999999e-02
26, 3, 3, 1.0600000000000001e-01
26, 11, 11, 3.0000000000000000e+02
27, 1, 1, 6.5000000000000002e-01
27, 2, 2, 2.5500000000000000e-01
27, 3, 3, 6.8000000000000005e-02
27, 11, 11, 3.0000000000000000e+02
28, 1, 1, 4.0000000000000008e-02
28, 2, 2, 2.2500000000000001e-01
28, 3, 3, -8.0000000000000002e-03
28, 11, 11, 3.0000000000000000e+02
29, 1, 1, 1.4999999999999999e-02
29, 2, 2, 2.5000000000000001e-02
29, 3, 3, -1.9600000000000001e-01
29, 11, 11, 3.0000000000000000e+02
30, 1, 1, 6.5000000000000002e-01
30, 2, 2, 5.5000000000000007e-02
30, 3, 3, -1.1600000000000002e-01
30, 11, 11, 3.0000000000000000e+02
31, 1, 1, 6.2000000000000000e-01
31, 2, 2, 3.4499999999999997e-01
31, 3, 3, -1.0000000000000002e-01
31, 11, 11, 3.0000000000000000e+02
32, 1, 1, 0.0000000000000000e+00
32, 2, 2, 3.1000000000000000e-01
32, 3, 3, -2.5600000000000001e-01
32, 11, 11, 3.0000000000000000e+02
33, 1, 1, 0.0000000000000000e+00
33, 2, 2, 0.0000000000000000e+00
33, 3, 3, 0.0000000000000000e+00
33, 11, 11, 3.0000000000000000e+02
34, 1, 1, 6.0999999999999999e-01
34, 2, 2, 2.2499999999999999e-02
34, 3, 3, 1.0600000000000001e-01
34, 11, 11, 3.0000000000000000e+02
35, 1, 1, 6.5000000000000002e-01
35, 2, 2, 2.5500000000000000e-01
35, 3, 3, 6.8000000000000005e-02
35, 11, 11, 3.0000000000000000e+02
36, 1, 1, 4.0000000000000008e-02
36, 2, 2, 2.2500000000000001e-01
36, 3, 3, -8.0000000000000002e-03
36, 11, 11, 3.0000000000000000e+02
37, 1, 1, 1.4999999999999999e-02
37, 2, 2, 2.5000000000000001e-02
37, 3, 3, -1.9600000000000001e-01
37, 11, 11, 3.0000000000000000e+02
38, 1, 1, 6.5000000000000002e-01
38, 2, 2, 5.5000000000000007e-02
38, 3, 3, -1.1600000000000002e-01
38, 11, 11, 3.0000000000000000e+02
39, 1, 1, 6.2000000000000000e-01
39, 2, 2, 3.4499999999999997e-01
39, 3, 3, -1.0000000000000002e-01
39, 11, 11, 3.0000000000000000e+02
40, 1, 1, 0.0000000000000000e+00
40, 2, 2, 3.1000000000000000e-01
40, 3, 3, -2.5600000000000001e-01
40, 11, 11, 3.0000000000000000e+02
41, 1, 1, 0.0000000000000000e+00
41, 2, 2, 0.0000000000000000e+00
41, 3, 3, 0.0000000000000000e+00
41, 11, 11, 3.0000000000000000e+02
42, 1, 1, 6.0999999999999999e-01
42, 2, 2, 2.2499999999999999e-02
42, 3, 3, 1.0600000000000001e-01
42, 11, 11, 3.0000000000000000e+02
43, 1, 1, 6.5000000000000002e-01
43, 2, 2, 2.5500000000000000e-01
43, 3, 3, 6.8000000000000005e-02
43, 11, 11, 3.0000000000000000e+02
44, 1, 1, 4.0000000000000008e-02
44, 2, 2, 2.2500000000000001e-01
44, 3, 3, -8.0000000000000002e-03
44, 11, 11, 3.0000000000000000e+02
45, 1, 1, 1.4999999999999999e-02
45, 2, 2, 2.5000000000000001e-02
45, 3, 3, -1.9600000000000001e-01
45, 11, 11, 3.0000000000000000e+02
46, 1, 1, 6.5000000000000002e-01
46, 2, 2, 5.5000000000000007e-02
46, 3, 3, -1.1600000000000002e-01
46, 11, 11, 3.0000000000000000e+02
47, 1, 1, 6.2000000000000000e-01
47, 2, 2, 3.4499999999999997e-01
47, 3, 3, -1.0000000000000002e-01
47, 11, 11, 3.0000000000000000e+02
48, 1, 1, 0.0000000000000000e+00
48, 2, 2, 3.1000000000000000e-01
48, 3, 3, -2.5600000000000001e-01
48, 11, 11, 3.0000000000000000e+02
49, 1, 1, 0.0000000000000000e+00
49, 2, 2, 0.0000000000000000e+00
49, 3, 3, 0.0000000000000000e+00
49, 11, 11, 3.0000000000000000e+02
50, 1, 1, 6.0999999999999999e-01
50, 2, 2, 2.2499999999999999e-02
50, 3, 3, 1.0600000000000001e-01
50, 11, 11, 3.0000000000000000e+02
51, 1, 1, 6.5000000000000002e-01
51, 2, 2, 2.5500000000000000e-01
51, 3, 3, 6.8000000000000005e-02
51, 11, 11, 3.0000000000000000e+02
52, 1, 1, 4.0000000000000008e-02
52, 2, 2, 2.2500000000000001e-01
52, 3, 3, -8.0000000000000002e-03
52, 11, 11, 3.0000000000000000e+02
53, 1, 1, 1.4999999999999999e-02
53, 2, 2, 2.5000000000000001e-02
53, 3, 3, -1.9600000000000001e-01
53, 11, 11, 3.0000000000000000e+02
54, 1, 1, 6.5000000000000002e-01
54, 2, 2, 5.5000000000000007e-02
54, 3, 3, -1.1600000000000002e-01
54, 11, 11, 3.0000000000000000e+02
55, 1, 1, 6.2000000000000000e-01
55, 2, 2, 3.4499999999999997e-01
55, 3, 3, -1.0000000000000002e-01
55, 11, 11, 3.0000000000000000e+02
56, 1, 1, 0.0000000000000000e+00
56, 2, 2, 3.1000000000000000e-01
56, 3, 3, -2.5600000000000001e-01
56, 11, 11, 3.0000000000000000e+02
57, 1, 1, 0.0000000000000000e+00
57, 2, 2, 0.0000000000000000e+00
57, 3, 3, 0.0000000000000000e+00
57, 11, 11, 3.0000000000000000e+02
58, 1, 1, 6.0999999999999999e-01
58, 2, 2, 2.2499999999999999e-02
58, 3, 3, 1.0600000000000001e-01
58, 11, 11, 3.0000000000000000e+02
59, 1, 1, 6.5000000000000002e-01
59, 2, 2, 2.5500000000000000e-01
59, 3, 3, 6.8000000000000005e-02
59, 11, 11, 3.0000000000000000e+02
60, 1, 1, 4.0000000000000008e-02
60, 2, 2, 2.2500000000000001e-01
60, 3, 3, -8.0000000000000002e-03
60, 11, 11, 3.0000000000000000e+02
61, 1, 1, 1.4999999999999999e-02
61, 2, 2, 2.5000000000000001e-02
61, 3, 3, -1.9600000000000001e-01
61, 11, 11, 3.0000000000000000e+02
62, 1, 1, 6.5000000000000002e-01
62, 2, 2, 5.5000000000000007e-02
62, 3, 3, -1.1600000000000002e-01
62, 11, 11, 3.0000000000000000e+02
63, 1, 1, 6.2000000000000000e-01
63, 2, 2, 3.4499999999999997e-01
63, 3, 3, -1.0000000000000002e-01
63, 11, 11, 3.0000000000000000e+02
64, 1, 1, 0.0000000000000000e+00
64, 2, 2, 3.1000000000000000e-01
64, 3, 3, -2.5600000000000001e-01
64, 11, 11, 3.0000000000000000e+02
65, 1, 1, 0.0000000000000000e+00
65, 2, 2, 0.0000000000000000e+00
65, 3, 3, 0.0000000000000000e+00
65, 11, 11, 3.0000000000000000e+02
66, 1, 1, 6.0999999999999999e-01
66, 2, 2, 2.2499999999999999e-02
66, 3, 3, 1.0600000000000001e-01
66, 11, 11, 3.0000000000000000e+02
67, 1, 1, 6.5000000000000002e-01
67, 2, 2, 2.5500000000000000e-01
67, 3, 3, 6.8000000000000005e-02
67, 11, 11, 3.0000000000000000e+02
68, 1, 1, 4.0000000000000008e-02
68, 2, 2, 2.2500000000000001e-01
68, 3, 3, -8.0000000000000002e-03
68, 11, 11, 3.0000000000000000e+02
69, 1, 1, 1.4999999999999999e-02
69, 2, 2, 2.5000000000000001e-02
69, 3, 3, -1.9600000000000001e-01
69, 11, 11, 3.0000000000000000e+02
70, 1, 1, 6.5000000000000002e-01
70, 2, 2, 5.5000000000000007e-02
70, 3, 3, -1.1600000000000002e-01
70, 11, 11, 3.0000000000000000e+02
71, 1, 1, 6.2000000000000000e-01
71, 2, 2, 3.4499999999999997e-01
71, 3, 3, -1.0000000000000002e-01
71, 11, 11, 3.0000000000000000e+02
72, 1, 1, 0.0000000000000000e+00
72, 2, 2, 3.1000000000000000e-01
72, 3, 3, -2.5600000000000001e-01
72, 11, 11, 3.0000000000000000e+02
73, 1, 1, 0.0000000000000000e+00
73, 2, 2, 0.0000000000000000e+00
73, 3, 3, 0.0000000000000000e+00
73, 11, 11, 3.0000000000000000e+02
74, 1, 1, 6.0999999999999999e-01
74, 2, 2, 2.2499999999999999e-02
74, 3, 3, 1.0600000000000001e-01
74, 11, 11, 3.0000000000000000e+02
75, 1, 1, 6.5000000000000002e-01
75, 2, 2, 2.5500000000000000e-01
75, 3, 3, 6.8000000000000005e-02
75, 11, 11, 3.0000000000000000e+02
76, 1, 1, 4.0000000000000008e-02
76, 2, 2, 2.2500000000000001e-01
76, 3, 3, -8.0000000000000002e-03
76, 11, 11, 3.0000000000000000e+02
77, 1, 1, 1.4999999999999999e-02
77, 2, 2, 2.5000000000000001e-02
77, 3, 3, -1.9600000000000001e-01
77, 11, 11, 3.0000000000000000e+02
78, 1, 1, 6.5000000000000002e-01
78, 2, 2, 5.5000000000000007e-02
78, 3, 3, -1.1600000000000002e-01
78, 11, 11, 3.0000000000000000e+02
79, 1, 1, 6.2000000000000000e-01
79, 2, 2, 3.4499999999999997e-01
79, 3, 3, -1.0000000000000002e-01
79, 11, 11, 3.0000000000000000e+02
80, 1, 1, 0.0000000000000000e+00
80, 2, 2, 3.1000000000000000e-01
80, 3, 3, -2.5600000000000001e-01
80, 11, 11, 3.0000000000000000e+02
81, 1, 1, 0.0000000000000000e+00
81, 2, 2, 0.0000000000000000e+00
81, 3, 3, 0.0000000000000000e+00
81, 11, 11, 3.0000000000000000e+02
82, 1, 1, 6.0999999999999999e-01
82, 2, 2, 2.2499999999999999e-02
82, 3, 3, 1.0600000000000001e-01
82, 11, 11, 3.0000000000000000e+02
83, 1, 1, 6.5000000000000002e-01
83, 2, 2, 2.5500000000000000e-01
83, 3, 3, 6.8000000000000005e-02
83, 11, 11, 3.0000000000000000e+02
84, 1, 1, 4.0000000000000008e-02
84, 2, 2, 2.2500000000000001e-01
84, 3, 3, -8.0000000000000002e-03
84, 11, 11, 3.0000000000000000e+02
85, 1, 1, 1.4999999999999999e-02
85, 2, 2, 2.5000000000000001e-02
85, 3, 3, -1.9600000000000001e-01
85, 11, 11, 3.0000000000000000e+02
86, 1, 1, 6.5000000000000002e-01
86, 2, 2, 5.5000000000000007e-02
86, 3, 3, -1.1600000000000002e-01
86, 11, 11, 3.0000000000000000e+02
87, 1, 1, 6.2000000000000000e-01
87, 2, 2, 3.4499999999999997e-01
87, 3, 3, -1.0000000000000002e-01
87, 11, 11, 3.0000000000000000e+02
88, 1, 1, 0.0000000000000000e+00
88, 2, 2, 3.1000000000000000e-01
88, 3, 3, -2.5600000000000001e-01
88, 11, 11, 3.0000000000000000e+02
*Output, field, frequency=1
*Node Output
COORD, NT, RFL, U
*Element Output
IVOL, TEMP
*End Step
*Step, name=CAPACITY, nlgeom=YES, inc=4
*Coupled Temperature-Displacement
1.0, 1.0, 1.0, 1.0
*Boundary, op=NEW
1, 1, 1, 0.0000000000000000e+00
1, 2, 2, 0.0000000000000000e+00
1, 3, 3, 0.0000000000000000e+00
1, 11, 11, 3.0100000000000000e+02
2, 1, 1, 6.0999999999999999e-01
2, 2, 2, 2.2499999999999999e-02
2, 3, 3, 1.0600000000000001e-01
2, 11, 11, 3.0000000000000000e+02
3, 1, 1, 6.5000000000000002e-01
3, 2, 2, 2.5500000000000000e-01
3, 3, 3, 6.8000000000000005e-02
3, 11, 11, 3.0000000000000000e+02
4, 1, 1, 4.0000000000000008e-02
4, 2, 2, 2.2500000000000001e-01
4, 3, 3, -8.0000000000000002e-03
4, 11, 11, 3.0000000000000000e+02
5, 1, 1, 1.4999999999999999e-02
5, 2, 2, 2.5000000000000001e-02
5, 3, 3, -1.9600000000000001e-01
5, 11, 11, 3.0000000000000000e+02
6, 1, 1, 6.5000000000000002e-01
6, 2, 2, 5.5000000000000007e-02
6, 3, 3, -1.1600000000000002e-01
6, 11, 11, 3.0000000000000000e+02
7, 1, 1, 6.2000000000000000e-01
7, 2, 2, 3.4499999999999997e-01
7, 3, 3, -1.0000000000000002e-01
7, 11, 11, 3.0000000000000000e+02
8, 1, 1, 0.0000000000000000e+00
8, 2, 2, 3.1000000000000000e-01
8, 3, 3, -2.5600000000000001e-01
8, 11, 11, 3.0000000000000000e+02
9, 1, 1, 0.0000000000000000e+00
9, 2, 2, 0.0000000000000000e+00
9, 3, 3, 0.0000000000000000e+00
9, 11, 11, 3.0000000000000000e+02
10, 1, 1, 6.0999999999999999e-01
10, 2, 2, 2.2499999999999999e-02
10, 3, 3, 1.0600000000000001e-01
10, 11, 11, 3.0100000000000000e+02
11, 1, 1, 6.5000000000000002e-01
11, 2, 2, 2.5500000000000000e-01
11, 3, 3, 6.8000000000000005e-02
11, 11, 11, 3.0000000000000000e+02
12, 1, 1, 4.0000000000000008e-02
12, 2, 2, 2.2500000000000001e-01
12, 3, 3, -8.0000000000000002e-03
12, 11, 11, 3.0000000000000000e+02
13, 1, 1, 1.4999999999999999e-02
13, 2, 2, 2.5000000000000001e-02
13, 3, 3, -1.9600000000000001e-01
13, 11, 11, 3.0000000000000000e+02
14, 1, 1, 6.5000000000000002e-01
14, 2, 2, 5.5000000000000007e-02
14, 3, 3, -1.1600000000000002e-01
14, 11, 11, 3.0000000000000000e+02
15, 1, 1, 6.2000000000000000e-01
15, 2, 2, 3.4499999999999997e-01
15, 3, 3, -1.0000000000000002e-01
15, 11, 11, 3.0000000000000000e+02
16, 1, 1, 0.0000000000000000e+00
16, 2, 2, 3.1000000000000000e-01
16, 3, 3, -2.5600000000000001e-01
16, 11, 11, 3.0000000000000000e+02
17, 1, 1, 0.0000000000000000e+00
17, 2, 2, 0.0000000000000000e+00
17, 3, 3, 0.0000000000000000e+00
17, 11, 11, 3.0000000000000000e+02
18, 1, 1, 6.0999999999999999e-01
18, 2, 2, 2.2499999999999999e-02
18, 3, 3, 1.0600000000000001e-01
18, 11, 11, 3.0000000000000000e+02
19, 1, 1, 6.5000000000000002e-01
19, 2, 2, 2.5500000000000000e-01
19, 3, 3, 6.8000000000000005e-02
19, 11, 11, 3.0100000000000000e+02
20, 1, 1, 4.0000000000000008e-02
20, 2, 2, 2.2500000000000001e-01
20, 3, 3, -8.0000000000000002e-03
20, 11, 11, 3.0000000000000000e+02
21, 1, 1, 1.4999999999999999e-02
21, 2, 2, 2.5000000000000001e-02
21, 3, 3, -1.9600000000000001e-01
21, 11, 11, 3.0000000000000000e+02
22, 1, 1, 6.5000000000000002e-01
22, 2, 2, 5.5000000000000007e-02
22, 3, 3, -1.1600000000000002e-01
22, 11, 11, 3.0000000000000000e+02
23, 1, 1, 6.2000000000000000e-01
23, 2, 2, 3.4499999999999997e-01
23, 3, 3, -1.0000000000000002e-01
23, 11, 11, 3.0000000000000000e+02
24, 1, 1, 0.0000000000000000e+00
24, 2, 2, 3.1000000000000000e-01
24, 3, 3, -2.5600000000000001e-01
24, 11, 11, 3.0000000000000000e+02
25, 1, 1, 0.0000000000000000e+00
25, 2, 2, 0.0000000000000000e+00
25, 3, 3, 0.0000000000000000e+00
25, 11, 11, 3.0000000000000000e+02
26, 1, 1, 6.0999999999999999e-01
26, 2, 2, 2.2499999999999999e-02
26, 3, 3, 1.0600000000000001e-01
26, 11, 11, 3.0000000000000000e+02
27, 1, 1, 6.5000000000000002e-01
27, 2, 2, 2.5500000000000000e-01
27, 3, 3, 6.8000000000000005e-02
27, 11, 11, 3.0000000000000000e+02
28, 1, 1, 4.0000000000000008e-02
28, 2, 2, 2.2500000000000001e-01
28, 3, 3, -8.0000000000000002e-03
28, 11, 11, 3.0100000000000000e+02
29, 1, 1, 1.4999999999999999e-02
29, 2, 2, 2.5000000000000001e-02
29, 3, 3, -1.9600000000000001e-01
29, 11, 11, 3.0000000000000000e+02
30, 1, 1, 6.5000000000000002e-01
30, 2, 2, 5.5000000000000007e-02
30, 3, 3, -1.1600000000000002e-01
30, 11, 11, 3.0000000000000000e+02
31, 1, 1, 6.2000000000000000e-01
31, 2, 2, 3.4499999999999997e-01
31, 3, 3, -1.0000000000000002e-01
31, 11, 11, 3.0000000000000000e+02
32, 1, 1, 0.0000000000000000e+00
32, 2, 2, 3.1000000000000000e-01
32, 3, 3, -2.5600000000000001e-01
32, 11, 11, 3.0000000000000000e+02
33, 1, 1, 0.0000000000000000e+00
33, 2, 2, 0.0000000000000000e+00
33, 3, 3, 0.0000000000000000e+00
33, 11, 11, 3.0000000000000000e+02
34, 1, 1, 6.0999999999999999e-01
34, 2, 2, 2.2499999999999999e-02
34, 3, 3, 1.0600000000000001e-01
34, 11, 11, 3.0000000000000000e+02
35, 1, 1, 6.5000000000000002e-01
35, 2, 2, 2.5500000000000000e-01
35, 3, 3, 6.8000000000000005e-02
35, 11, 11, 3.0000000000000000e+02
36, 1, 1, 4.0000000000000008e-02
36, 2, 2, 2.2500000000000001e-01
36, 3, 3, -8.0000000000000002e-03
36, 11, 11, 3.0000000000000000e+02
37, 1, 1, 1.4999999999999999e-02
37, 2, 2, 2.5000000000000001e-02
37, 3, 3, -1.9600000000000001e-01
37, 11, 11, 3.0100000000000000e+02
38, 1, 1, 6.5000000000000002e-01
38, 2, 2, 5.5000000000000007e-02
38, 3, 3, -1.1600000000000002e-01
38, 11, 11, 3.0000000000000000e+02
39, 1, 1, 6.2000000000000000e-01
39, 2, 2, 3.4499999999999997e-01
39, 3, 3, -1.0000000000000002e-01
39, 11, 11, 3.0000000000000000e+02
40, 1, 1, 0.0000000000000000e+00
40, 2, 2, 3.1000000000000000e-01
40, 3, 3, -2.5600000000000001e-01
40, 11, 11, 3.0000000000000000e+02
41, 1, 1, 0.0000000000000000e+00
41, 2, 2, 0.0000000000000000e+00
41, 3, 3, 0.0000000000000000e+00
41, 11, 11, 3.0000000000000000e+02
42, 1, 1, 6.0999999999999999e-01
42, 2, 2, 2.2499999999999999e-02
42, 3, 3, 1.0600000000000001e-01
42, 11, 11, 3.0000000000000000e+02
43, 1, 1, 6.5000000000000002e-01
43, 2, 2, 2.5500000000000000e-01
43, 3, 3, 6.8000000000000005e-02
43, 11, 11, 3.0000000000000000e+02
44, 1, 1, 4.0000000000000008e-02
44, 2, 2, 2.2500000000000001e-01
44, 3, 3, -8.0000000000000002e-03
44, 11, 11, 3.0000000000000000e+02
45, 1, 1, 1.4999999999999999e-02
45, 2, 2, 2.5000000000000001e-02
45, 3, 3, -1.9600000000000001e-01
45, 11, 11, 3.0000000000000000e+02
46, 1, 1, 6.5000000000000002e-01
46, 2, 2, 5.5000000000000007e-02
46, 3, 3, -1.1600000000000002e-01
46, 11, 11, 3.0100000000000000e+02
47, 1, 1, 6.2000000000000000e-01
47, 2, 2, 3.4499999999999997e-01
47, 3, 3, -1.0000000000000002e-01
47, 11, 11, 3.0000000000000000e+02
48, 1, 1, 0.0000000000000000e+00
48, 2, 2, 3.1000000000000000e-01
48, 3, 3, -2.5600000000000001e-01
48, 11, 11, 3.0000000000000000e+02
49, 1, 1, 0.0000000000000000e+00
49, 2, 2, 0.0000000000000000e+00
49, 3, 3, 0.0000000000000000e+00
49, 11, 11, 3.0000000000000000e+02
50, 1, 1, 6.0999999999999999e-01
50, 2, 2, 2.2499999999999999e-02
50, 3, 3, 1.0600000000000001e-01
50, 11, 11, 3.0000000000000000e+02
51, 1, 1, 6.5000000000000002e-01
51, 2, 2, 2.5500000000000000e-01
51, 3, 3, 6.8000000000000005e-02
51, 11, 11, 3.0000000000000000e+02
52, 1, 1, 4.0000000000000008e-02
52, 2, 2, 2.2500000000000001e-01
52, 3, 3, -8.0000000000000002e-03
52, 11, 11, 3.0000000000000000e+02
53, 1, 1, 1.4999999999999999e-02
53, 2, 2, 2.5000000000000001e-02
53, 3, 3, -1.9600000000000001e-01
53, 11, 11, 3.0000000000000000e+02
54, 1, 1, 6.5000000000000002e-01
54, 2, 2, 5.5000000000000007e-02
54, 3, 3, -1.1600000000000002e-01
54, 11, 11, 3.0000000000000000e+02
55, 1, 1, 6.2000000000000000e-01
55, 2, 2, 3.4499999999999997e-01
55, 3, 3, -1.0000000000000002e-01
55, 11, 11, 3.0100000000000000e+02
56, 1, 1, 0.0000000000000000e+00
56, 2, 2, 3.1000000000000000e-01
56, 3, 3, -2.5600000000000001e-01
56, 11, 11, 3.0000000000000000e+02
57, 1, 1, 0.0000000000000000e+00
57, 2, 2, 0.0000000000000000e+00
57, 3, 3, 0.0000000000000000e+00
57, 11, 11, 3.0000000000000000e+02
58, 1, 1, 6.0999999999999999e-01
58, 2, 2, 2.2499999999999999e-02
58, 3, 3, 1.0600000000000001e-01
58, 11, 11, 3.0000000000000000e+02
59, 1, 1, 6.5000000000000002e-01
59, 2, 2, 2.5500000000000000e-01
59, 3, 3, 6.8000000000000005e-02
59, 11, 11, 3.0000000000000000e+02
60, 1, 1, 4.0000000000000008e-02
60, 2, 2, 2.2500000000000001e-01
60, 3, 3, -8.0000000000000002e-03
60, 11, 11, 3.0000000000000000e+02
61, 1, 1, 1.4999999999999999e-02
61, 2, 2, 2.5000000000000001e-02
61, 3, 3, -1.9600000000000001e-01
61, 11, 11, 3.0000000000000000e+02
62, 1, 1, 6.5000000000000002e-01
62, 2, 2, 5.5000000000000007e-02
62, 3, 3, -1.1600000000000002e-01
62, 11, 11, 3.0000000000000000e+02
63, 1, 1, 6.2000000000000000e-01
63, 2, 2, 3.4499999999999997e-01
63, 3, 3, -1.0000000000000002e-01
63, 11, 11, 3.0000000000000000e+02
64, 1, 1, 0.0000000000000000e+00
64, 2, 2, 3.1000000000000000e-01
64, 3, 3, -2.5600000000000001e-01
64, 11, 11, 3.0100000000000000e+02
65, 1, 1, 0.0000000000000000e+00
65, 2, 2, 0.0000000000000000e+00
65, 3, 3, 0.0000000000000000e+00
65, 11, 11, 3.0000000000000000e+02
66, 1, 1, 6.0999999999999999e-01
66, 2, 2, 2.2499999999999999e-02
66, 3, 3, 1.0600000000000001e-01
66, 11, 11, 3.0000000000000000e+02
67, 1, 1, 6.5000000000000002e-01
67, 2, 2, 2.5500000000000000e-01
67, 3, 3, 6.8000000000000005e-02
67, 11, 11, 3.0000000000000000e+02
68, 1, 1, 4.0000000000000008e-02
68, 2, 2, 2.2500000000000001e-01
68, 3, 3, -8.0000000000000002e-03
68, 11, 11, 3.0000000000000000e+02
69, 1, 1, 1.4999999999999999e-02
69, 2, 2, 2.5000000000000001e-02
69, 3, 3, -1.9600000000000001e-01
69, 11, 11, 3.0000000000000000e+02
70, 1, 1, 6.5000000000000002e-01
70, 2, 2, 5.5000000000000007e-02
70, 3, 3, -1.1600000000000002e-01
70, 11, 11, 3.0000000000000000e+02
71, 1, 1, 6.2000000000000000e-01
71, 2, 2, 3.4499999999999997e-01
71, 3, 3, -1.0000000000000002e-01
71, 11, 11, 3.0000000000000000e+02
72, 1, 1, 0.0000000000000000e+00
72, 2, 2, 3.1000000000000000e-01
72, 3, 3, -2.5600000000000001e-01
72, 11, 11, 3.0000000000000000e+02
73, 1, 1, 0.0000000000000000e+00
73, 2, 2, 0.0000000000000000e+00
73, 3, 3, 0.0000000000000000e+00
73, 11, 11, 3.0000000000000000e+02
74, 1, 1, 6.0999999999999999e-01
74, 2, 2, 2.2499999999999999e-02
74, 3, 3, 1.0600000000000001e-01
74, 11, 11, 3.0000000000000000e+02
75, 1, 1, 6.5000000000000002e-01
75, 2, 2, 2.5500000000000000e-01
75, 3, 3, 6.8000000000000005e-02
75, 11, 11, 3.0000000000000000e+02
76, 1, 1, 4.0000000000000008e-02
76, 2, 2, 2.2500000000000001e-01
76, 3, 3, -8.0000000000000002e-03
76, 11, 11, 3.0000000000000000e+02
77, 1, 1, 1.4999999999999999e-02
77, 2, 2, 2.5000000000000001e-02
77, 3, 3, -1.9600000000000001e-01
77, 11, 11, 3.0000000000000000e+02
78, 1, 1, 6.5000000000000002e-01
78, 2, 2, 5.5000000000000007e-02
78, 3, 3, -1.1600000000000002e-01
78, 11, 11, 3.0000000000000000e+02
79, 1, 1, 6.2000000000000000e-01
79, 2, 2, 3.4499999999999997e-01
79, 3, 3, -1.0000000000000002e-01
79, 11, 11, 3.0000000000000000e+02
80, 1, 1, 0.0000000000000000e+00
80, 2, 2, 3.1000000000000000e-01
80, 3, 3, -2.5600000000000001e-01
80, 11, 11, 3.0000000000000000e+02
81, 1, 1, 0.0000000000000000e+00
81, 2, 2, 0.0000000000000000e+00
81, 3, 3, 0.0000000000000000e+00
81, 11, 11, 3.0000000000000000e+02
82, 1, 1, 6.0999999999999999e-01
82, 2, 2, 2.2499999999999999e-02
82, 3, 3, 1.0600000000000001e-01
82, 11, 11, 3.0000000000000000e+02
83, 1, 1, 6.5000000000000002e-01
83, 2, 2, 2.5500000000000000e-01
83, 3, 3, 6.8000000000000005e-02
83, 11, 11, 3.0000000000000000e+02
84, 1, 1, 4.0000000000000008e-02
84, 2, 2, 2.2500000000000001e-01
84, 3, 3, -8.0000000000000002e-03
84, 11, 11, 3.0000000000000000e+02
85, 1, 1, 1.4999999999999999e-02
85, 2, 2, 2.5000000000000001e-02
85, 3, 3, -1.9600000000000001e-01
85, 11, 11, 3.0000000000000000e+02
86, 1, 1, 6.5000000000000002e-01
86, 2, 2, 5.5000000000000007e-02
86, 3, 3, -1.1600000000000002e-01
86, 11, 11, 3.0000000000000000e+02
87, 1, 1, 6.2000000000000000e-01
87, 2, 2, 3.4499999999999997e-01
87, 3, 3, -1.0000000000000002e-01
87, 11, 11, 3.0000000000000000e+02
88, 1, 1, 0.0000000000000000e+00
88, 2, 2, 3.1000000000000000e-01
88, 3, 3, -2.5600000000000001e-01
88, 11, 11, 3.0000000000000000e+02
*Output, field, frequency=1
*Node Output
COORD, NT, RFL, U
*Element Output
IVOL, TEMP
*End Step
*Step, name=BODY, nlgeom=YES, inc=20
*Coupled Temperature-Displacement, steady state
1.0, 1.0, 1.0e-8, 1.0
*Boundary, op=NEW
1, 1, 1, 0.0000000000000000e+00
1, 2, 2, 0.0000000000000000e+00
1, 3, 3, 0.0000000000000000e+00
1, 11, 11, 3.0000000000000000e+02
2, 1, 1, 6.0999999999999999e-01
2, 2, 2, 2.2499999999999999e-02
2, 3, 3, 1.0600000000000001e-01
2, 11, 11, 3.0000000000000000e+02
3, 1, 1, 6.5000000000000002e-01
3, 2, 2, 2.5500000000000000e-01
3, 3, 3, 6.8000000000000005e-02
3, 11, 11, 3.0000000000000000e+02
4, 1, 1, 4.0000000000000008e-02
4, 2, 2, 2.2500000000000001e-01
4, 3, 3, -8.0000000000000002e-03
4, 11, 11, 3.0000000000000000e+02
5, 1, 1, 1.4999999999999999e-02
5, 2, 2, 2.5000000000000001e-02
5, 3, 3, -1.9600000000000001e-01
5, 11, 11, 3.0000000000000000e+02
6, 1, 1, 6.5000000000000002e-01
6, 2, 2, 5.5000000000000007e-02
6, 3, 3, -1.1600000000000002e-01
6, 11, 11, 3.0000000000000000e+02
7, 1, 1, 6.2000000000000000e-01
7, 2, 2, 3.4499999999999997e-01
7, 3, 3, -1.0000000000000002e-01
7, 11, 11, 3.0000000000000000e+02
8, 1, 1, 0.0000000000000000e+00
8, 2, 2, 3.1000000000000000e-01
8, 3, 3, -2.5600000000000001e-01
8, 11, 11, 3.0000000000000000e+02
9, 1, 1, 0.0000000000000000e+00
9, 2, 2, 0.0000000000000000e+00
9, 3, 3, 0.0000000000000000e+00
9, 11, 11, 3.0000000000000000e+02
10, 1, 1, 6.0999999999999999e-01
10, 2, 2, 2.2499999999999999e-02
10, 3, 3, 1.0600000000000001e-01
10, 11, 11, 3.0000000000000000e+02
11, 1, 1, 6.5000000000000002e-01
11, 2, 2, 2.5500000000000000e-01
11, 3, 3, 6.8000000000000005e-02
11, 11, 11, 3.0000000000000000e+02
12, 1, 1, 4.0000000000000008e-02
12, 2, 2, 2.2500000000000001e-01
12, 3, 3, -8.0000000000000002e-03
12, 11, 11, 3.0000000000000000e+02
13, 1, 1, 1.4999999999999999e-02
13, 2, 2, 2.5000000000000001e-02
13, 3, 3, -1.9600000000000001e-01
13, 11, 11, 3.0000000000000000e+02
14, 1, 1, 6.5000000000000002e-01
14, 2, 2, 5.5000000000000007e-02
14, 3, 3, -1.1600000000000002e-01
14, 11, 11, 3.0000000000000000e+02
15, 1, 1, 6.2000000000000000e-01
15, 2, 2, 3.4499999999999997e-01
15, 3, 3, -1.0000000000000002e-01
15, 11, 11, 3.0000000000000000e+02
16, 1, 1, 0.0000000000000000e+00
16, 2, 2, 3.1000000000000000e-01
16, 3, 3, -2.5600000000000001e-01
16, 11, 11, 3.0000000000000000e+02
17, 1, 1, 0.0000000000000000e+00
17, 2, 2, 0.0000000000000000e+00
17, 3, 3, 0.0000000000000000e+00
17, 11, 11, 3.0000000000000000e+02
18, 1, 1, 6.0999999999999999e-01
18, 2, 2, 2.2499999999999999e-02
18, 3, 3, 1.0600000000000001e-01
18, 11, 11, 3.0000000000000000e+02
19, 1, 1, 6.5000000000000002e-01
19, 2, 2, 2.5500000000000000e-01
19, 3, 3, 6.8000000000000005e-02
19, 11, 11, 3.0000000000000000e+02
20, 1, 1, 4.0000000000000008e-02
20, 2, 2, 2.2500000000000001e-01
20, 3, 3, -8.0000000000000002e-03
20, 11, 11, 3.0000000000000000e+02
21, 1, 1, 1.4999999999999999e-02
21, 2, 2, 2.5000000000000001e-02
21, 3, 3, -1.9600000000000001e-01
21, 11, 11, 3.0000000000000000e+02
22, 1, 1, 6.5000000000000002e-01
22, 2, 2, 5.5000000000000007e-02
22, 3, 3, -1.1600000000000002e-01
22, 11, 11, 3.0000000000000000e+02
23, 1, 1, 6.2000000000000000e-01
23, 2, 2, 3.4499999999999997e-01
23, 3, 3, -1.0000000000000002e-01
23, 11, 11, 3.0000000000000000e+02
24, 1, 1, 0.0000000000000000e+00
24, 2, 2, 3.1000000000000000e-01
24, 3, 3, -2.5600000000000001e-01
24, 11, 11, 3.0000000000000000e+02
25, 1, 1, 0.0000000000000000e+00
25, 2, 2, 0.0000000000000000e+00
25, 3, 3, 0.0000000000000000e+00
25, 11, 11, 3.0000000000000000e+02
26, 1, 1, 6.0999999999999999e-01
26, 2, 2, 2.2499999999999999e-02
26, 3, 3, 1.0600000000000001e-01
26, 11, 11, 3.0000000000000000e+02
27, 1, 1, 6.5000000000000002e-01
27, 2, 2, 2.5500000000000000e-01
27, 3, 3, 6.8000000000000005e-02
27, 11, 11, 3.0000000000000000e+02
28, 1, 1, 4.0000000000000008e-02
28, 2, 2, 2.2500000000000001e-01
28, 3, 3, -8.0000000000000002e-03
28, 11, 11, 3.0000000000000000e+02
29, 1, 1, 1.4999999999999999e-02
29, 2, 2, 2.5000000000000001e-02
29, 3, 3, -1.9600000000000001e-01
29, 11, 11, 3.0000000000000000e+02
30, 1, 1, 6.5000000000000002e-01
30, 2, 2, 5.5000000000000007e-02
30, 3, 3, -1.1600000000000002e-01
30, 11, 11, 3.0000000000000000e+02
31, 1, 1, 6.2000000000000000e-01
31, 2, 2, 3.4499999999999997e-01
31, 3, 3, -1.0000000000000002e-01
31, 11, 11, 3.0000000000000000e+02
32, 1, 1, 0.0000000000000000e+00
32, 2, 2, 3.1000000000000000e-01
32, 3, 3, -2.5600000000000001e-01
32, 11, 11, 3.0000000000000000e+02
33, 1, 1, 0.0000000000000000e+00
33, 2, 2, 0.0000000000000000e+00
33, 3, 3, 0.0000000000000000e+00
33, 11, 11, 3.0000000000000000e+02
34, 1, 1, 6.0999999999999999e-01
34, 2, 2, 2.2499999999999999e-02
34, 3, 3, 1.0600000000000001e-01
34, 11, 11, 3.0000000000000000e+02
35, 1, 1, 6.5000000000000002e-01
35, 2, 2, 2.5500000000000000e-01
35, 3, 3, 6.8000000000000005e-02
35, 11, 11, 3.0000000000000000e+02
36, 1, 1, 4.0000000000000008e-02
36, 2, 2, 2.2500000000000001e-01
36, 3, 3, -8.0000000000000002e-03
36, 11, 11, 3.0000000000000000e+02
37, 1, 1, 1.4999999999999999e-02
37, 2, 2, 2.5000000000000001e-02
37, 3, 3, -1.9600000000000001e-01
37, 11, 11, 3.0000000000000000e+02
38, 1, 1, 6.5000000000000002e-01
38, 2, 2, 5.5000000000000007e-02
38, 3, 3, -1.1600000000000002e-01
38, 11, 11, 3.0000000000000000e+02
39, 1, 1, 6.2000000000000000e-01
39, 2, 2, 3.4499999999999997e-01
39, 3, 3, -1.0000000000000002e-01
39, 11, 11, 3.0000000000000000e+02
40, 1, 1, 0.0000000000000000e+00
40, 2, 2, 3.1000000000000000e-01
40, 3, 3, -2.5600000000000001e-01
40, 11, 11, 3.0000000000000000e+02
41, 1, 1, 0.0000000000000000e+00
41, 2, 2, 0.0000000000000000e+00
41, 3, 3, 0.0000000000000000e+00
41, 11, 11, 3.0000000000000000e+02
42, 1, 1, 6.0999999999999999e-01
42, 2, 2, 2.2499999999999999e-02
42, 3, 3, 1.0600000000000001e-01
42, 11, 11, 3.0000000000000000e+02
43, 1, 1, 6.5000000000000002e-01
43, 2, 2, 2.5500000000000000e-01
43, 3, 3, 6.8000000000000005e-02
43, 11, 11, 3.0000000000000000e+02
44, 1, 1, 4.0000000000000008e-02
44, 2, 2, 2.2500000000000001e-01
44, 3, 3, -8.0000000000000002e-03
44, 11, 11, 3.0000000000000000e+02
45, 1, 1, 1.4999999999999999e-02
45, 2, 2, 2.5000000000000001e-02
45, 3, 3, -1.9600000000000001e-01
45, 11, 11, 3.0000000000000000e+02
46, 1, 1, 6.5000000000000002e-01
46, 2, 2, 5.5000000000000007e-02
46, 3, 3, -1.1600000000000002e-01
46, 11, 11, 3.0000000000000000e+02
47, 1, 1, 6.2000000000000000e-01
47, 2, 2, 3.4499999999999997e-01
47, 3, 3, -1.0000000000000002e-01
47, 11, 11, 3.0000000000000000e+02
48, 1, 1, 0.0000000000000000e+00
48, 2, 2, 3.1000000000000000e-01
48, 3, 3, -2.5600000000000001e-01
48, 11, 11, 3.0000000000000000e+02
49, 1, 1, 0.0000000000000000e+00
49, 2, 2, 0.0000000000000000e+00
49, 3, 3, 0.0000000000000000e+00
49, 11, 11, 3.0000000000000000e+02
50, 1, 1, 6.0999999999999999e-01
50, 2, 2, 2.2499999999999999e-02
50, 3, 3, 1.0600000000000001e-01
50, 11, 11, 3.0000000000000000e+02
51, 1, 1, 6.5000000000000002e-01
51, 2, 2, 2.5500000000000000e-01
51, 3, 3, 6.8000000000000005e-02
51, 11, 11, 3.0000000000000000e+02
52, 1, 1, 4.0000000000000008e-02
52, 2, 2, 2.2500000000000001e-01
52, 3, 3, -8.0000000000000002e-03
52, 11, 11, 3.0000000000000000e+02
53, 1, 1, 1.4999999999999999e-02
53, 2, 2, 2.5000000000000001e-02
53, 3, 3, -1.9600000000000001e-01
53, 11, 11, 3.0000000000000000e+02
54, 1, 1, 6.5000000000000002e-01
54, 2, 2, 5.5000000000000007e-02
54, 3, 3, -1.1600000000000002e-01
54, 11, 11, 3.0000000000000000e+02
55, 1, 1, 6.2000000000000000e-01
55, 2, 2, 3.4499999999999997e-01
55, 3, 3, -1.0000000000000002e-01
55, 11, 11, 3.0000000000000000e+02
56, 1, 1, 0.0000000000000000e+00
56, 2, 2, 3.1000000000000000e-01
56, 3, 3, -2.5600000000000001e-01
56, 11, 11, 3.0000000000000000e+02
57, 1, 1, 0.0000000000000000e+00
57, 2, 2, 0.0000000000000000e+00
57, 3, 3, 0.0000000000000000e+00
57, 11, 11, 3.0000000000000000e+02
58, 1, 1, 6.0999999999999999e-01
58, 2, 2, 2.2499999999999999e-02
58, 3, 3, 1.0600000000000001e-01
58, 11, 11, 3.0000000000000000e+02
59, 1, 1, 6.5000000000000002e-01
59, 2, 2, 2.5500000000000000e-01
59, 3, 3, 6.8000000000000005e-02
59, 11, 11, 3.0000000000000000e+02
60, 1, 1, 4.0000000000000008e-02
60, 2, 2, 2.2500000000000001e-01
60, 3, 3, -8.0000000000000002e-03
60, 11, 11, 3.0000000000000000e+02
61, 1, 1, 1.4999999999999999e-02
61, 2, 2, 2.5000000000000001e-02
61, 3, 3, -1.9600000000000001e-01
61, 11, 11, 3.0000000000000000e+02
62, 1, 1, 6.5000000000000002e-01
62, 2, 2, 5.5000000000000007e-02
62, 3, 3, -1.1600000000000002e-01
62, 11, 11, 3.0000000000000000e+02
63, 1, 1, 6.2000000000000000e-01
63, 2, 2, 3.4499999999999997e-01
63, 3, 3, -1.0000000000000002e-01
63, 11, 11, 3.0000000000000000e+02
64, 1, 1, 0.0000000000000000e+00
64, 2, 2, 3.1000000000000000e-01
64, 3, 3, -2.5600000000000001e-01
64, 11, 11, 3.0000000000000000e+02
65, 1, 1, 0.0000000000000000e+00
65, 2, 2, 0.0000000000000000e+00
65, 3, 3, 0.0000000000000000e+00
65, 11, 11, 3.0000000000000000e+02
66, 1, 1, 6.0999999999999999e-01
66, 2, 2, 2.2499999999999999e-02
66, 3, 3, 1.0600000000000001e-01
66, 11, 11, 3.0000000000000000e+02
67, 1, 1, 6.5000000000000002e-01
67, 2, 2, 2.5500000000000000e-01
67, 3, 3, 6.8000000000000005e-02
67, 11, 11, 3.0000000000000000e+02
68, 1, 1, 4.0000000000000008e-02
68, 2, 2, 2.2500000000000001e-01
68, 3, 3, -8.0000000000000002e-03
68, 11, 11, 3.0000000000000000e+02
69, 1, 1, 1.4999999999999999e-02
69, 2, 2, 2.5000000000000001e-02
69, 3, 3, -1.9600000000000001e-01
69, 11, 11, 3.0000000000000000e+02
70, 1, 1, 6.5000000000000002e-01
70, 2, 2, 5.5000000000000007e-02
70, 3, 3, -1.1600000000000002e-01
70, 11, 11, 3.0000000000000000e+02
71, 1, 1, 6.2000000000000000e-01
71, 2, 2, 3.4499999999999997e-01
71, 3, 3, -1.0000000000000002e-01
71, 11, 11, 3.0000000000000000e+02
72, 1, 1, 0.0000000000000000e+00
72, 2, 2, 3.1000000000000000e-01
72, 3, 3, -2.5600000000000001e-01
72, 11, 11, 3.0000000000000000e+02
73, 1, 1, 0.0000000000000000e+00
73, 2, 2, 0.0000000000000000e+00
73, 3, 3, 0.0000000000000000e+00
73, 11, 11, 3.0000000000000000e+02
74, 1, 1, 6.0999999999999999e-01
74, 2, 2, 2.2499999999999999e-02
74, 3, 3, 1.0600000000000001e-01
74, 11, 11, 3.0000000000000000e+02
75, 1, 1, 6.5000000000000002e-01
75, 2, 2, 2.5500000000000000e-01
75, 3, 3, 6.8000000000000005e-02
75, 11, 11, 3.0000000000000000e+02
76, 1, 1, 4.0000000000000008e-02
76, 2, 2, 2.2500000000000001e-01
76, 3, 3, -8.0000000000000002e-03
76, 11, 11, 3.0000000000000000e+02
77, 1, 1, 1.4999999999999999e-02
77, 2, 2, 2.5000000000000001e-02
77, 3, 3, -1.9600000000000001e-01
77, 11, 11, 3.0000000000000000e+02
78, 1, 1, 6.5000000000000002e-01
78, 2, 2, 5.5000000000000007e-02
78, 3, 3, -1.1600000000000002e-01
78, 11, 11, 3.0000000000000000e+02
79, 1, 1, 6.2000000000000000e-01
79, 2, 2, 3.4499999999999997e-01
79, 3, 3, -1.0000000000000002e-01
79, 11, 11, 3.0000000000000000e+02
80, 1, 1, 0.0000000000000000e+00
80, 2, 2, 3.1000000000000000e-01
80, 3, 3, -2.5600000000000001e-01
80, 11, 11, 3.0000000000000000e+02
81, 1, 1, 0.0000000000000000e+00
81, 2, 2, 0.0000000000000000e+00
81, 3, 3, 0.0000000000000000e+00
81, 11, 11, 3.0000000000000000e+02
82, 1, 1, 6.0999999999999999e-01
82, 2, 2, 2.2499999999999999e-02
82, 3, 3, 1.0600000000000001e-01
82, 11, 11, 3.0000000000000000e+02
83, 1, 1, 6.5000000000000002e-01
83, 2, 2, 2.5500000000000000e-01
83, 3, 3, 6.8000000000000005e-02
83, 11, 11, 3.0000000000000000e+02
84, 1, 1, 4.0000000000000008e-02
84, 2, 2, 2.2500000000000001e-01
84, 3, 3, -8.0000000000000002e-03
84, 11, 11, 3.0000000000000000e+02
85, 1, 1, 1.4999999999999999e-02
85, 2, 2, 2.5000000000000001e-02
85, 3, 3, -1.9600000000000001e-01
85, 11, 11, 3.0000000000000000e+02
86, 1, 1, 6.5000000000000002e-01
86, 2, 2, 5.5000000000000007e-02
86, 3, 3, -1.1600000000000002e-01
86, 11, 11, 3.0000000000000000e+02
87, 1, 1, 6.2000000000000000e-01
87, 2, 2, 3.4499999999999997e-01
87, 3, 3, -1.0000000000000002e-01
87, 11, 11, 3.0000000000000000e+02
88, 1, 1, 0.0000000000000000e+00
88, 2, 2, 3.1000000000000000e-01
88, 3, 3, -2.5600000000000001e-01
88, 11, 11, 3.0000000000000000e+02
*Dflux, op=NEW
9, BF, 8.0000000000000000e1
*Output, field, frequency=1
*Node Output
COORD, NT, RFL, U
*Element Output
IVOL, TEMP
*End Step
*Step, name=SURFACE, nlgeom=YES, inc=20
*Coupled Temperature-Displacement, steady state
1.0, 1.0, 1.0e-8, 1.0
*Boundary, op=NEW
1, 1, 1, 0.0000000000000000e+00
1, 2, 2, 0.0000000000000000e+00
1, 3, 3, 0.0000000000000000e+00
1, 11, 11, 3.0000000000000000e+02
2, 1, 1, 6.0999999999999999e-01
2, 2, 2, 2.2499999999999999e-02
2, 3, 3, 1.0600000000000001e-01
2, 11, 11, 3.0000000000000000e+02
3, 1, 1, 6.5000000000000002e-01
3, 2, 2, 2.5500000000000000e-01
3, 3, 3, 6.8000000000000005e-02
3, 11, 11, 3.0000000000000000e+02
4, 1, 1, 4.0000000000000008e-02
4, 2, 2, 2.2500000000000001e-01
4, 3, 3, -8.0000000000000002e-03
4, 11, 11, 3.0000000000000000e+02
5, 1, 1, 1.4999999999999999e-02
5, 2, 2, 2.5000000000000001e-02
5, 3, 3, -1.9600000000000001e-01
5, 11, 11, 3.0000000000000000e+02
6, 1, 1, 6.5000000000000002e-01
6, 2, 2, 5.5000000000000007e-02
6, 3, 3, -1.1600000000000002e-01
6, 11, 11, 3.0000000000000000e+02
7, 1, 1, 6.2000000000000000e-01
7, 2, 2, 3.4499999999999997e-01
7, 3, 3, -1.0000000000000002e-01
7, 11, 11, 3.0000000000000000e+02
8, 1, 1, 0.0000000000000000e+00
8, 2, 2, 3.1000000000000000e-01
8, 3, 3, -2.5600000000000001e-01
8, 11, 11, 3.0000000000000000e+02
9, 1, 1, 0.0000000000000000e+00
9, 2, 2, 0.0000000000000000e+00
9, 3, 3, 0.0000000000000000e+00
9, 11, 11, 3.0000000000000000e+02
10, 1, 1, 6.0999999999999999e-01
10, 2, 2, 2.2499999999999999e-02
10, 3, 3, 1.0600000000000001e-01
10, 11, 11, 3.0000000000000000e+02
11, 1, 1, 6.5000000000000002e-01
11, 2, 2, 2.5500000000000000e-01
11, 3, 3, 6.8000000000000005e-02
11, 11, 11, 3.0000000000000000e+02
12, 1, 1, 4.0000000000000008e-02
12, 2, 2, 2.2500000000000001e-01
12, 3, 3, -8.0000000000000002e-03
12, 11, 11, 3.0000000000000000e+02
13, 1, 1, 1.4999999999999999e-02
13, 2, 2, 2.5000000000000001e-02
13, 3, 3, -1.9600000000000001e-01
13, 11, 11, 3.0000000000000000e+02
14, 1, 1, 6.5000000000000002e-01
14, 2, 2, 5.5000000000000007e-02
14, 3, 3, -1.1600000000000002e-01
14, 11, 11, 3.0000000000000000e+02
15, 1, 1, 6.2000000000000000e-01
15, 2, 2, 3.4499999999999997e-01
15, 3, 3, -1.0000000000000002e-01
15, 11, 11, 3.0000000000000000e+02
16, 1, 1, 0.0000000000000000e+00
16, 2, 2, 3.1000000000000000e-01
16, 3, 3, -2.5600000000000001e-01
16, 11, 11, 3.0000000000000000e+02
17, 1, 1, 0.0000000000000000e+00
17, 2, 2, 0.0000000000000000e+00
17, 3, 3, 0.0000000000000000e+00
17, 11, 11, 3.0000000000000000e+02
18, 1, 1, 6.0999999999999999e-01
18, 2, 2, 2.2499999999999999e-02
18, 3, 3, 1.0600000000000001e-01
18, 11, 11, 3.0000000000000000e+02
19, 1, 1, 6.5000000000000002e-01
19, 2, 2, 2.5500000000000000e-01
19, 3, 3, 6.8000000000000005e-02
19, 11, 11, 3.0000000000000000e+02
20, 1, 1, 4.0000000000000008e-02
20, 2, 2, 2.2500000000000001e-01
20, 3, 3, -8.0000000000000002e-03
20, 11, 11, 3.0000000000000000e+02
21, 1, 1, 1.4999999999999999e-02
21, 2, 2, 2.5000000000000001e-02
21, 3, 3, -1.9600000000000001e-01
21, 11, 11, 3.0000000000000000e+02
22, 1, 1, 6.5000000000000002e-01
22, 2, 2, 5.5000000000000007e-02
22, 3, 3, -1.1600000000000002e-01
22, 11, 11, 3.0000000000000000e+02
23, 1, 1, 6.2000000000000000e-01
23, 2, 2, 3.4499999999999997e-01
23, 3, 3, -1.0000000000000002e-01
23, 11, 11, 3.0000000000000000e+02
24, 1, 1, 0.0000000000000000e+00
24, 2, 2, 3.1000000000000000e-01
24, 3, 3, -2.5600000000000001e-01
24, 11, 11, 3.0000000000000000e+02
25, 1, 1, 0.0000000000000000e+00
25, 2, 2, 0.0000000000000000e+00
25, 3, 3, 0.0000000000000000e+00
25, 11, 11, 3.0000000000000000e+02
26, 1, 1, 6.0999999999999999e-01
26, 2, 2, 2.2499999999999999e-02
26, 3, 3, 1.0600000000000001e-01
26, 11, 11, 3.0000000000000000e+02
27, 1, 1, 6.5000000000000002e-01
27, 2, 2, 2.5500000000000000e-01
27, 3, 3, 6.8000000000000005e-02
27, 11, 11, 3.0000000000000000e+02
28, 1, 1, 4.0000000000000008e-02
28, 2, 2, 2.2500000000000001e-01
28, 3, 3, -8.0000000000000002e-03
28, 11, 11, 3.0000000000000000e+02
29, 1, 1, 1.4999999999999999e-02
29, 2, 2, 2.5000000000000001e-02
29, 3, 3, -1.9600000000000001e-01
29, 11, 11, 3.0000000000000000e+02
30, 1, 1, 6.5000000000000002e-01
30, 2, 2, 5.5000000000000007e-02
30, 3, 3, -1.1600000000000002e-01
30, 11, 11, 3.0000000000000000e+02
31, 1, 1, 6.2000000000000000e-01
31, 2, 2, 3.4499999999999997e-01
31, 3, 3, -1.0000000000000002e-01
31, 11, 11, 3.0000000000000000e+02
32, 1, 1, 0.0000000000000000e+00
32, 2, 2, 3.1000000000000000e-01
32, 3, 3, -2.5600000000000001e-01
32, 11, 11, 3.0000000000000000e+02
33, 1, 1, 0.0000000000000000e+00
33, 2, 2, 0.0000000000000000e+00
33, 3, 3, 0.0000000000000000e+00
33, 11, 11, 3.0000000000000000e+02
34, 1, 1, 6.0999999999999999e-01
34, 2, 2, 2.2499999999999999e-02
34, 3, 3, 1.0600000000000001e-01
34, 11, 11, 3.0000000000000000e+02
35, 1, 1, 6.5000000000000002e-01
35, 2, 2, 2.5500000000000000e-01
35, 3, 3, 6.8000000000000005e-02
35, 11, 11, 3.0000000000000000e+02
36, 1, 1, 4.0000000000000008e-02
36, 2, 2, 2.2500000000000001e-01
36, 3, 3, -8.0000000000000002e-03
36, 11, 11, 3.0000000000000000e+02
37, 1, 1, 1.4999999999999999e-02
37, 2, 2, 2.5000000000000001e-02
37, 3, 3, -1.9600000000000001e-01
37, 11, 11, 3.0000000000000000e+02
38, 1, 1, 6.5000000000000002e-01
38, 2, 2, 5.5000000000000007e-02
38, 3, 3, -1.1600000000000002e-01
38, 11, 11, 3.0000000000000000e+02
39, 1, 1, 6.2000000000000000e-01
39, 2, 2, 3.4499999999999997e-01
39, 3, 3, -1.0000000000000002e-01
39, 11, 11, 3.0000000000000000e+02
40, 1, 1, 0.0000000000000000e+00
40, 2, 2, 3.1000000000000000e-01
40, 3, 3, -2.5600000000000001e-01
40, 11, 11, 3.0000000000000000e+02
41, 1, 1, 0.0000000000000000e+00
41, 2, 2, 0.0000000000000000e+00
41, 3, 3, 0.0000000000000000e+00
41, 11, 11, 3.0000000000000000e+02
42, 1, 1, 6.0999999999999999e-01
42, 2, 2, 2.2499999999999999e-02
42, 3, 3, 1.0600000000000001e-01
42, 11, 11, 3.0000000000000000e+02
43, 1, 1, 6.5000000000000002e-01
43, 2, 2, 2.5500000000000000e-01
43, 3, 3, 6.8000000000000005e-02
43, 11, 11, 3.0000000000000000e+02
44, 1, 1, 4.0000000000000008e-02
44, 2, 2, 2.2500000000000001e-01
44, 3, 3, -8.0000000000000002e-03
44, 11, 11, 3.0000000000000000e+02
45, 1, 1, 1.4999999999999999e-02
45, 2, 2, 2.5000000000000001e-02
45, 3, 3, -1.9600000000000001e-01
45, 11, 11, 3.0000000000000000e+02
46, 1, 1, 6.5000000000000002e-01
46, 2, 2, 5.5000000000000007e-02
46, 3, 3, -1.1600000000000002e-01
46, 11, 11, 3.0000000000000000e+02
47, 1, 1, 6.2000000000000000e-01
47, 2, 2, 3.4499999999999997e-01
47, 3, 3, -1.0000000000000002e-01
47, 11, 11, 3.0000000000000000e+02
48, 1, 1, 0.0000000000000000e+00
48, 2, 2, 3.1000000000000000e-01
48, 3, 3, -2.5600000000000001e-01
48, 11, 11, 3.0000000000000000e+02
49, 1, 1, 0.0000000000000000e+00
49, 2, 2, 0.0000000000000000e+00
49, 3, 3, 0.0000000000000000e+00
49, 11, 11, 3.0000000000000000e+02
50, 1, 1, 6.0999999999999999e-01
50, 2, 2, 2.2499999999999999e-02
50, 3, 3, 1.0600000000000001e-01
50, 11, 11, 3.0000000000000000e+02
51, 1, 1, 6.5000000000000002e-01
51, 2, 2, 2.5500000000000000e-01
51, 3, 3, 6.8000000000000005e-02
51, 11, 11, 3.0000000000000000e+02
52, 1, 1, 4.0000000000000008e-02
52, 2, 2, 2.2500000000000001e-01
52, 3, 3, -8.0000000000000002e-03
52, 11, 11, 3.0000000000000000e+02
53, 1, 1, 1.4999999999999999e-02
53, 2, 2, 2.5000000000000001e-02
53, 3, 3, -1.9600000000000001e-01
53, 11, 11, 3.0000000000000000e+02
54, 1, 1, 6.5000000000000002e-01
54, 2, 2, 5.5000000000000007e-02
54, 3, 3, -1.1600000000000002e-01
54, 11, 11, 3.0000000000000000e+02
55, 1, 1, 6.2000000000000000e-01
55, 2, 2, 3.4499999999999997e-01
55, 3, 3, -1.0000000000000002e-01
55, 11, 11, 3.0000000000000000e+02
56, 1, 1, 0.0000000000000000e+00
56, 2, 2, 3.1000000000000000e-01
56, 3, 3, -2.5600000000000001e-01
56, 11, 11, 3.0000000000000000e+02
57, 1, 1, 0.0000000000000000e+00
57, 2, 2, 0.0000000000000000e+00
57, 3, 3, 0.0000000000000000e+00
57, 11, 11, 3.0000000000000000e+02
58, 1, 1, 6.0999999999999999e-01
58, 2, 2, 2.2499999999999999e-02
58, 3, 3, 1.0600000000000001e-01
58, 11, 11, 3.0000000000000000e+02
59, 1, 1, 6.5000000000000002e-01
59, 2, 2, 2.5500000000000000e-01
59, 3, 3, 6.8000000000000005e-02
59, 11, 11, 3.0000000000000000e+02
60, 1, 1, 4.0000000000000008e-02
60, 2, 2, 2.2500000000000001e-01
60, 3, 3, -8.0000000000000002e-03
60, 11, 11, 3.0000000000000000e+02
61, 1, 1, 1.4999999999999999e-02
61, 2, 2, 2.5000000000000001e-02
61, 3, 3, -1.9600000000000001e-01
61, 11, 11, 3.0000000000000000e+02
62, 1, 1, 6.5000000000000002e-01
62, 2, 2, 5.5000000000000007e-02
62, 3, 3, -1.1600000000000002e-01
62, 11, 11, 3.0000000000000000e+02
63, 1, 1, 6.2000000000000000e-01
63, 2, 2, 3.4499999999999997e-01
63, 3, 3, -1.0000000000000002e-01
63, 11, 11, 3.0000000000000000e+02
64, 1, 1, 0.0000000000000000e+00
64, 2, 2, 3.1000000000000000e-01
64, 3, 3, -2.5600000000000001e-01
64, 11, 11, 3.0000000000000000e+02
65, 1, 1, 0.0000000000000000e+00
65, 2, 2, 0.0000000000000000e+00
65, 3, 3, 0.0000000000000000e+00
65, 11, 11, 3.0000000000000000e+02
66, 1, 1, 6.0999999999999999e-01
66, 2, 2, 2.2499999999999999e-02
66, 3, 3, 1.0600000000000001e-01
66, 11, 11, 3.0000000000000000e+02
67, 1, 1, 6.5000000000000002e-01
67, 2, 2, 2.5500000000000000e-01
67, 3, 3, 6.8000000000000005e-02
67, 11, 11, 3.0000000000000000e+02
68, 1, 1, 4.0000000000000008e-02
68, 2, 2, 2.2500000000000001e-01
68, 3, 3, -8.0000000000000002e-03
68, 11, 11, 3.0000000000000000e+02
69, 1, 1, 1.4999999999999999e-02
69, 2, 2, 2.5000000000000001e-02
69, 3, 3, -1.9600000000000001e-01
69, 11, 11, 3.0000000000000000e+02
70, 1, 1, 6.5000000000000002e-01
70, 2, 2, 5.5000000000000007e-02
70, 3, 3, -1.1600000000000002e-01
70, 11, 11, 3.0000000000000000e+02
71, 1, 1, 6.2000000000000000e-01
71, 2, 2, 3.4499999999999997e-01
71, 3, 3, -1.0000000000000002e-01
71, 11, 11, 3.0000000000000000e+02
72, 1, 1, 0.0000000000000000e+00
72, 2, 2, 3.1000000000000000e-01
72, 3, 3, -2.5600000000000001e-01
72, 11, 11, 3.0000000000000000e+02
73, 1, 1, 0.0000000000000000e+00
73, 2, 2, 0.0000000000000000e+00
73, 3, 3, 0.0000000000000000e+00
73, 11, 11, 3.0000000000000000e+02
74, 1, 1, 6.0999999999999999e-01
74, 2, 2, 2.2499999999999999e-02
74, 3, 3, 1.0600000000000001e-01
74, 11, 11, 3.0000000000000000e+02
75, 1, 1, 6.5000000000000002e-01
75, 2, 2, 2.5500000000000000e-01
75, 3, 3, 6.8000000000000005e-02
75, 11, 11, 3.0000000000000000e+02
76, 1, 1, 4.0000000000000008e-02
76, 2, 2, 2.2500000000000001e-01
76, 3, 3, -8.0000000000000002e-03
76, 11, 11, 3.0000000000000000e+02
77, 1, 1, 1.4999999999999999e-02
77, 2, 2, 2.5000000000000001e-02
77, 3, 3, -1.9600000000000001e-01
77, 11, 11, 3.0000000000000000e+02
78, 1, 1, 6.5000000000000002e-01
78, 2, 2, 5.5000000000000007e-02
78, 3, 3, -1.1600000000000002e-01
78, 11, 11, 3.0000000000000000e+02
79, 1, 1, 6.2000000000000000e-01
79, 2, 2, 3.4499999999999997e-01
79, 3, 3, -1.0000000000000002e-01
79, 11, 11, 3.0000000000000000e+02
80, 1, 1, 0.0000000000000000e+00
80, 2, 2, 3.1000000000000000e-01
80, 3, 3, -2.5600000000000001e-01
80, 11, 11, 3.0000000000000000e+02
81, 1, 1, 0.0000000000000000e+00
81, 2, 2, 0.0000000000000000e+00
81, 3, 3, 0.0000000000000000e+00
81, 11, 11, 3.0000000000000000e+02
82, 1, 1, 6.0999999999999999e-01
82, 2, 2, 2.2499999999999999e-02
82, 3, 3, 1.0600000000000001e-01
82, 11, 11, 3.0000000000000000e+02
83, 1, 1, 6.5000000000000002e-01
83, 2, 2, 2.5500000000000000e-01
83, 3, 3, 6.8000000000000005e-02
83, 11, 11, 3.0000000000000000e+02
84, 1, 1, 4.0000000000000008e-02
84, 2, 2, 2.2500000000000001e-01
84, 3, 3, -8.0000000000000002e-03
84, 11, 11, 3.0000000000000000e+02
85, 1, 1, 1.4999999999999999e-02
85, 2, 2, 2.5000000000000001e-02
85, 3, 3, -1.9600000000000001e-01
85, 11, 11, 3.0000000000000000e+02
86, 1, 1, 6.5000000000000002e-01
86, 2, 2, 5.5000000000000007e-02
86, 3, 3, -1.1600000000000002e-01
86, 11, 11, 3.0000000000000000e+02
87, 1, 1, 6.2000000000000000e-01
87, 2, 2, 3.4499999999999997e-01
87, 3, 3, -1.0000000000000002e-01
87, 11, 11, 3.0000000000000000e+02
88, 1, 1, 0.0000000000000000e+00
88, 2, 2, 3.1000000000000000e-01
88, 3, 3, -2.5600000000000001e-01
88, 11, 11, 3.0000000000000000e+02
*Dflux, op=NEW
10, S2, 4.0000000000000000e1
*Output, field, frequency=1
*Node Output
COORD, NT, RFL, U
*Element Output
IVOL, TEMP
*End Step
*Step, name=FILM_BASE, nlgeom=YES, inc=20
*Coupled Temperature-Displacement, steady state
1.0, 1.0, 1.0e-8, 1.0
*Boundary, op=NEW
1, 1, 1, 0.0000000000000000e+00
1, 2, 2, 0.0000000000000000e+00
1, 3, 3, 0.0000000000000000e+00
1, 11, 11, 3.0000000000000000e+02
2, 1, 1, 6.0999999999999999e-01
2, 2, 2, 2.2499999999999999e-02
2, 3, 3, 1.0600000000000001e-01
2, 11, 11, 3.0000000000000000e+02
3, 1, 1, 6.5000000000000002e-01
3, 2, 2, 2.5500000000000000e-01
3, 3, 3, 6.8000000000000005e-02
3, 11, 11, 3.0000000000000000e+02
4, 1, 1, 4.0000000000000008e-02
4, 2, 2, 2.2500000000000001e-01
4, 3, 3, -8.0000000000000002e-03
4, 11, 11, 3.0000000000000000e+02
5, 1, 1, 1.4999999999999999e-02
5, 2, 2, 2.5000000000000001e-02
5, 3, 3, -1.9600000000000001e-01
5, 11, 11, 3.0000000000000000e+02
6, 1, 1, 6.5000000000000002e-01
6, 2, 2, 5.5000000000000007e-02
6, 3, 3, -1.1600000000000002e-01
6, 11, 11, 3.0000000000000000e+02
7, 1, 1, 6.2000000000000000e-01
7, 2, 2, 3.4499999999999997e-01
7, 3, 3, -1.0000000000000002e-01
7, 11, 11, 3.0000000000000000e+02
8, 1, 1, 0.0000000000000000e+00
8, 2, 2, 3.1000000000000000e-01
8, 3, 3, -2.5600000000000001e-01
8, 11, 11, 3.0000000000000000e+02
9, 1, 1, 0.0000000000000000e+00
9, 2, 2, 0.0000000000000000e+00
9, 3, 3, 0.0000000000000000e+00
9, 11, 11, 3.0000000000000000e+02
10, 1, 1, 6.0999999999999999e-01
10, 2, 2, 2.2499999999999999e-02
10, 3, 3, 1.0600000000000001e-01
10, 11, 11, 3.0000000000000000e+02
11, 1, 1, 6.5000000000000002e-01
11, 2, 2, 2.5500000000000000e-01
11, 3, 3, 6.8000000000000005e-02
11, 11, 11, 3.0000000000000000e+02
12, 1, 1, 4.0000000000000008e-02
12, 2, 2, 2.2500000000000001e-01
12, 3, 3, -8.0000000000000002e-03
12, 11, 11, 3.0000000000000000e+02
13, 1, 1, 1.4999999999999999e-02
13, 2, 2, 2.5000000000000001e-02
13, 3, 3, -1.9600000000000001e-01
13, 11, 11, 3.0000000000000000e+02
14, 1, 1, 6.5000000000000002e-01
14, 2, 2, 5.5000000000000007e-02
14, 3, 3, -1.1600000000000002e-01
14, 11, 11, 3.0000000000000000e+02
15, 1, 1, 6.2000000000000000e-01
15, 2, 2, 3.4499999999999997e-01
15, 3, 3, -1.0000000000000002e-01
15, 11, 11, 3.0000000000000000e+02
16, 1, 1, 0.0000000000000000e+00
16, 2, 2, 3.1000000000000000e-01
16, 3, 3, -2.5600000000000001e-01
16, 11, 11, 3.0000000000000000e+02
17, 1, 1, 0.0000000000000000e+00
17, 2, 2, 0.0000000000000000e+00
17, 3, 3, 0.0000000000000000e+00
17, 11, 11, 3.0000000000000000e+02
18, 1, 1, 6.0999999999999999e-01
18, 2, 2, 2.2499999999999999e-02
18, 3, 3, 1.0600000000000001e-01
18, 11, 11, 3.0000000000000000e+02
19, 1, 1, 6.5000000000000002e-01
19, 2, 2, 2.5500000000000000e-01
19, 3, 3, 6.8000000000000005e-02
19, 11, 11, 3.0000000000000000e+02
20, 1, 1, 4.0000000000000008e-02
20, 2, 2, 2.2500000000000001e-01
20, 3, 3, -8.0000000000000002e-03
20, 11, 11, 3.0000000000000000e+02
21, 1, 1, 1.4999999999999999e-02
21, 2, 2, 2.5000000000000001e-02
21, 3, 3, -1.9600000000000001e-01
21, 11, 11, 3.0000000000000000e+02
22, 1, 1, 6.5000000000000002e-01
22, 2, 2, 5.5000000000000007e-02
22, 3, 3, -1.1600000000000002e-01
22, 11, 11, 3.0000000000000000e+02
23, 1, 1, 6.2000000000000000e-01
23, 2, 2, 3.4499999999999997e-01
23, 3, 3, -1.0000000000000002e-01
23, 11, 11, 3.0000000000000000e+02
24, 1, 1, 0.0000000000000000e+00
24, 2, 2, 3.1000000000000000e-01
24, 3, 3, -2.5600000000000001e-01
24, 11, 11, 3.0000000000000000e+02
25, 1, 1, 0.0000000000000000e+00
25, 2, 2, 0.0000000000000000e+00
25, 3, 3, 0.0000000000000000e+00
25, 11, 11, 3.0000000000000000e+02
26, 1, 1, 6.0999999999999999e-01
26, 2, 2, 2.2499999999999999e-02
26, 3, 3, 1.0600000000000001e-01
26, 11, 11, 3.0000000000000000e+02
27, 1, 1, 6.5000000000000002e-01
27, 2, 2, 2.5500000000000000e-01
27, 3, 3, 6.8000000000000005e-02
27, 11, 11, 3.0000000000000000e+02
28, 1, 1, 4.0000000000000008e-02
28, 2, 2, 2.2500000000000001e-01
28, 3, 3, -8.0000000000000002e-03
28, 11, 11, 3.0000000000000000e+02
29, 1, 1, 1.4999999999999999e-02
29, 2, 2, 2.5000000000000001e-02
29, 3, 3, -1.9600000000000001e-01
29, 11, 11, 3.0000000000000000e+02
30, 1, 1, 6.5000000000000002e-01
30, 2, 2, 5.5000000000000007e-02
30, 3, 3, -1.1600000000000002e-01
30, 11, 11, 3.0000000000000000e+02
31, 1, 1, 6.2000000000000000e-01
31, 2, 2, 3.4499999999999997e-01
31, 3, 3, -1.0000000000000002e-01
31, 11, 11, 3.0000000000000000e+02
32, 1, 1, 0.0000000000000000e+00
32, 2, 2, 3.1000000000000000e-01
32, 3, 3, -2.5600000000000001e-01
32, 11, 11, 3.0000000000000000e+02
33, 1, 1, 0.0000000000000000e+00
33, 2, 2, 0.0000000000000000e+00
33, 3, 3, 0.0000000000000000e+00
33, 11, 11, 3.0000000000000000e+02
34, 1, 1, 6.0999999999999999e-01
34, 2, 2, 2.2499999999999999e-02
34, 3, 3, 1.0600000000000001e-01
34, 11, 11, 3.0000000000000000e+02
35, 1, 1, 6.5000000000000002e-01
35, 2, 2, 2.5500000000000000e-01
35, 3, 3, 6.8000000000000005e-02
35, 11, 11, 3.0000000000000000e+02
36, 1, 1, 4.0000000000000008e-02
36, 2, 2, 2.2500000000000001e-01
36, 3, 3, -8.0000000000000002e-03
36, 11, 11, 3.0000000000000000e+02
37, 1, 1, 1.4999999999999999e-02
37, 2, 2, 2.5000000000000001e-02
37, 3, 3, -1.9600000000000001e-01
37, 11, 11, 3.0000000000000000e+02
38, 1, 1, 6.5000000000000002e-01
38, 2, 2, 5.5000000000000007e-02
38, 3, 3, -1.1600000000000002e-01
38, 11, 11, 3.0000000000000000e+02
39, 1, 1, 6.2000000000000000e-01
39, 2, 2, 3.4499999999999997e-01
39, 3, 3, -1.0000000000000002e-01
39, 11, 11, 3.0000000000000000e+02
40, 1, 1, 0.0000000000000000e+00
40, 2, 2, 3.1000000000000000e-01
40, 3, 3, -2.5600000000000001e-01
40, 11, 11, 3.0000000000000000e+02
41, 1, 1, 0.0000000000000000e+00
41, 2, 2, 0.0000000000000000e+00
41, 3, 3, 0.0000000000000000e+00
41, 11, 11, 3.0000000000000000e+02
42, 1, 1, 6.0999999999999999e-01
42, 2, 2, 2.2499999999999999e-02
42, 3, 3, 1.0600000000000001e-01
42, 11, 11, 3.0000000000000000e+02
43, 1, 1, 6.5000000000000002e-01
43, 2, 2, 2.5500000000000000e-01
43, 3, 3, 6.8000000000000005e-02
43, 11, 11, 3.0000000000000000e+02
44, 1, 1, 4.0000000000000008e-02
44, 2, 2, 2.2500000000000001e-01
44, 3, 3, -8.0000000000000002e-03
44, 11, 11, 3.0000000000000000e+02
45, 1, 1, 1.4999999999999999e-02
45, 2, 2, 2.5000000000000001e-02
45, 3, 3, -1.9600000000000001e-01
45, 11, 11, 3.0000000000000000e+02
46, 1, 1, 6.5000000000000002e-01
46, 2, 2, 5.5000000000000007e-02
46, 3, 3, -1.1600000000000002e-01
46, 11, 11, 3.0000000000000000e+02
47, 1, 1, 6.2000000000000000e-01
47, 2, 2, 3.4499999999999997e-01
47, 3, 3, -1.0000000000000002e-01
47, 11, 11, 3.0000000000000000e+02
48, 1, 1, 0.0000000000000000e+00
48, 2, 2, 3.1000000000000000e-01
48, 3, 3, -2.5600000000000001e-01
48, 11, 11, 3.0000000000000000e+02
49, 1, 1, 0.0000000000000000e+00
49, 2, 2, 0.0000000000000000e+00
49, 3, 3, 0.0000000000000000e+00
49, 11, 11, 3.0000000000000000e+02
50, 1, 1, 6.0999999999999999e-01
50, 2, 2, 2.2499999999999999e-02
50, 3, 3, 1.0600000000000001e-01
50, 11, 11, 3.0000000000000000e+02
51, 1, 1, 6.5000000000000002e-01
51, 2, 2, 2.5500000000000000e-01
51, 3, 3, 6.8000000000000005e-02
51, 11, 11, 3.0000000000000000e+02
52, 1, 1, 4.0000000000000008e-02
52, 2, 2, 2.2500000000000001e-01
52, 3, 3, -8.0000000000000002e-03
52, 11, 11, 3.0000000000000000e+02
53, 1, 1, 1.4999999999999999e-02
53, 2, 2, 2.5000000000000001e-02
53, 3, 3, -1.9600000000000001e-01
53, 11, 11, 3.0000000000000000e+02
54, 1, 1, 6.5000000000000002e-01
54, 2, 2, 5.5000000000000007e-02
54, 3, 3, -1.1600000000000002e-01
54, 11, 11, 3.0000000000000000e+02
55, 1, 1, 6.2000000000000000e-01
55, 2, 2, 3.4499999999999997e-01
55, 3, 3, -1.0000000000000002e-01
55, 11, 11, 3.0000000000000000e+02
56, 1, 1, 0.0000000000000000e+00
56, 2, 2, 3.1000000000000000e-01
56, 3, 3, -2.5600000000000001e-01
56, 11, 11, 3.0000000000000000e+02
57, 1, 1, 0.0000000000000000e+00
57, 2, 2, 0.0000000000000000e+00
57, 3, 3, 0.0000000000000000e+00
57, 11, 11, 3.0000000000000000e+02
58, 1, 1, 6.0999999999999999e-01
58, 2, 2, 2.2499999999999999e-02
58, 3, 3, 1.0600000000000001e-01
58, 11, 11, 3.0000000000000000e+02
59, 1, 1, 6.5000000000000002e-01
59, 2, 2, 2.5500000000000000e-01
59, 3, 3, 6.8000000000000005e-02
59, 11, 11, 3.0000000000000000e+02
60, 1, 1, 4.0000000000000008e-02
60, 2, 2, 2.2500000000000001e-01
60, 3, 3, -8.0000000000000002e-03
60, 11, 11, 3.0000000000000000e+02
61, 1, 1, 1.4999999999999999e-02
61, 2, 2, 2.5000000000000001e-02
61, 3, 3, -1.9600000000000001e-01
61, 11, 11, 3.0000000000000000e+02
62, 1, 1, 6.5000000000000002e-01
62, 2, 2, 5.5000000000000007e-02
62, 3, 3, -1.1600000000000002e-01
62, 11, 11, 3.0000000000000000e+02
63, 1, 1, 6.2000000000000000e-01
63, 2, 2, 3.4499999999999997e-01
63, 3, 3, -1.0000000000000002e-01
63, 11, 11, 3.0000000000000000e+02
64, 1, 1, 0.0000000000000000e+00
64, 2, 2, 3.1000000000000000e-01
64, 3, 3, -2.5600000000000001e-01
64, 11, 11, 3.0000000000000000e+02
65, 1, 1, 0.0000000000000000e+00
65, 2, 2, 0.0000000000000000e+00
65, 3, 3, 0.0000000000000000e+00
65, 11, 11, 3.0000000000000000e+02
66, 1, 1, 6.0999999999999999e-01
66, 2, 2, 2.2499999999999999e-02
66, 3, 3, 1.0600000000000001e-01
66, 11, 11, 3.0000000000000000e+02
67, 1, 1, 6.5000000000000002e-01
67, 2, 2, 2.5500000000000000e-01
67, 3, 3, 6.8000000000000005e-02
67, 11, 11, 3.0000000000000000e+02
68, 1, 1, 4.0000000000000008e-02
68, 2, 2, 2.2500000000000001e-01
68, 3, 3, -8.0000000000000002e-03
68, 11, 11, 3.0000000000000000e+02
69, 1, 1, 1.4999999999999999e-02
69, 2, 2, 2.5000000000000001e-02
69, 3, 3, -1.9600000000000001e-01
69, 11, 11, 3.0000000000000000e+02
70, 1, 1, 6.5000000000000002e-01
70, 2, 2, 5.5000000000000007e-02
70, 3, 3, -1.1600000000000002e-01
70, 11, 11, 3.0000000000000000e+02
71, 1, 1, 6.2000000000000000e-01
71, 2, 2, 3.4499999999999997e-01
71, 3, 3, -1.0000000000000002e-01
71, 11, 11, 3.0000000000000000e+02
72, 1, 1, 0.0000000000000000e+00
72, 2, 2, 3.1000000000000000e-01
72, 3, 3, -2.5600000000000001e-01
72, 11, 11, 3.0000000000000000e+02
73, 1, 1, 0.0000000000000000e+00
73, 2, 2, 0.0000000000000000e+00
73, 3, 3, 0.0000000000000000e+00
73, 11, 11, 3.0000000000000000e+02
74, 1, 1, 6.0999999999999999e-01
74, 2, 2, 2.2499999999999999e-02
74, 3, 3, 1.0600000000000001e-01
74, 11, 11, 3.0000000000000000e+02
75, 1, 1, 6.5000000000000002e-01
75, 2, 2, 2.5500000000000000e-01
75, 3, 3, 6.8000000000000005e-02
75, 11, 11, 3.0000000000000000e+02
76, 1, 1, 4.0000000000000008e-02
76, 2, 2, 2.2500000000000001e-01
76, 3, 3, -8.0000000000000002e-03
76, 11, 11, 3.0000000000000000e+02
77, 1, 1, 1.4999999999999999e-02
77, 2, 2, 2.5000000000000001e-02
77, 3, 3, -1.9600000000000001e-01
77, 11, 11, 3.0000000000000000e+02
78, 1, 1, 6.5000000000000002e-01
78, 2, 2, 5.5000000000000007e-02
78, 3, 3, -1.1600000000000002e-01
78, 11, 11, 3.0000000000000000e+02
79, 1, 1, 6.2000000000000000e-01
79, 2, 2, 3.4499999999999997e-01
79, 3, 3, -1.0000000000000002e-01
79, 11, 11, 3.0000000000000000e+02
80, 1, 1, 0.0000000000000000e+00
80, 2, 2, 3.1000000000000000e-01
80, 3, 3, -2.5600000000000001e-01
80, 11, 11, 3.0000000000000000e+02
81, 1, 1, 0.0000000000000000e+00
81, 2, 2, 0.0000000000000000e+00
81, 3, 3, 0.0000000000000000e+00
81, 11, 11, 3.0000000000000000e+02
82, 1, 1, 6.0999999999999999e-01
82, 2, 2, 2.2499999999999999e-02
82, 3, 3, 1.0600000000000001e-01
82, 11, 11, 3.0000000000000000e+02
83, 1, 1, 6.5000000000000002e-01
83, 2, 2, 2.5500000000000000e-01
83, 3, 3, 6.8000000000000005e-02
83, 11, 11, 3.0000000000000000e+02
84, 1, 1, 4.0000000000000008e-02
84, 2, 2, 2.2500000000000001e-01
84, 3, 3, -8.0000000000000002e-03
84, 11, 11, 3.0000000000000000e+02
85, 1, 1, 1.4999999999999999e-02
85, 2, 2, 2.5000000000000001e-02
85, 3, 3, -1.9600000000000001e-01
85, 11, 11, 3.6000000000000000e+02
86, 1, 1, 6.5000000000000002e-01
86, 2, 2, 5.5000000000000007e-02
86, 3, 3, -1.1600000000000002e-01
86, 11, 11, 4.1000000000000000e+02
87, 1, 1, 6.2000000000000000e-01
87, 2, 2, 3.4499999999999997e-01
87, 3, 3, -1.0000000000000002e-01
87, 11, 11, 4.4500000000000000e+02
88, 1, 1, 0.0000000000000000e+00
88, 2, 2, 3.1000000000000000e-01
88, 3, 3, -2.5600000000000001e-01
88, 11, 11, 3.8500000000000000e+02
*Dflux, op=NEW
11, BF, 0.0
*Output, field, frequency=1
*Node Output
COORD, NT, RFL, U
*Element Output
IVOL, TEMP
*End Step
*Step, name=FILM_ACTIVE, nlgeom=YES, inc=20
*Coupled Temperature-Displacement, steady state
1.0, 1.0, 1.0e-8, 1.0
*Boundary, op=NEW
1, 1, 1, 0.0000000000000000e+00
1, 2, 2, 0.0000000000000000e+00
1, 3, 3, 0.0000000000000000e+00
1, 11, 11, 3.0000000000000000e+02
2, 1, 1, 6.0999999999999999e-01
2, 2, 2, 2.2499999999999999e-02
2, 3, 3, 1.0600000000000001e-01
2, 11, 11, 3.0000000000000000e+02
3, 1, 1, 6.5000000000000002e-01
3, 2, 2, 2.5500000000000000e-01
3, 3, 3, 6.8000000000000005e-02
3, 11, 11, 3.0000000000000000e+02
4, 1, 1, 4.0000000000000008e-02
4, 2, 2, 2.2500000000000001e-01
4, 3, 3, -8.0000000000000002e-03
4, 11, 11, 3.0000000000000000e+02
5, 1, 1, 1.4999999999999999e-02
5, 2, 2, 2.5000000000000001e-02
5, 3, 3, -1.9600000000000001e-01
5, 11, 11, 3.0000000000000000e+02
6, 1, 1, 6.5000000000000002e-01
6, 2, 2, 5.5000000000000007e-02
6, 3, 3, -1.1600000000000002e-01
6, 11, 11, 3.0000000000000000e+02
7, 1, 1, 6.2000000000000000e-01
7, 2, 2, 3.4499999999999997e-01
7, 3, 3, -1.0000000000000002e-01
7, 11, 11, 3.0000000000000000e+02
8, 1, 1, 0.0000000000000000e+00
8, 2, 2, 3.1000000000000000e-01
8, 3, 3, -2.5600000000000001e-01
8, 11, 11, 3.0000000000000000e+02
9, 1, 1, 0.0000000000000000e+00
9, 2, 2, 0.0000000000000000e+00
9, 3, 3, 0.0000000000000000e+00
9, 11, 11, 3.0000000000000000e+02
10, 1, 1, 6.0999999999999999e-01
10, 2, 2, 2.2499999999999999e-02
10, 3, 3, 1.0600000000000001e-01
10, 11, 11, 3.0000000000000000e+02
11, 1, 1, 6.5000000000000002e-01
11, 2, 2, 2.5500000000000000e-01
11, 3, 3, 6.8000000000000005e-02
11, 11, 11, 3.0000000000000000e+02
12, 1, 1, 4.0000000000000008e-02
12, 2, 2, 2.2500000000000001e-01
12, 3, 3, -8.0000000000000002e-03
12, 11, 11, 3.0000000000000000e+02
13, 1, 1, 1.4999999999999999e-02
13, 2, 2, 2.5000000000000001e-02
13, 3, 3, -1.9600000000000001e-01
13, 11, 11, 3.0000000000000000e+02
14, 1, 1, 6.5000000000000002e-01
14, 2, 2, 5.5000000000000007e-02
14, 3, 3, -1.1600000000000002e-01
14, 11, 11, 3.0000000000000000e+02
15, 1, 1, 6.2000000000000000e-01
15, 2, 2, 3.4499999999999997e-01
15, 3, 3, -1.0000000000000002e-01
15, 11, 11, 3.0000000000000000e+02
16, 1, 1, 0.0000000000000000e+00
16, 2, 2, 3.1000000000000000e-01
16, 3, 3, -2.5600000000000001e-01
16, 11, 11, 3.0000000000000000e+02
17, 1, 1, 0.0000000000000000e+00
17, 2, 2, 0.0000000000000000e+00
17, 3, 3, 0.0000000000000000e+00
17, 11, 11, 3.0000000000000000e+02
18, 1, 1, 6.0999999999999999e-01
18, 2, 2, 2.2499999999999999e-02
18, 3, 3, 1.0600000000000001e-01
18, 11, 11, 3.0000000000000000e+02
19, 1, 1, 6.5000000000000002e-01
19, 2, 2, 2.5500000000000000e-01
19, 3, 3, 6.8000000000000005e-02
19, 11, 11, 3.0000000000000000e+02
20, 1, 1, 4.0000000000000008e-02
20, 2, 2, 2.2500000000000001e-01
20, 3, 3, -8.0000000000000002e-03
20, 11, 11, 3.0000000000000000e+02
21, 1, 1, 1.4999999999999999e-02
21, 2, 2, 2.5000000000000001e-02
21, 3, 3, -1.9600000000000001e-01
21, 11, 11, 3.0000000000000000e+02
22, 1, 1, 6.5000000000000002e-01
22, 2, 2, 5.5000000000000007e-02
22, 3, 3, -1.1600000000000002e-01
22, 11, 11, 3.0000000000000000e+02
23, 1, 1, 6.2000000000000000e-01
23, 2, 2, 3.4499999999999997e-01
23, 3, 3, -1.0000000000000002e-01
23, 11, 11, 3.0000000000000000e+02
24, 1, 1, 0.0000000000000000e+00
24, 2, 2, 3.1000000000000000e-01
24, 3, 3, -2.5600000000000001e-01
24, 11, 11, 3.0000000000000000e+02
25, 1, 1, 0.0000000000000000e+00
25, 2, 2, 0.0000000000000000e+00
25, 3, 3, 0.0000000000000000e+00
25, 11, 11, 3.0000000000000000e+02
26, 1, 1, 6.0999999999999999e-01
26, 2, 2, 2.2499999999999999e-02
26, 3, 3, 1.0600000000000001e-01
26, 11, 11, 3.0000000000000000e+02
27, 1, 1, 6.5000000000000002e-01
27, 2, 2, 2.5500000000000000e-01
27, 3, 3, 6.8000000000000005e-02
27, 11, 11, 3.0000000000000000e+02
28, 1, 1, 4.0000000000000008e-02
28, 2, 2, 2.2500000000000001e-01
28, 3, 3, -8.0000000000000002e-03
28, 11, 11, 3.0000000000000000e+02
29, 1, 1, 1.4999999999999999e-02
29, 2, 2, 2.5000000000000001e-02
29, 3, 3, -1.9600000000000001e-01
29, 11, 11, 3.0000000000000000e+02
30, 1, 1, 6.5000000000000002e-01
30, 2, 2, 5.5000000000000007e-02
30, 3, 3, -1.1600000000000002e-01
30, 11, 11, 3.0000000000000000e+02
31, 1, 1, 6.2000000000000000e-01
31, 2, 2, 3.4499999999999997e-01
31, 3, 3, -1.0000000000000002e-01
31, 11, 11, 3.0000000000000000e+02
32, 1, 1, 0.0000000000000000e+00
32, 2, 2, 3.1000000000000000e-01
32, 3, 3, -2.5600000000000001e-01
32, 11, 11, 3.0000000000000000e+02
33, 1, 1, 0.0000000000000000e+00
33, 2, 2, 0.0000000000000000e+00
33, 3, 3, 0.0000000000000000e+00
33, 11, 11, 3.0000000000000000e+02
34, 1, 1, 6.0999999999999999e-01
34, 2, 2, 2.2499999999999999e-02
34, 3, 3, 1.0600000000000001e-01
34, 11, 11, 3.0000000000000000e+02
35, 1, 1, 6.5000000000000002e-01
35, 2, 2, 2.5500000000000000e-01
35, 3, 3, 6.8000000000000005e-02
35, 11, 11, 3.0000000000000000e+02
36, 1, 1, 4.0000000000000008e-02
36, 2, 2, 2.2500000000000001e-01
36, 3, 3, -8.0000000000000002e-03
36, 11, 11, 3.0000000000000000e+02
37, 1, 1, 1.4999999999999999e-02
37, 2, 2, 2.5000000000000001e-02
37, 3, 3, -1.9600000000000001e-01
37, 11, 11, 3.0000000000000000e+02
38, 1, 1, 6.5000000000000002e-01
38, 2, 2, 5.5000000000000007e-02
38, 3, 3, -1.1600000000000002e-01
38, 11, 11, 3.0000000000000000e+02
39, 1, 1, 6.2000000000000000e-01
39, 2, 2, 3.4499999999999997e-01
39, 3, 3, -1.0000000000000002e-01
39, 11, 11, 3.0000000000000000e+02
40, 1, 1, 0.0000000000000000e+00
40, 2, 2, 3.1000000000000000e-01
40, 3, 3, -2.5600000000000001e-01
40, 11, 11, 3.0000000000000000e+02
41, 1, 1, 0.0000000000000000e+00
41, 2, 2, 0.0000000000000000e+00
41, 3, 3, 0.0000000000000000e+00
41, 11, 11, 3.0000000000000000e+02
42, 1, 1, 6.0999999999999999e-01
42, 2, 2, 2.2499999999999999e-02
42, 3, 3, 1.0600000000000001e-01
42, 11, 11, 3.0000000000000000e+02
43, 1, 1, 6.5000000000000002e-01
43, 2, 2, 2.5500000000000000e-01
43, 3, 3, 6.8000000000000005e-02
43, 11, 11, 3.0000000000000000e+02
44, 1, 1, 4.0000000000000008e-02
44, 2, 2, 2.2500000000000001e-01
44, 3, 3, -8.0000000000000002e-03
44, 11, 11, 3.0000000000000000e+02
45, 1, 1, 1.4999999999999999e-02
45, 2, 2, 2.5000000000000001e-02
45, 3, 3, -1.9600000000000001e-01
45, 11, 11, 3.0000000000000000e+02
46, 1, 1, 6.5000000000000002e-01
46, 2, 2, 5.5000000000000007e-02
46, 3, 3, -1.1600000000000002e-01
46, 11, 11, 3.0000000000000000e+02
47, 1, 1, 6.2000000000000000e-01
47, 2, 2, 3.4499999999999997e-01
47, 3, 3, -1.0000000000000002e-01
47, 11, 11, 3.0000000000000000e+02
48, 1, 1, 0.0000000000000000e+00
48, 2, 2, 3.1000000000000000e-01
48, 3, 3, -2.5600000000000001e-01
48, 11, 11, 3.0000000000000000e+02
49, 1, 1, 0.0000000000000000e+00
49, 2, 2, 0.0000000000000000e+00
49, 3, 3, 0.0000000000000000e+00
49, 11, 11, 3.0000000000000000e+02
50, 1, 1, 6.0999999999999999e-01
50, 2, 2, 2.2499999999999999e-02
50, 3, 3, 1.0600000000000001e-01
50, 11, 11, 3.0000000000000000e+02
51, 1, 1, 6.5000000000000002e-01
51, 2, 2, 2.5500000000000000e-01
51, 3, 3, 6.8000000000000005e-02
51, 11, 11, 3.0000000000000000e+02
52, 1, 1, 4.0000000000000008e-02
52, 2, 2, 2.2500000000000001e-01
52, 3, 3, -8.0000000000000002e-03
52, 11, 11, 3.0000000000000000e+02
53, 1, 1, 1.4999999999999999e-02
53, 2, 2, 2.5000000000000001e-02
53, 3, 3, -1.9600000000000001e-01
53, 11, 11, 3.0000000000000000e+02
54, 1, 1, 6.5000000000000002e-01
54, 2, 2, 5.5000000000000007e-02
54, 3, 3, -1.1600000000000002e-01
54, 11, 11, 3.0000000000000000e+02
55, 1, 1, 6.2000000000000000e-01
55, 2, 2, 3.4499999999999997e-01
55, 3, 3, -1.0000000000000002e-01
55, 11, 11, 3.0000000000000000e+02
56, 1, 1, 0.0000000000000000e+00
56, 2, 2, 3.1000000000000000e-01
56, 3, 3, -2.5600000000000001e-01
56, 11, 11, 3.0000000000000000e+02
57, 1, 1, 0.0000000000000000e+00
57, 2, 2, 0.0000000000000000e+00
57, 3, 3, 0.0000000000000000e+00
57, 11, 11, 3.0000000000000000e+02
58, 1, 1, 6.0999999999999999e-01
58, 2, 2, 2.2499999999999999e-02
58, 3, 3, 1.0600000000000001e-01
58, 11, 11, 3.0000000000000000e+02
59, 1, 1, 6.5000000000000002e-01
59, 2, 2, 2.5500000000000000e-01
59, 3, 3, 6.8000000000000005e-02
59, 11, 11, 3.0000000000000000e+02
60, 1, 1, 4.0000000000000008e-02
60, 2, 2, 2.2500000000000001e-01
60, 3, 3, -8.0000000000000002e-03
60, 11, 11, 3.0000000000000000e+02
61, 1, 1, 1.4999999999999999e-02
61, 2, 2, 2.5000000000000001e-02
61, 3, 3, -1.9600000000000001e-01
61, 11, 11, 3.0000000000000000e+02
62, 1, 1, 6.5000000000000002e-01
62, 2, 2, 5.5000000000000007e-02
62, 3, 3, -1.1600000000000002e-01
62, 11, 11, 3.0000000000000000e+02
63, 1, 1, 6.2000000000000000e-01
63, 2, 2, 3.4499999999999997e-01
63, 3, 3, -1.0000000000000002e-01
63, 11, 11, 3.0000000000000000e+02
64, 1, 1, 0.0000000000000000e+00
64, 2, 2, 3.1000000000000000e-01
64, 3, 3, -2.5600000000000001e-01
64, 11, 11, 3.0000000000000000e+02
65, 1, 1, 0.0000000000000000e+00
65, 2, 2, 0.0000000000000000e+00
65, 3, 3, 0.0000000000000000e+00
65, 11, 11, 3.0000000000000000e+02
66, 1, 1, 6.0999999999999999e-01
66, 2, 2, 2.2499999999999999e-02
66, 3, 3, 1.0600000000000001e-01
66, 11, 11, 3.0000000000000000e+02
67, 1, 1, 6.5000000000000002e-01
67, 2, 2, 2.5500000000000000e-01
67, 3, 3, 6.8000000000000005e-02
67, 11, 11, 3.0000000000000000e+02
68, 1, 1, 4.0000000000000008e-02
68, 2, 2, 2.2500000000000001e-01
68, 3, 3, -8.0000000000000002e-03
68, 11, 11, 3.0000000000000000e+02
69, 1, 1, 1.4999999999999999e-02
69, 2, 2, 2.5000000000000001e-02
69, 3, 3, -1.9600000000000001e-01
69, 11, 11, 3.0000000000000000e+02
70, 1, 1, 6.5000000000000002e-01
70, 2, 2, 5.5000000000000007e-02
70, 3, 3, -1.1600000000000002e-01
70, 11, 11, 3.0000000000000000e+02
71, 1, 1, 6.2000000000000000e-01
71, 2, 2, 3.4499999999999997e-01
71, 3, 3, -1.0000000000000002e-01
71, 11, 11, 3.0000000000000000e+02
72, 1, 1, 0.0000000000000000e+00
72, 2, 2, 3.1000000000000000e-01
72, 3, 3, -2.5600000000000001e-01
72, 11, 11, 3.0000000000000000e+02
73, 1, 1, 0.0000000000000000e+00
73, 2, 2, 0.0000000000000000e+00
73, 3, 3, 0.0000000000000000e+00
73, 11, 11, 3.0000000000000000e+02
74, 1, 1, 6.0999999999999999e-01
74, 2, 2, 2.2499999999999999e-02
74, 3, 3, 1.0600000000000001e-01
74, 11, 11, 3.0000000000000000e+02
75, 1, 1, 6.5000000000000002e-01
75, 2, 2, 2.5500000000000000e-01
75, 3, 3, 6.8000000000000005e-02
75, 11, 11, 3.0000000000000000e+02
76, 1, 1, 4.0000000000000008e-02
76, 2, 2, 2.2500000000000001e-01
76, 3, 3, -8.0000000000000002e-03
76, 11, 11, 3.0000000000000000e+02
77, 1, 1, 1.4999999999999999e-02
77, 2, 2, 2.5000000000000001e-02
77, 3, 3, -1.9600000000000001e-01
77, 11, 11, 3.0000000000000000e+02
78, 1, 1, 6.5000000000000002e-01
78, 2, 2, 5.5000000000000007e-02
78, 3, 3, -1.1600000000000002e-01
78, 11, 11, 3.0000000000000000e+02
79, 1, 1, 6.2000000000000000e-01
79, 2, 2, 3.4499999999999997e-01
79, 3, 3, -1.0000000000000002e-01
79, 11, 11, 3.0000000000000000e+02
80, 1, 1, 0.0000000000000000e+00
80, 2, 2, 3.1000000000000000e-01
80, 3, 3, -2.5600000000000001e-01
80, 11, 11, 3.0000000000000000e+02
81, 1, 1, 0.0000000000000000e+00
81, 2, 2, 0.0000000000000000e+00
81, 3, 3, 0.0000000000000000e+00
81, 11, 11, 3.0000000000000000e+02
82, 1, 1, 6.0999999999999999e-01
82, 2, 2, 2.2499999999999999e-02
82, 3, 3, 1.0600000000000001e-01
82, 11, 11, 3.0000000000000000e+02
83, 1, 1, 6.5000000000000002e-01
83, 2, 2, 2.5500000000000000e-01
83, 3, 3, 6.8000000000000005e-02
83, 11, 11, 3.0000000000000000e+02
84, 1, 1, 4.0000000000000008e-02
84, 2, 2, 2.2500000000000001e-01
84, 3, 3, -8.0000000000000002e-03
84, 11, 11, 3.0000000000000000e+02
85, 1, 1, 1.4999999999999999e-02
85, 2, 2, 2.5000000000000001e-02
85, 3, 3, -1.9600000000000001e-01
85, 11, 11, 3.6000000000000000e+02
86, 1, 1, 6.5000000000000002e-01
86, 2, 2, 5.5000000000000007e-02
86, 3, 3, -1.1600000000000002e-01
86, 11, 11, 4.1000000000000000e+02
87, 1, 1, 6.2000000000000000e-01
87, 2, 2, 3.4499999999999997e-01
87, 3, 3, -1.0000000000000002e-01
87, 11, 11, 4.4500000000000000e+02
88, 1, 1, 0.0000000000000000e+00
88, 2, 2, 3.1000000000000000e-01
88, 3, 3, -2.5600000000000001e-01
88, 11, 11, 3.8500000000000000e+02
*Dflux, op=NEW
11, BF, 0.0
*Film, op=NEW
11, F2, 2.5000000000000000e2, 1.0000000000000000e1
*Output, field, frequency=1
*Node Output
COORD, NT, RFL, U
*Element Output
IVOL, TEMP
*End Step
