*Heading
** B5.53 full-size M5.8-equivalent finite-strain C3D8T surface-to-surface benchmark.
** The mesh include is converted directly from m58_integrated_hex8_mesh.e.
** SI units: metre, second, kelvin, pascal, watt.
** Temperature and gap tables sample the stated analytic functions; no coefficient is fitted.
*Preprint, echo=NO, model=NO, history=NO, contact=YES
*Include, input=b546_m58_c3d8t_integrated_mesh.inc
*Material, name=FUEL_MATERIAL
*Elastic
2e11, 0.316
*Expansion, zero=600
1e-5
*Conductivity
13.35666666666667, 300
7.09135593220339, 590
7.09025758346043, 590.1
7.089159606912911, 590.2
7.088062002371676, 590.3
7.086964769647697, 590.4
7.085867908552075, 590.5
7.084771418896038, 590.6
7.083675300490943, 590.7
7.082579553148275, 590.8
7.081484176679642, 590.9
7.080389170896785, 591
7.079294535611572, 591.1
7.078200270635994, 591.2
7.077106375782176, 591.3
7.076012850862361, 591.4
7.074919695688926, 591.5
7.073826910074374, 591.6
7.072734493831334, 591.7
7.071642446772559, 591.8
7.070550768710931, 591.9
7.06945945945946, 592
7.068368518831279, 592.1
7.067277946639648, 592.2
7.066187742697958, 592.3
7.065097906819717, 592.4
7.064008438818566, 592.5
7.062919338508268, 592.6
7.061830605702716, 592.7
7.060742240215926, 592.8
7.059654241862034, 592.9
7.058566610455312, 593
7.05747934581015, 593.1
7.056392447741065, 593.2
7.055305916062701, 593.3
7.054219750589822, 593.4
7.053133951137322, 593.5
7.052048517520216, 593.6
7.050963449553646, 593.7
7.049878747052881, 593.8
7.048794409833306, 593.9
7.047710437710438, 594
7.046626830499916, 594.1
7.045543588017503, 594.2
7.044460710079085, 594.3
7.043378196500673, 594.4
7.042296047098402, 594.5
7.04121426168853, 594.6
7.040132840087439, 594.7
7.039051782111635, 594.8
7.037971087577745, 594.9
7.036890756302522, 595
7.03581078810284, 595.1
7.034731182795698, 595.2
7.03365194019822, 595.3
7.032573060127646, 595.4
7.031494542401344, 595.5
7.030416386836803, 595.6
7.029338593251636, 595.7
7.028261161463579, 595.8
7.027184091290485, 595.9
7.026107382550336, 596
7.025031035061231, 596.1
7.023955048641396, 596.2
7.022879423109174, 596.3
7.021804158283032, 596.4
7.02072925398156, 596.5
7.019654710023467, 596.6
7.018580526227585, 596.7
7.017506702412869, 596.8
7.016433238398392, 596.9
7.01536013400335, 597
7.014287389047061, 597.1
7.013215003348962, 597.2
7.012142976728613, 597.3
7.011071309005692, 597.4
7.010000000000001, 597.5
7.008929049531459, 597.6
7.00785845742011, 597.7
7.006788223486117, 597.8
7.005718347549758, 597.9
7.004648829431439, 598
7.00357966895168, 598.1
7.002510865931127, 598.2
7.001442420190541, 598.3
7.000374331550803, 598.4
6.999306599832916, 598.5
6.998239224858002, 598.6
6.997172206447303, 598.7
6.996105544422178, 598.8
6.995039238604108, 598.9
6.993973288814692, 599
6.992907694875647, 599.1
6.991842456608811, 599.2
6.990777573836143, 599.3
6.989713046379713, 599.4
6.988648874061719, 599.5
6.98758505670447, 599.6
6.986521594130398, 599.7
6.985458486162055, 599.8
6.984395732622104, 599.9
6.983333333333333, 600
6.982271288118647, 600.1
6.981209596801066, 600.2
6.980148259203732, 600.3
6.979087275149901, 600.4
6.978026644462948, 600.5
6.976966366966367, 600.6
6.975906442483769, 600.7
6.974846870838882, 600.8
6.973787651855551, 600.9
6.972728785357737, 601
6.971670271169523, 601.1
6.970612109115103, 601.2
6.969554299018793, 601.3
6.968496840705022, 601.4
6.967439733998337, 601.5
6.966382978723404, 601.6
6.965326574705002, 601.7
6.96427052176803, 601.8
6.963214819737498, 601.9
6.962159468438538, 602
6.961104467696396, 602.1
6.960049817336433, 602.2
6.958995517184128, 602.3
6.957941567065074, 602.4
6.956887966804979, 602.5
6.955834716229671, 602.6
6.954781815165091, 602.7
6.953729263437293, 602.8
6.952677060872451, 602.9
6.95162520729685, 603
6.950573702536893, 603.1
6.949522546419098, 603.2
6.948471738770099, 603.3
6.947421279416639, 603.4
6.946371168185585, 603.5
6.94532140490391, 603.6
6.944271989398707, 603.7
6.943222921497186, 603.8
6.942174201026661, 603.9
6.94112582781457, 604
6.940077801688462, 604.1
6.939030122476002, 604.2
6.937982790004965, 604.3
6.936935804103244, 604.4
6.935889164598843, 604.5
6.934842871319881, 604.6
6.933796924094592, 604.7
6.932751322751323, 604.8
6.931706067118532, 604.9
6.930661157024794, 605
6.929616592298793, 605.1
6.928572372769333, 605.2
6.927528498265324, 605.3
6.926484968615791, 605.4
6.925441783649877, 605.5
6.92439894319683, 605.6
6.923356447086016, 605.7
6.922314295146914, 605.8
6.921272487209111, 605.9
6.920231023102311, 606
6.919189902656328, 606.1
6.918149125701088, 606.2
6.917108692066634, 606.3
6.916068601583114, 606.4
6.915028854080791, 606.5
6.913989449390043, 606.6
6.912950387341355, 606.7
6.911911667765327, 606.8
6.910873290492669, 606.9
6.909835255354201, 607
6.90879756218086, 607.1
6.907760210803689, 607.2
6.906723201053846, 607.3
6.905686532762595, 607.4
6.904650205761317, 607.5
6.903614219881501, 607.6
6.902578574954747, 607.7
6.901543270812768, 607.8
6.900508307287383, 607.9
6.899473684210527, 608
6.898439401414241, 608.1
6.89740545873068, 608.2
6.89637185599211, 608.3
6.895338593030901, 608.4
6.89430566967954, 608.5
6.893273085770621, 608.6
6.892240841136849, 608.7
6.891208935611039, 608.8
6.890177369026113, 608.9
6.889146141215107, 609
6.888115252011164, 609.1
6.887084701247538, 609.2
6.886054488757591, 609.3
6.885024614374795, 609.4
6.883995077932732, 609.5
6.882965879265092, 609.6
6.881937018205675, 609.7
6.88090849458839, 609.8
6.879880308247254, 609.9
6.878852459016394, 610
6.877824946730044, 610.1
6.87679777122255, 610.2
6.875770932328364, 610.3
6.874744429882045, 610.4
6.873718263718264, 610.5
6.872692433671799, 610.6
6.871666939577534, 610.7
6.870641781270466, 610.8
6.869616958585694, 610.9
6.868592471358429, 611
6.86756831942399, 611.1
6.866544502617801, 611.2
6.865521020775398, 611.3
6.864497873732418, 611.4
6.863475061324612, 611.5
6.862452583387835, 611.6
6.861430439758051, 611.7
6.860408630271332, 611.8
6.859387154763851, 611.9
6.858366013071896, 612
6.857345205031858, 612.1
6.856324730480235, 612.2
6.855304589253635, 612.3
6.854284781188766, 612.4
6.85326530612245, 612.5
6.85224616389161, 612.6
6.851227354333279, 612.7
6.850208877284596, 612.8
6.849190732582803, 612.9
6.848172920065253, 613
6.847155439569401, 613.1
6.846138290932811, 613.2
6.845121473993153, 613.3
6.844104988588198, 613.4
6.843088834555828, 613.5
6.842073011734029, 613.6
6.841057519960893, 613.7
6.840042359074618, 613.8
6.839027528913505, 613.9
6.838013029315961, 614
6.836998860120501, 614.1
6.835985021165744, 614.2
6.834971512290412, 614.3
6.833958333333334, 614.4
6.832945484133442, 614.5
6.831932964529775, 614.6
6.830920774361477, 614.7
6.829908913467795, 614.8
6.82889738168808, 614.9
6.827886178861789, 615
6.826875304828484, 615.1
6.825864759427828, 615.2
6.824854542499595, 615.3
6.823844653883653, 615.4
6.822835093419984, 615.5
6.821825860948668, 615.6
6.820816956309891, 615.7
6.819808379343944, 615.8
6.818800129891216, 615.9
6.817792207792208, 616
6.816784612887519, 616.1
6.815777345017851, 616.2
6.814770404024015, 616.3
6.813763789746918, 616.4
6.812757502027575, 616.5
6.811751540707103, 616.6
6.810745905626723, 616.7
6.809740596627757, 616.8
6.808735613551629, 616.9
6.807730956239871, 617
6.806726624534111, 617.1
6.805722618276086, 617.2
6.804718937307631, 617.3
6.803715581470684, 617.4
6.802712550607287, 617.5
6.801709844559586, 617.6
6.800707463169823, 617.7
6.79970540628035, 617.8
6.798703673733614, 617.9
6.797702265372169, 618
6.796701181038667, 618.1
6.795700420575865, 618.2
6.794699983826622, 618.3
6.793699870633895, 618.4
6.792700080840744, 618.5
6.791700614290333, 618.6
6.790701470825925, 618.7
6.789702650290886, 618.8
6.78870415252868, 618.9
6.787705977382876, 619
6.786708124697141, 619.1
6.785710594315245, 619.2
6.78471338608106, 619.3
6.783716499838554, 619.4
6.7827199354318, 619.5
6.781723692704971, 619.6
6.78072777150234, 619.7
6.779732171668281, 619.8
6.778736893047267, 619.9
6.777741935483871, 620
3.796666666666666, 1200
*Density
10970
*Specific Heat
300
*Material, name=CLAD_MATERIAL
*Elastic
7.5e10, 0.3
*Expansion, zero=600
5e-6
*Plastic
1e6, 0
2.0001e10, 1
*Creep, law=TIME
8e-28, 3, 0
*Conductivity
16
*Density
6500
*Specific Heat
330
*Solid Section, elset=FUEL, material=FUEL_MATERIAL
,
*Solid Section, elset=CLAD, material=CLAD_MATERIAL
,
*Surface Interaction, name=FUEL_CLADDING_CONTACT
*Surface Behavior, pressure-overclosure=LINEAR
1e10
*Friction
0.002
*Gap Conductance
4000, 0
4000, 1e-6
3960.396039603961, 1.01e-06
3921.568627450981, 1.02e-06
3883.495145631069, 1.03e-06
3846.153846153846, 1.04e-06
3809.52380952381, 1.05e-06
3773.584905660377, 1.06e-06
3738.317757009346, 1.07e-06
3703.703703703703, 1.08e-06
3669.724770642202, 1.09e-06
3636.363636363636, 1.1e-06
3603.603603603604, 1.11e-06
3571.428571428572, 1.12e-06
3539.823008849557, 1.13e-06
3508.771929824562, 1.14e-06
3478.260869565217, 1.15e-06
3448.275862068966, 1.16e-06
3418.803418803419, 1.17e-06
3389.830508474577, 1.18e-06
3361.344537815126, 1.19e-06
3333.333333333333, 1.2e-06
3305.785123966943, 1.21e-06
3278.688524590164, 1.22e-06
3252.032520325204, 1.23e-06
3225.806451612903, 1.24e-06
3200, 1.25e-06
3174.603174603174, 1.26e-06
3149.606299212599, 1.27e-06
3125, 1.28e-06
3100.77519379845, 1.29e-06
3076.923076923078, 1.3e-06
3053.435114503817, 1.31e-06
3030.30303030303, 1.32e-06
3007.518796992481, 1.33e-06
2985.074626865672, 1.34e-06
2962.962962962963, 1.35e-06
2941.176470588236, 1.36e-06
2919.70802919708, 1.37e-06
2898.550724637681, 1.38e-06
2877.697841726619, 1.39e-06
2857.142857142857, 1.4e-06
2836.879432624114, 1.41e-06
2816.901408450704, 1.42e-06
2797.202797202798, 1.43e-06
2777.777777777778, 1.44e-06
2758.620689655172, 1.45e-06
2739.72602739726, 1.46e-06
2721.08843537415, 1.47e-06
2702.702702702703, 1.48e-06
2684.563758389262, 1.49e-06
2666.666666666667, 1.5e-06
2649.006622516556, 1.51e-06
2631.578947368421, 1.52e-06
2614.379084967321, 1.53e-06
2597.402597402597, 1.54e-06
2580.645161290322, 1.55e-06
2564.102564102564, 1.56e-06
2547.770700636943, 1.57e-06
2531.645569620253, 1.58e-06
2515.723270440252, 1.59e-06
2500, 1.6e-06
2484.472049689442, 1.61e-06
2469.135802469136, 1.62e-06
2453.98773006135, 1.63e-06
2439.024390243902, 1.64e-06
2424.242424242424, 1.65e-06
2409.638554216868, 1.66e-06
2395.209580838323, 1.67e-06
2380.952380952381, 1.68e-06
2366.863905325444, 1.69e-06
2352.941176470589, 1.7e-06
2339.181286549708, 1.71e-06
2325.581395348837, 1.72e-06
2312.1387283237, 1.73e-06
2298.850574712644, 1.74e-06
2285.714285714286, 1.75e-06
2272.727272727273, 1.76e-06
2259.887005649718, 1.77e-06
2247.191011235955, 1.78e-06
2234.63687150838, 1.79e-06
2222.222222222222, 1.8e-06
2209.944751381216, 1.81e-06
2197.802197802198, 1.82e-06
2185.792349726776, 1.83e-06
2173.913043478261, 1.84e-06
2162.162162162162, 1.85e-06
2150.537634408602, 1.86e-06
2139.03743315508, 1.87e-06
2127.659574468085, 1.88e-06
2116.402116402116, 1.89e-06
2105.263157894737, 1.9e-06
2094.240837696335, 1.91e-06
2083.333333333333, 1.92e-06
2072.538860103627, 1.93e-06
2061.855670103093, 1.94e-06
2051.282051282051, 1.95e-06
2040.816326530613, 1.96e-06
2030.456852791878, 1.97e-06
2020.202020202021, 1.98e-06
2010.050251256281, 1.99e-06
2000, 2e-06
1990.049751243781, 2.01e-06
1980.19801980198, 2.02e-06
1970.443349753695, 2.03e-06
1960.78431372549, 2.04e-06
1951.219512195122, 2.05e-06
1941.747572815534, 2.06e-06
1932.367149758454, 2.07e-06
1923.076923076923, 2.08e-06
1913.875598086124, 2.09e-06
1904.761904761905, 2.1e-06
1895.734597156398, 2.11e-06
1886.792452830189, 2.12e-06
1877.93427230047, 2.13e-06
1869.158878504673, 2.14e-06
1860.46511627907, 2.15e-06
1851.851851851852, 2.16e-06
1843.317972350231, 2.17e-06
1834.862385321101, 2.18e-06
1826.48401826484, 2.19e-06
1818.181818181818, 2.2e-06
1809.954751131222, 2.21e-06
1801.801801801802, 2.22e-06
1793.721973094171, 2.23e-06
1785.714285714286, 2.24e-06
1777.777777777778, 2.25e-06
1769.911504424779, 2.26e-06
1762.114537444934, 2.27e-06
1754.385964912281, 2.28e-06
1746.724890829694, 2.29e-06
1739.130434782609, 2.3e-06
1731.601731601732, 2.31e-06
1724.137931034483, 2.32e-06
1716.738197424893, 2.33e-06
1709.401709401709, 2.34e-06
1702.127659574468, 2.35e-06
1694.915254237288, 2.36e-06
1687.763713080169, 2.37e-06
1680.672268907563, 2.38e-06
1673.640167364017, 2.39e-06
1666.666666666667, 2.4e-06
1659.751037344399, 2.41e-06
1652.892561983471, 2.42e-06
1646.090534979424, 2.43e-06
1639.344262295082, 2.44e-06
1632.65306122449, 2.45e-06
1626.016260162602, 2.46e-06
1619.433198380567, 2.47e-06
1612.903225806452, 2.48e-06
1606.425702811245, 2.49e-06
1600, 2.5e-06
1593.625498007968, 2.51e-06
1587.301587301587, 2.52e-06
1581.02766798419, 2.53e-06
1574.803149606299, 2.54e-06
1568.627450980392, 2.55e-06
1562.5, 2.56e-06
1556.420233463035, 2.57e-06
1550.387596899225, 2.58e-06
1544.401544401544, 2.59e-06
1538.461538461539, 2.6e-06
1532.567049808429, 2.61e-06
1526.717557251908, 2.62e-06
1520.912547528517, 2.63e-06
1515.151515151515, 2.64e-06
1509.433962264151, 2.65e-06
1503.759398496241, 2.66e-06
1498.12734082397, 2.67e-06
1492.537313432836, 2.68e-06
1486.988847583643, 2.69e-06
1481.481481481482, 2.7e-06
1476.014760147601, 2.71e-06
1470.588235294118, 2.72e-06
1465.201465201465, 2.73e-06
1459.85401459854, 2.74e-06
1454.545454545455, 2.75e-06
1449.275362318841, 2.76e-06
1444.043321299639, 2.77e-06
1438.848920863309, 2.78e-06
1433.691756272402, 2.79e-06
1428.571428571428, 2.8e-06
1423.487544483986, 2.81e-06
1418.439716312057, 2.82e-06
1413.427561837456, 2.83e-06
1408.450704225352, 2.84e-06
1403.508771929825, 2.85e-06
1398.601398601399, 2.86e-06
1393.728222996516, 2.87e-06
1388.888888888889, 2.88e-06
1384.083044982699, 2.89e-06
1379.310344827586, 2.9e-06
1374.570446735395, 2.91e-06
1369.86301369863, 2.92e-06
1365.18771331058, 2.93e-06
1360.544217687075, 2.94e-06
1355.932203389831, 2.95e-06
1351.351351351351, 2.96e-06
1346.801346801347, 2.97e-06
1342.281879194631, 2.98e-06
1337.792642140468, 2.99e-06
1333.333333333333, 3e-06
1328.90365448505, 3.01e-06
1324.503311258278, 3.02e-06
1320.13201320132, 3.03e-06
1315.789473684211, 3.04e-06
1311.475409836066, 3.05e-06
1307.18954248366, 3.06e-06
1302.931596091205, 3.07e-06
1298.701298701299, 3.08e-06
1294.498381877023, 3.09e-06
1290.322580645161, 3.1e-06
1286.173633440515, 3.11e-06
1282.051282051282, 3.12e-06
1277.955271565495, 3.13e-06
1273.885350318472, 3.14e-06
1269.84126984127, 3.15e-06
1265.822784810126, 3.16e-06
1261.829652996845, 3.17e-06
1257.861635220126, 3.18e-06
1253.918495297806, 3.19e-06
1250, 3.2e-06
1246.105919003115, 3.21e-06
1242.236024844721, 3.22e-06
1238.390092879257, 3.23e-06
1234.567901234568, 3.24e-06
1230.769230769231, 3.25e-06
1226.993865030675, 3.26e-06
1223.241590214067, 3.27e-06
1219.512195121951, 3.28e-06
1215.80547112462, 3.29e-06
1212.121212121212, 3.3e-06
1208.459214501511, 3.31e-06
1204.819277108434, 3.32e-06
1201.201201201201, 3.33e-06
1197.604790419162, 3.34e-06
1194.029850746269, 3.35e-06
1190.476190476191, 3.36e-06
1186.943620178042, 3.37e-06
1183.431952662722, 3.38e-06
1179.941002949853, 3.39e-06
1176.470588235294, 3.4e-06
1173.020527859238, 3.41e-06
1169.590643274854, 3.42e-06
1166.180758017493, 3.43e-06
1162.790697674419, 3.44e-06
1159.420289855072, 3.45e-06
1156.06936416185, 3.46e-06
1152.737752161383, 3.47e-06
1149.425287356322, 3.48e-06
1146.131805157593, 3.49e-06
1142.857142857143, 3.5e-06
1139.601139601139, 3.51e-06
1136.363636363636, 3.52e-06
1133.14447592068, 3.53e-06
1129.943502824859, 3.54e-06
1126.760563380282, 3.55e-06
1123.595505617978, 3.56e-06
1120.448179271709, 3.57e-06
1117.31843575419, 3.58e-06
1114.206128133705, 3.59e-06
1111.111111111111, 3.6e-06
1108.03324099723, 3.61e-06
1104.972375690608, 3.62e-06
1101.928374655647, 3.63e-06
1098.901098901099, 3.64e-06
1095.890410958904, 3.65e-06
1092.896174863388, 3.66e-06
1089.91825613079, 3.67e-06
1086.95652173913, 3.68e-06
1084.010840108401, 3.69e-06
1081.081081081081, 3.7e-06
1078.167115902965, 3.71e-06
1075.268817204301, 3.72e-06
1072.386058981233, 3.73e-06
1069.51871657754, 3.74e-06
1066.666666666667, 3.75e-06
1063.829787234042, 3.76e-06
1061.007957559682, 3.77e-06
1058.201058201058, 3.78e-06
1055.408970976253, 3.79e-06
1052.631578947368, 3.8e-06
1049.8687664042, 3.81e-06
1047.120418848168, 3.82e-06
1044.386422976501, 3.83e-06
1041.666666666667, 3.84e-06
1038.961038961039, 3.85e-06
1036.269430051814, 3.86e-06
1033.59173126615, 3.87e-06
1030.927835051546, 3.88e-06
1028.27763496144, 3.89e-06
1025.641025641026, 3.9e-06
1023.017902813299, 3.91e-06
1020.408163265306, 3.92e-06
1017.811704834606, 3.93e-06
1015.228426395939, 3.94e-06
1012.658227848101, 3.95e-06
1010.10101010101, 3.96e-06
1007.556675062972, 3.97e-06
1005.025125628141, 3.98e-06
1002.50626566416, 3.99e-06
1000, 4e-06
997.5062344139652, 4.01e-06
995.0248756218907, 4.02e-06
992.5558312655086, 4.03e-06
990.09900990099, 4.04e-06
987.6543209876543, 4.05e-06
985.2216748768473, 4.06e-06
982.8009828009829, 4.07e-06
980.3921568627452, 4.08e-06
977.9951100244499, 4.09e-06
975.6097560975611, 4.1e-06
973.2360097323602, 4.11e-06
970.8737864077669, 4.12e-06
968.5230024213074, 4.13e-06
966.1835748792271, 4.14e-06
963.855421686747, 4.15e-06
961.5384615384615, 4.16e-06
959.232613908873, 4.17e-06
956.9377990430622, 4.18e-06
954.6539379474941, 4.19e-06
952.3809523809525, 4.2e-06
950.1187648456056, 4.21e-06
947.867298578199, 4.22e-06
945.6264775413712, 4.23e-06
943.3962264150944, 4.24e-06
941.1764705882354, 4.25e-06
938.9671361502348, 4.26e-06
936.768149882904, 4.27e-06
934.5794392523366, 4.28e-06
932.4009324009323, 4.29e-06
930.2325581395348, 4.3e-06
928.0742459396752, 4.31e-06
925.9259259259259, 4.32e-06
923.7875288683603, 4.33e-06
921.6589861751153, 4.34e-06
919.5402298850576, 4.35e-06
917.4311926605506, 4.36e-06
915.3318077803204, 4.37e-06
913.24200913242, 4.38e-06
911.1617312072892, 4.39e-06
909.090909090909, 4.4e-06
907.0294784580499, 4.41e-06
904.9773755656108, 4.42e-06
902.9345372460497, 4.43e-06
900.900900900901, 4.44e-06
898.8764044943821, 4.45e-06
896.8609865470853, 4.46e-06
894.8545861297539, 4.47e-06
892.8571428571428, 4.48e-06
890.8685968819599, 4.49e-06
888.8888888888889, 4.5e-06
886.9179600886918, 4.51e-06
884.9557522123894, 4.52e-06
883.0022075055189, 4.53e-06
881.057268722467, 4.54e-06
879.1208791208792, 4.55e-06
877.1929824561403, 4.56e-06
875.27352297593, 4.57e-06
873.3624454148471, 4.58e-06
871.4596949891068, 4.59e-06
869.5652173913044, 4.6e-06
867.6789587852495, 4.61e-06
865.8008658008658, 4.62e-06
863.9308855291578, 4.63e-06
862.0689655172415, 4.64e-06
860.2150537634408, 4.65e-06
858.3690987124463, 4.66e-06
856.5310492505353, 4.67e-06
854.7008547008547, 4.68e-06
852.8784648187633, 4.69e-06
851.0638297872341, 4.7e-06
849.2569002123142, 4.71e-06
847.4576271186442, 4.72e-06
845.6659619450317, 4.73e-06
843.8818565400843, 4.74e-06
842.1052631578947, 4.75e-06
840.3361344537815, 4.76e-06
838.5744234800839, 4.77e-06
836.8200836820084, 4.78e-06
835.0730688935282, 4.79e-06
833.3333333333334, 4.8e-06
831.6008316008317, 4.81e-06
829.8755186721993, 4.82e-06
828.1573498964805, 4.829999999999999e-06
826.4462809917355, 4.84e-06
824.7422680412371, 4.85e-06
823.0452674897119, 4.86e-06
821.3552361396304, 4.87e-06
819.672131147541, 4.88e-06
817.99591002045, 4.89e-06
816.3265306122449, 4.9e-06
814.663951120163, 4.91e-06
813.0081300813009, 4.919999999999999e-06
811.3590263691683, 4.93e-06
809.7165991902834, 4.94e-06
808.0808080808081, 4.95e-06
806.4516129032259, 4.96e-06
804.8289738430584, 4.97e-06
803.2128514056226, 4.98e-06
801.6032064128257, 4.99e-06
800.0000000000001, 5e-06
798.4031936127745, 5.009999999999999e-06
796.8127490039841, 5.02e-06
795.2286282306163, 5.03e-06
793.6507936507936, 5.04e-06
792.0792079207921, 5.05e-06
790.5138339920949, 5.06e-06
788.9546351084813, 5.07e-06
787.4015748031496, 5.08e-06
785.8546168958743, 5.09e-06
784.3137254901961, 5.099999999999999e-06
782.7788649706458, 5.11e-06
781.25, 5.12e-06
779.7270955165692, 5.13e-06
778.2101167315176, 5.14e-06
776.6990291262136, 5.15e-06
775.1937984496125, 5.16e-06
773.6943907156674, 5.17e-06
772.2007722007722, 5.18e-06
770.7129094412333, 5.189999999999999e-06
769.2307692307692, 5.2e-06
767.7543186180422, 5.21e-06
766.2835249042146, 5.22e-06
764.8183556405354, 5.23e-06
763.3587786259542, 5.24e-06
761.9047619047619, 5.25e-06
760.4562737642586, 5.26e-06
759.0132827324479, 5.27e-06
757.5757575757576, 5.279999999999999e-06
756.1436672967864, 5.29e-06
754.7169811320755, 5.3e-06
753.2956685499058, 5.31e-06
751.8796992481203, 5.32e-06
750.46904315197, 5.33e-06
749.0636704119851, 5.34e-06
747.6635514018692, 5.35e-06
746.268656716418, 5.36e-06
744.8789571694599, 5.37e-06
743.4944237918215, 5.38e-06
742.1150278293136, 5.39e-06
740.7407407407408, 5.4e-06
739.3715341959335, 5.41e-06
738.0073800738007, 5.42e-06
736.6482504604052, 5.43e-06
735.2941176470589, 5.44e-06
733.9449541284405, 5.449999999999999e-06
732.6007326007326, 5.46e-06
731.2614259597806, 5.47e-06
729.92700729927, 5.48e-06
728.5974499089253, 5.49e-06
727.2727272727273, 5.5e-06
725.9528130671507, 5.51e-06
724.6376811594204, 5.52e-06
723.3273056057867, 5.53e-06
722.0216606498195, 5.539999999999999e-06
720.7207207207207, 5.55e-06
719.4244604316547, 5.56e-06
718.132854578097, 5.57e-06
716.8458781362008, 5.58e-06
715.5635062611807, 5.59e-06
714.2857142857143, 5.6e-06
713.0124777183602, 5.61e-06
711.7437722419929, 5.62e-06
710.4795737122558, 5.629999999999999e-06
709.2198581560284, 5.64e-06
707.9646017699115, 5.65e-06
706.7137809187279, 5.66e-06
705.4673721340388, 5.67e-06
704.2253521126761, 5.68e-06
702.98769771529, 5.69e-06
701.7543859649123, 5.7e-06
700.5253940455342, 5.71e-06
699.3006993006994, 5.719999999999999e-06
698.0802792321117, 5.73e-06
696.8641114982579, 5.74e-06
695.6521739130435, 5.75e-06
694.4444444444445, 5.76e-06
693.2409012131716, 5.77e-06
692.0415224913495, 5.78e-06
690.846286701209, 5.79e-06
689.6551724137931, 5.8e-06
688.4681583476765, 5.809999999999999e-06
687.2852233676975, 5.82e-06
686.106346483705, 5.83e-06
684.931506849315, 5.84e-06
683.7606837606838, 5.85e-06
682.5938566552901, 5.86e-06
681.4310051107326, 5.87e-06
680.2721088435375, 5.88e-06
679.1171477079797, 5.89e-06
677.9661016949152, 5.9e-06
676.8189509306261, 5.91e-06
675.6756756756757, 5.92e-06
674.5362563237774, 5.93e-06
673.4006734006734, 5.94e-06
672.2689075630252, 5.95e-06
671.1409395973155, 5.96e-06
670.0167504187606, 5.97e-06
668.8963210702342, 5.979999999999999e-06
667.779632721202, 5.99e-06
666.6666666666666, 6e-06
665.5574043261231, 6.01e-06
664.4518272425249, 6.02e-06
663.3499170812604, 6.03e-06
662.2516556291391, 6.04e-06
661.1570247933885, 6.05e-06
660.0660066006601, 6.06e-06
658.9785831960462, 6.069999999999999e-06
657.8947368421052, 6.08e-06
656.8144499178982, 6.09e-06
655.7377049180328, 6.1e-06
654.6644844517185, 6.11e-06
653.5947712418301, 6.12e-06
652.5285481239805, 6.13e-06
651.4657980456027, 6.14e-06
650.4065040650407, 6.15e-06
649.3506493506494, 6.159999999999999e-06
648.2982171799027, 6.17e-06
647.2491909385113, 6.18e-06
646.2035541195477, 6.19e-06
645.1612903225806, 6.2e-06
644.1223832528181, 6.21e-06
643.0868167202573, 6.22e-06
642.0545746388443, 6.23e-06
641.0256410256411, 6.24e-06
640.0000000000001, 6.249999999999999e-06
638.9776357827476, 6.26e-06
637.9585326953749, 6.27e-06
636.9426751592357, 6.28e-06
635.9300476947536, 6.29e-06
634.9206349206349, 6.3e-06
633.9144215530904, 6.31e-06
632.9113924050633, 6.32e-06
631.9115323854661, 6.33e-06
630.9148264984228, 6.339999999999999e-06
629.9212598425197, 6.35e-06
628.9308176100629, 6.36e-06
627.9434850863422, 6.37e-06
626.9592476489029, 6.38e-06
625.9780907668232, 6.39e-06
625, 6.4e-06
624.02496099844, 6.41e-06
623.0529595015577, 6.42e-06
622.0839813374805, 6.43e-06
621.1180124223603, 6.44e-06
620.1550387596899, 6.45e-06
619.1950464396285, 6.46e-06
618.2380216383308, 6.47e-06
617.2839506172839, 6.48e-06
616.3328197226502, 6.49e-06
615.3846153846155, 6.5e-06
614.4393241167435, 6.51e-06
613.4969325153374, 6.52e-06
612.5574272588055, 6.53e-06
611.6207951070337, 6.54e-06
610.6870229007634, 6.55e-06
609.7560975609756, 6.56e-06
608.8280060882801, 6.57e-06
607.9027355623101, 6.58e-06
606.980273141123, 6.59e-06
606.0606060606061, 6.599999999999999e-06
605.143721633888, 6.61e-06
604.2296072507553, 6.62e-06
603.3182503770739, 6.63e-06
602.4096385542169, 6.64e-06
601.5037593984963, 6.65e-06
600.6006006006006, 6.66e-06
599.7001499250375, 6.67e-06
598.8023952095809, 6.68e-06
597.9073243647235, 6.689999999999999e-06
597.0149253731344, 6.7e-06
596.1251862891207, 6.71e-06
595.2380952380953, 6.72e-06
594.3536404160476, 6.73e-06
593.4718100890208, 6.74e-06
592.5925925925926, 6.75e-06
591.7159763313609, 6.76e-06
590.8419497784344, 6.77e-06
589.9705014749263, 6.779999999999999e-06
589.101620029455, 6.79e-06
588.2352941176471, 6.8e-06
587.3715124816447, 6.81e-06
586.5102639296188, 6.82e-06
585.6515373352855, 6.83e-06
584.7953216374269, 6.84e-06
583.9416058394161, 6.85e-06
583.0903790087464, 6.86e-06
582.2416302765648, 6.869999999999999e-06
581.3953488372093, 6.88e-06
580.5515239477504, 6.89e-06
579.7101449275362, 6.9e-06
578.8712011577425, 6.91e-06
578.0346820809249, 6.92e-06
577.2005772005772, 6.93e-06
576.3688760806917, 6.94e-06
575.5395683453238, 6.95e-06
574.7126436781609, 6.96e-06
573.8880918220947, 6.97e-06
573.0659025787966, 6.98e-06
572.2460658082975, 6.99e-06
571.4285714285714, 7e-06
570.6134094151213, 7.01e-06
569.8005698005699, 7.02e-06
568.9900426742532, 7.03e-06
568.1818181818182, 7.04e-06
567.3758865248227, 7.05e-06
566.57223796034, 7.06e-06
565.7708628005657, 7.07e-06
564.9717514124294, 7.08e-06
564.1748942172073, 7.09e-06
563.3802816901409, 7.1e-06
562.5879043600563, 7.11e-06
561.7977528089888, 7.12e-06
561.0098176718093, 7.129999999999999e-06
560.2240896358543, 7.14e-06
559.4405594405595, 7.15e-06
558.659217877095, 7.16e-06
557.8800557880056, 7.17e-06
557.1030640668524, 7.18e-06
556.3282336578582, 7.19e-06
555.5555555555555, 7.2e-06
554.7850208044383, 7.21e-06
554.016620498615, 7.219999999999999e-06
553.2503457814661, 7.23e-06
552.4861878453039, 7.24e-06
551.7241379310345, 7.25e-06
550.9641873278237, 7.26e-06
550.2063273727648, 7.27e-06
549.4505494505495, 7.28e-06
548.6968449931413, 7.29e-06
547.9452054794521, 7.3e-06
547.1956224350206, 7.309999999999999e-06
546.448087431694, 7.32e-06
545.7025920873124, 7.33e-06
544.9591280653951, 7.34e-06
544.21768707483, 7.35e-06
543.4782608695652, 7.36e-06
542.7408412483039, 7.37e-06
542.0054200542006, 7.38e-06
541.2719891745603, 7.39e-06
540.5405405405406, 7.399999999999999e-06
539.8110661268556, 7.41e-06
539.0835579514825, 7.42e-06
538.3580080753701, 7.43e-06
537.6344086021505, 7.44e-06
536.9127516778524, 7.45e-06
536.1930294906167, 7.46e-06
535.4752342704151, 7.47e-06
534.75935828877, 7.48e-06
534.045393858478, 7.49e-06
533.3333333333334, 7.5e-06
532.6231691078561, 7.51e-06
531.9148936170213, 7.52e-06
531.2084993359894, 7.53e-06
530.5039787798408, 7.54e-06
529.8013245033113, 7.55e-06
529.1005291005291, 7.56e-06
528.4015852047556, 7.57e-06
527.7044854881267, 7.58e-06
527.0092226613966, 7.59e-06
526.3157894736842, 7.6e-06
525.6241787122208, 7.61e-06
524.9343832020998, 7.62e-06
524.2463958060289, 7.63e-06
523.5602094240838, 7.64e-06
522.8758169934641, 7.65e-06
522.1932114882507, 7.66e-06
521.5123859191655, 7.670000000000001e-06
520.8333333333333, 7.680000000000001e-06
520.1560468140442, 7.690000000000001e-06
519.4805194805194, 7.700000000000001e-06
518.8067444876783, 7.710000000000001e-06
518.1347150259068, 7.720000000000001e-06
517.4644243208279, 7.730000000000001e-06
516.7958656330749, 7.74e-06
516.1290322580645, 7.75e-06
515.4639175257732, 7.76e-06
514.8005148005147, 7.77e-06
514.1388174807198, 7.78e-06
513.4788189987163, 7.79e-06
512.8205128205128, 7.8e-06
512.1638924455826, 7.81e-06
511.5089514066497, 7.82e-06
510.8556832694764, 7.83e-06
510.2040816326531, 7.839999999999999e-06
509.5541401273885, 7.850000000000001e-06
508.9058524173028, 7.860000000000001e-06
508.2592121982211, 7.870000000000001e-06
507.6142131979695, 7.880000000000001e-06
506.9708491761724, 7.890000000000001e-06
506.3291139240506, 7.900000000000001e-06
505.6890012642225, 7.91e-06
505.050505050505, 7.92e-06
504.4136191677175, 7.93e-06
503.7783375314862, 7.94e-06
503.1446540880503, 7.95e-06
502.5125628140703, 7.96e-06
501.8820577164366, 7.97e-06
501.2531328320802, 7.98e-06
500.6257822277848, 7.99e-06
500.0000000000001, 8e-06
499.3757802746567, 8.01e-06
498.7531172069825, 8.020000000000001e-06
498.13200498132, 8.030000000000001e-06
497.5124378109452, 8.040000000000001e-06
496.8944099378882, 8.050000000000001e-06
496.2779156327543, 8.060000000000001e-06
495.6629491945477, 8.070000000000001e-06
495.049504950495, 8.080000000000001e-06
494.4375772558714, 8.09e-06
493.8271604938271, 8.1e-06
493.2182490752158, 8.11e-06
492.6108374384236, 8.12e-06
492.0049200492005, 8.13e-06
491.4004914004914, 8.14e-06
490.7975460122699, 8.15e-06
490.1960784313726, 8.16e-06
489.5960832313342, 8.17e-06
488.997555012225, 8.18e-06
488.4004884004884, 8.19e-06
487.8048780487804, 8.200000000000001e-06
487.2107186358099, 8.210000000000001e-06
486.61800486618, 8.220000000000001e-06
486.0267314702308, 8.230000000000001e-06
485.4368932038835, 8.240000000000001e-06
484.8484848484848, 8.250000000000001e-06
484.2615012106537, 8.260000000000001e-06
483.6759371221282, 8.27e-06
483.0917874396135, 8.28e-06
482.5090470446321, 8.29e-06
481.9277108433735, 8.3e-06
481.3477737665463, 8.31e-06
480.7692307692308, 8.32e-06
480.1920768307323, 8.33e-06
479.6163069544365, 8.34e-06
479.0419161676647, 8.35e-06
478.4688995215311, 8.36e-06
477.8972520908005, 8.369999999999999e-06
477.3269689737469, 8.380000000000001e-06
476.7580452920142, 8.390000000000001e-06
476.1904761904761, 8.400000000000001e-06
475.6242568370986, 8.410000000000001e-06
475.0593824228028, 8.420000000000001e-06
474.4958481613286, 8.430000000000001e-06
473.9336492890995, 8.440000000000001e-06
473.3727810650888, 8.45e-06
472.8132387706856, 8.46e-06
472.2550177095632, 8.47e-06
471.6981132075472, 8.48e-06
471.1425206124853, 8.49e-06
470.5882352941177, 8.5e-06
470.0352526439483, 8.51e-06
469.4835680751174, 8.52e-06
468.9331770222744, 8.53e-06
468.384074941452, 8.54e-06
467.8362573099415, 8.550000000000001e-06
467.2897196261682, 8.560000000000001e-06
466.7444574095682, 8.570000000000001e-06
466.2004662004662, 8.580000000000001e-06
465.6577415599534, 8.590000000000001e-06
465.1162790697674, 8.600000000000001e-06
464.5760743321719, 8.610000000000001e-06
464.0371229698376, 8.62e-06
463.4994206257242, 8.63e-06
462.9629629629629, 8.64e-06
462.4277456647399, 8.65e-06
461.8937644341801, 8.66e-06
461.361014994233, 8.67e-06
460.8294930875575, 8.680000000000002e-06
460.2991944764096, 8.690000000000002e-06
459.7701149425287, 8.700000000000001e-06
459.2422502870264, 8.710000000000001e-06
458.7155963302752, 8.720000000000001e-06
458.1901489117984, 8.730000000000001e-06
457.6659038901602, 8.740000000000001e-06
457.1428571428571, 8.750000000000001e-06
456.62100456621, 8.760000000000001e-06
456.1003420752565, 8.770000000000001e-06
455.5808656036446, 8.780000000000001e-06
455.0625711035267, 8.790000000000001e-06
454.5454545454545, 8.8e-06
454.0295119182747, 8.81e-06
453.5147392290249, 8.82e-06
453.0011325028312, 8.83e-06
452.4886877828054, 8.84e-06
451.9774011299435, 8.85e-06
451.4672686230248, 8.860000000000002e-06
450.9582863585118, 8.870000000000001e-06
450.4504504504504, 8.880000000000001e-06
449.9437570303712, 8.890000000000001e-06
449.438202247191, 8.900000000000001e-06
448.9337822671155, 8.910000000000001e-06
448.4304932735425, 8.920000000000001e-06
447.9283314669652, 8.930000000000001e-06
447.4272930648769, 8.940000000000001e-06
446.927374301676, 8.950000000000001e-06
446.4285714285714, 8.960000000000001e-06
445.9308807134894, 8.970000000000001e-06
445.4342984409799, 8.98e-06
444.9388209121246, 8.99e-06
444.4444444444445, 9e-06
443.9511653718091, 9.01e-06
443.4589800443459, 9.02e-06
442.96788482835, 9.03e-06
442.4778761061946, 9.040000000000002e-06
441.988950276243, 9.050000000000001e-06
441.5011037527593, 9.060000000000001e-06
441.0143329658213, 9.070000000000001e-06
440.5286343612335, 9.080000000000001e-06
440.04400440044, 9.090000000000001e-06
439.5604395604395, 9.100000000000001e-06
439.0779363336992, 9.110000000000001e-06
438.5964912280701, 9.120000000000001e-06
438.1161007667031, 9.130000000000001e-06
437.636761487965, 9.140000000000001e-06
437.1584699453552, 9.15e-06
436.6812227074236, 9.16e-06
436.2050163576881, 9.17e-06
435.7298474945534, 9.18e-06
435.2557127312296, 9.19e-06
434.7826086956522, 9.2e-06
434.3105320304016, 9.210000000000002e-06
433.8394793926246, 9.220000000000002e-06
433.3694474539544, 9.230000000000001e-06
432.9004329004329, 9.240000000000001e-06
432.4324324324324, 9.250000000000001e-06
431.9654427645788, 9.260000000000001e-06
431.4994606256742, 9.270000000000001e-06
431.0344827586206, 9.280000000000001e-06
430.5705059203444, 9.290000000000001e-06
430.1075268817204, 9.300000000000001e-06
429.6455424274973, 9.310000000000001e-06
429.1845493562232, 9.320000000000001e-06
428.7245444801715, 9.33e-06
428.2655246252676, 9.34e-06
427.807486631016, 9.35e-06
427.3504273504274, 9.36e-06
426.8943436499466, 9.37e-06
426.4392324093816, 9.38e-06
425.9850905218317, 9.390000000000002e-06
425.5319148936169, 9.400000000000001e-06
425.0797024442082, 9.410000000000001e-06
424.6284501061571, 9.420000000000001e-06
424.1781548250265, 9.430000000000001e-06
423.728813559322, 9.440000000000001e-06
423.2804232804232, 9.450000000000001e-06
422.8329809725158, 9.460000000000001e-06
422.3864836325237, 9.470000000000001e-06
421.9409282700421, 9.480000000000001e-06
421.4963119072708, 9.490000000000001e-06
421.0526315789473, 9.500000000000001e-06
420.6098843322818, 9.51e-06
420.1680672268907, 9.52e-06
419.7271773347324, 9.53e-06
419.2872117400419, 9.54e-06
418.848167539267, 9.55e-06
418.4100418410042, 9.56e-06
417.9728317659352, 9.570000000000002e-06
417.5365344467641, 9.580000000000001e-06
417.1011470281543, 9.590000000000001e-06
416.6666666666666, 9.600000000000001e-06
416.2330905306972, 9.610000000000001e-06
415.8004158004157, 9.620000000000001e-06
415.3686396677051, 9.630000000000001e-06
414.9377593360995, 9.640000000000001e-06
414.5077720207254, 9.650000000000001e-06
414.0786749482401, 9.660000000000001e-06
413.6504653567735, 9.670000000000001e-06
413.2231404958678, 9.68e-06
412.796697626419, 9.69e-06
412.3711340206186, 9.7e-06
411.9464469618949, 9.71e-06
411.522633744856, 9.72e-06
411.0996916752313, 9.73e-06
410.6776180698151, 9.740000000000002e-06
410.2564102564102, 9.750000000000002e-06
409.8360655737704, 9.760000000000001e-06
409.4165813715455, 9.770000000000001e-06
408.9979550102249, 9.780000000000001e-06
408.5801838610827, 9.790000000000001e-06
408.1632653061224, 9.800000000000001e-06
407.7471967380224, 9.810000000000001e-06
407.3319755600814, 9.820000000000001e-06
406.9175991861648, 9.830000000000001e-06
406.5040650406504, 9.840000000000001e-06
406.0913705583756, 9.850000000000001e-06
405.6795131845842, 9.86e-06
405.2684903748734, 9.87e-06
404.8582995951417, 9.88e-06
404.4489383215369, 9.89e-06
404.040404040404, 9.9e-06
403.6326942482341, 9.91e-06
403.2258064516129, 9.920000000000002e-06
402.8197381671702, 9.930000000000001e-06
402.4144869215291, 9.940000000000001e-06
402.0100502512562, 9.950000000000001e-06
401.6064257028112, 9.960000000000001e-06
401.2036108324975, 9.970000000000001e-06
400.8016032064128, 9.980000000000001e-06
400.4004004004004, 9.990000000000001e-06
400, 1e-05
200, 2e-05
80, 5e-05
40, 0.0001
8, 0.0005
4, 0.001
*Contact Pair, interaction=FUEL_CLADDING_CONTACT, type=SURFACE TO SURFACE, adjust=0.
FUEL_OUTER, CLAD_RMIN
*Amplitude, name=POWER_PATH, time=TOTAL TIME
0, 0, 0.2, 0.5, 0.5, 1, 0.8, 1.2
1, 1
*Amplitude, name=INTERNAL_PRESSURE_PATH, time=TOTAL TIME
0, 0, 0.2, 0.3, 0.5, 1, 0.8, 0.8
1, 1
*Amplitude, name=EXTERNAL_PRESSURE_PATH, time=TOTAL TIME
0, 0, 0.2, 0.8, 0.5, 1, 0.8, 1.2
1, 1
*Amplitude, name=FUEL_AXIAL_PATH, time=TOTAL TIME
0, 0, 0.2, 6e-05, 0.5, 0.0003, 0.8, 0.00048
1, 0.0005999999999999999
*Amplitude, name=CLAD_AXIAL_PATH, time=TOTAL TIME
0, 0, 0.2, 2e-06, 0.5, 1e-05, 0.8, 1.6e-05
1, 2e-05
*Initial Conditions, type=TEMPERATURE
ALL_NODES, 600
*Step, name=PATH, nlgeom=YES, inc=20
*Coupled Temperature-Displacement
0.05, 1, 0.05, 0.05
*Controls, parameters=FIELD, field=DISPLACEMENT
1e-10, 1e-10, , , , 1e-10
*Boundary
FUEL_BOTTOM, 1, 2, 0
CLAD_BOTTOM, 1, 3, 0
CLAD_RMAX, 11, 11, 600
*Boundary, amplitude=FUEL_AXIAL_PATH
FUEL_TOP, 3, 3, 1
*Boundary, amplitude=CLAD_AXIAL_PATH
CLAD_TOP, 3, 3, 1
*Dflux, amplitude=POWER_PATH
FUEL, BF, 2e7
*Dsload, follower=YES, amplitude=INTERNAL_PRESSURE_PATH
CLAD_RMIN, P, 5e5
*Dsload, follower=YES, amplitude=EXTERNAL_PRESSURE_PATH
CLAD_RMAX, P, 2e6
*Output, field, frequency=20
*Node Output
COORD, NT, RF, RFL, U
*Element Output, directions=YES
CEEQ, IVOL, PEEQ, S
*Contact Output
CDISP, CFORCE, CSTRESS, HFL
*Output, history, frequency=20
*Energy Output
ALLCD, ALLFD, ALLIE, ALLPD, ALLSE, ALLWK
*End Step
