*Heading
** B5.7 Abaqus/Standard temperature-dependent C3D8T lumped-capacity probe.
** Each state has a steady copy and a transient copy on the same distorted geometry.
** Their final reaction-flux difference isolates the transient capacity residual.
*Preprint, echo=NO, model=NO, history=NO, contact=NO
*Node
1, 0.0000000000000000e+00, 0.0000000000000000e+00, 0.0000000000000000e+00
2, 1.2000000000000000e+00, 1.0000000000000001e-01, -5.0000000000000003e-02
3, 1.1000000000000001e+00, 1.0000000000000000e+00, 1.0000000000000001e-01
4, -1.0000000000000001e-01, 9.0000000000000002e-01, 0.0000000000000000e+00
5, 5.0000000000000003e-02, -1.0000000000000001e-01, 1.0000000000000000e+00
6, 1.3000000000000000e+00, 0.0000000000000000e+00, 1.1000000000000001e+00
7, 1.0000000000000000e+00, 1.2000000000000000e+00, 9.0000000000000002e-01
8, -2.0000000000000001e-01, 1.0000000000000000e+00, 1.2000000000000000e+00
9, 3.0000000000000000e+00, 0.0000000000000000e+00, 0.0000000000000000e+00
10, 4.2000000000000002e+00, 1.0000000000000001e-01, -5.0000000000000003e-02
11, 4.0999999999999996e+00, 1.0000000000000000e+00, 1.0000000000000001e-01
12, 2.8999999999999999e+00, 9.0000000000000002e-01, 0.0000000000000000e+00
13, 3.0499999999999998e+00, -1.0000000000000001e-01, 1.0000000000000000e+00
14, 4.2999999999999998e+00, 0.0000000000000000e+00, 1.1000000000000001e+00
15, 4.0000000000000000e+00, 1.2000000000000000e+00, 9.0000000000000002e-01
16, 2.7999999999999998e+00, 1.0000000000000000e+00, 1.2000000000000000e+00
17, 6.0000000000000000e+00, 0.0000000000000000e+00, 0.0000000000000000e+00
18, 7.2000000000000002e+00, 1.0000000000000001e-01, -5.0000000000000003e-02
19, 7.0999999999999996e+00, 1.0000000000000000e+00, 1.0000000000000001e-01
20, 5.9000000000000004e+00, 9.0000000000000002e-01, 0.0000000000000000e+00
21, 6.0499999999999998e+00, -1.0000000000000001e-01, 1.0000000000000000e+00
22, 7.2999999999999998e+00, 0.0000000000000000e+00, 1.1000000000000001e+00
23, 7.0000000000000000e+00, 1.2000000000000000e+00, 9.0000000000000002e-01
24, 5.7999999999999998e+00, 1.0000000000000000e+00, 1.2000000000000000e+00
25, 9.0000000000000000e+00, 0.0000000000000000e+00, 0.0000000000000000e+00
26, 1.0199999999999999e+01, 1.0000000000000001e-01, -5.0000000000000003e-02
27, 1.0100000000000000e+01, 1.0000000000000000e+00, 1.0000000000000001e-01
28, 8.9000000000000004e+00, 9.0000000000000002e-01, 0.0000000000000000e+00
29, 9.0500000000000007e+00, -1.0000000000000001e-01, 1.0000000000000000e+00
30, 1.0300000000000001e+01, 0.0000000000000000e+00, 1.1000000000000001e+00
31, 1.0000000000000000e+01, 1.2000000000000000e+00, 9.0000000000000002e-01
32, 8.8000000000000007e+00, 1.0000000000000000e+00, 1.2000000000000000e+00
33, 1.2000000000000000e+01, 0.0000000000000000e+00, 0.0000000000000000e+00
34, 1.3199999999999999e+01, 1.0000000000000001e-01, -5.0000000000000003e-02
35, 1.3100000000000000e+01, 1.0000000000000000e+00, 1.0000000000000001e-01
36, 1.1900000000000000e+01, 9.0000000000000002e-01, 0.0000000000000000e+00
37, 1.2050000000000001e+01, -1.0000000000000001e-01, 1.0000000000000000e+00
38, 1.3300000000000001e+01, 0.0000000000000000e+00, 1.1000000000000001e+00
39, 1.3000000000000000e+01, 1.2000000000000000e+00, 9.0000000000000002e-01
40, 1.1800000000000001e+01, 1.0000000000000000e+00, 1.2000000000000000e+00
41, 1.5000000000000000e+01, 0.0000000000000000e+00, 0.0000000000000000e+00
42, 1.6199999999999999e+01, 1.0000000000000001e-01, -5.0000000000000003e-02
43, 1.6100000000000001e+01, 1.0000000000000000e+00, 1.0000000000000001e-01
44, 1.4900000000000000e+01, 9.0000000000000002e-01, 0.0000000000000000e+00
45, 1.5050000000000001e+01, -1.0000000000000001e-01, 1.0000000000000000e+00
46, 1.6300000000000001e+01, 0.0000000000000000e+00, 1.1000000000000001e+00
47, 1.6000000000000000e+01, 1.2000000000000000e+00, 9.0000000000000002e-01
48, 1.4800000000000001e+01, 1.0000000000000000e+00, 1.2000000000000000e+00
49, 1.8000000000000000e+01, 0.0000000000000000e+00, 0.0000000000000000e+00
50, 1.9199999999999999e+01, 1.0000000000000001e-01, -5.0000000000000003e-02
51, 1.9100000000000001e+01, 1.0000000000000000e+00, 1.0000000000000001e-01
52, 1.7899999999999999e+01, 9.0000000000000002e-01, 0.0000000000000000e+00
53, 1.8050000000000001e+01, -1.0000000000000001e-01, 1.0000000000000000e+00
54, 1.9300000000000001e+01, 0.0000000000000000e+00, 1.1000000000000001e+00
55, 1.9000000000000000e+01, 1.2000000000000000e+00, 9.0000000000000002e-01
56, 1.7800000000000001e+01, 1.0000000000000000e+00, 1.2000000000000000e+00
57, 2.1000000000000000e+01, 0.0000000000000000e+00, 0.0000000000000000e+00
58, 2.2199999999999999e+01, 1.0000000000000001e-01, -5.0000000000000003e-02
59, 2.2100000000000001e+01, 1.0000000000000000e+00, 1.0000000000000001e-01
60, 2.0899999999999999e+01, 9.0000000000000002e-01, 0.0000000000000000e+00
61, 2.1050000000000001e+01, -1.0000000000000001e-01, 1.0000000000000000e+00
62, 2.2300000000000001e+01, 0.0000000000000000e+00, 1.1000000000000001e+00
63, 2.2000000000000000e+01, 1.2000000000000000e+00, 9.0000000000000002e-01
64, 2.0800000000000001e+01, 1.0000000000000000e+00, 1.2000000000000000e+00
65, 2.4000000000000000e+01, 0.0000000000000000e+00, 0.0000000000000000e+00
66, 2.5199999999999999e+01, 1.0000000000000001e-01, -5.0000000000000003e-02
67, 2.5100000000000001e+01, 1.0000000000000000e+00, 1.0000000000000001e-01
68, 2.3899999999999999e+01, 9.0000000000000002e-01, 0.0000000000000000e+00
69, 2.4050000000000001e+01, -1.0000000000000001e-01, 1.0000000000000000e+00
70, 2.5300000000000001e+01, 0.0000000000000000e+00, 1.1000000000000001e+00
71, 2.5000000000000000e+01, 1.2000000000000000e+00, 9.0000000000000002e-01
72, 2.3800000000000001e+01, 1.0000000000000000e+00, 1.2000000000000000e+00
73, 0.0000000000000000e+00, 3.0000000000000000e+00, 0.0000000000000000e+00
74, 1.2000000000000000e+00, 3.1000000000000001e+00, -5.0000000000000003e-02
75, 1.1000000000000001e+00, 4.0000000000000000e+00, 1.0000000000000001e-01
76, -1.0000000000000001e-01, 3.8999999999999999e+00, 0.0000000000000000e+00
77, 5.0000000000000003e-02, 2.8999999999999999e+00, 1.0000000000000000e+00
78, 1.3000000000000000e+00, 3.0000000000000000e+00, 1.1000000000000001e+00
79, 1.0000000000000000e+00, 4.2000000000000002e+00, 9.0000000000000002e-01
80, -2.0000000000000001e-01, 4.0000000000000000e+00, 1.2000000000000000e+00
81, 3.0000000000000000e+00, 3.0000000000000000e+00, 0.0000000000000000e+00
82, 4.2000000000000002e+00, 3.1000000000000001e+00, -5.0000000000000003e-02
83, 4.0999999999999996e+00, 4.0000000000000000e+00, 1.0000000000000001e-01
84, 2.8999999999999999e+00, 3.8999999999999999e+00, 0.0000000000000000e+00
85, 3.0499999999999998e+00, 2.8999999999999999e+00, 1.0000000000000000e+00
86, 4.2999999999999998e+00, 3.0000000000000000e+00, 1.1000000000000001e+00
87, 4.0000000000000000e+00, 4.2000000000000002e+00, 9.0000000000000002e-01
88, 2.7999999999999998e+00, 4.0000000000000000e+00, 1.2000000000000000e+00
89, 6.0000000000000000e+00, 3.0000000000000000e+00, 0.0000000000000000e+00
90, 7.2000000000000002e+00, 3.1000000000000001e+00, -5.0000000000000003e-02
91, 7.0999999999999996e+00, 4.0000000000000000e+00, 1.0000000000000001e-01
92, 5.9000000000000004e+00, 3.8999999999999999e+00, 0.0000000000000000e+00
93, 6.0499999999999998e+00, 2.8999999999999999e+00, 1.0000000000000000e+00
94, 7.2999999999999998e+00, 3.0000000000000000e+00, 1.1000000000000001e+00
95, 7.0000000000000000e+00, 4.2000000000000002e+00, 9.0000000000000002e-01
96, 5.7999999999999998e+00, 4.0000000000000000e+00, 1.2000000000000000e+00
97, 9.0000000000000000e+00, 3.0000000000000000e+00, 0.0000000000000000e+00
98, 1.0199999999999999e+01, 3.1000000000000001e+00, -5.0000000000000003e-02
99, 1.0100000000000000e+01, 4.0000000000000000e+00, 1.0000000000000001e-01
100, 8.9000000000000004e+00, 3.8999999999999999e+00, 0.0000000000000000e+00
101, 9.0500000000000007e+00, 2.8999999999999999e+00, 1.0000000000000000e+00
102, 1.0300000000000001e+01, 3.0000000000000000e+00, 1.1000000000000001e+00
103, 1.0000000000000000e+01, 4.2000000000000002e+00, 9.0000000000000002e-01
104, 8.8000000000000007e+00, 4.0000000000000000e+00, 1.2000000000000000e+00
105, 1.2000000000000000e+01, 3.0000000000000000e+00, 0.0000000000000000e+00
106, 1.3199999999999999e+01, 3.1000000000000001e+00, -5.0000000000000003e-02
107, 1.3100000000000000e+01, 4.0000000000000000e+00, 1.0000000000000001e-01
108, 1.1900000000000000e+01, 3.8999999999999999e+00, 0.0000000000000000e+00
109, 1.2050000000000001e+01, 2.8999999999999999e+00, 1.0000000000000000e+00
110, 1.3300000000000001e+01, 3.0000000000000000e+00, 1.1000000000000001e+00
111, 1.3000000000000000e+01, 4.2000000000000002e+00, 9.0000000000000002e-01
112, 1.1800000000000001e+01, 4.0000000000000000e+00, 1.2000000000000000e+00
113, 1.5000000000000000e+01, 3.0000000000000000e+00, 0.0000000000000000e+00
114, 1.6199999999999999e+01, 3.1000000000000001e+00, -5.0000000000000003e-02
115, 1.6100000000000001e+01, 4.0000000000000000e+00, 1.0000000000000001e-01
116, 1.4900000000000000e+01, 3.8999999999999999e+00, 0.0000000000000000e+00
117, 1.5050000000000001e+01, 2.8999999999999999e+00, 1.0000000000000000e+00
118, 1.6300000000000001e+01, 3.0000000000000000e+00, 1.1000000000000001e+00
119, 1.6000000000000000e+01, 4.2000000000000002e+00, 9.0000000000000002e-01
120, 1.4800000000000001e+01, 4.0000000000000000e+00, 1.2000000000000000e+00
121, 1.8000000000000000e+01, 3.0000000000000000e+00, 0.0000000000000000e+00
122, 1.9199999999999999e+01, 3.1000000000000001e+00, -5.0000000000000003e-02
123, 1.9100000000000001e+01, 4.0000000000000000e+00, 1.0000000000000001e-01
124, 1.7899999999999999e+01, 3.8999999999999999e+00, 0.0000000000000000e+00
125, 1.8050000000000001e+01, 2.8999999999999999e+00, 1.0000000000000000e+00
126, 1.9300000000000001e+01, 3.0000000000000000e+00, 1.1000000000000001e+00
127, 1.9000000000000000e+01, 4.2000000000000002e+00, 9.0000000000000002e-01
128, 1.7800000000000001e+01, 4.0000000000000000e+00, 1.2000000000000000e+00
129, 2.1000000000000000e+01, 3.0000000000000000e+00, 0.0000000000000000e+00
130, 2.2199999999999999e+01, 3.1000000000000001e+00, -5.0000000000000003e-02
131, 2.2100000000000001e+01, 4.0000000000000000e+00, 1.0000000000000001e-01
132, 2.0899999999999999e+01, 3.8999999999999999e+00, 0.0000000000000000e+00
133, 2.1050000000000001e+01, 2.8999999999999999e+00, 1.0000000000000000e+00
134, 2.2300000000000001e+01, 3.0000000000000000e+00, 1.1000000000000001e+00
135, 2.2000000000000000e+01, 4.2000000000000002e+00, 9.0000000000000002e-01
136, 2.0800000000000001e+01, 4.0000000000000000e+00, 1.2000000000000000e+00
137, 2.4000000000000000e+01, 3.0000000000000000e+00, 0.0000000000000000e+00
138, 2.5199999999999999e+01, 3.1000000000000001e+00, -5.0000000000000003e-02
139, 2.5100000000000001e+01, 4.0000000000000000e+00, 1.0000000000000001e-01
140, 2.3899999999999999e+01, 3.8999999999999999e+00, 0.0000000000000000e+00
141, 2.4050000000000001e+01, 2.8999999999999999e+00, 1.0000000000000000e+00
142, 2.5300000000000001e+01, 3.0000000000000000e+00, 1.1000000000000001e+00
143, 2.5000000000000000e+01, 4.2000000000000002e+00, 9.0000000000000002e-01
144, 2.3800000000000001e+01, 4.0000000000000000e+00, 1.2000000000000000e+00
145, 0.0000000000000000e+00, 6.0000000000000000e+00, 0.0000000000000000e+00
146, 1.2000000000000000e+00, 6.0999999999999996e+00, -5.0000000000000003e-02
147, 1.1000000000000001e+00, 7.0000000000000000e+00, 1.0000000000000001e-01
148, -1.0000000000000001e-01, 6.9000000000000004e+00, 0.0000000000000000e+00
149, 5.0000000000000003e-02, 5.9000000000000004e+00, 1.0000000000000000e+00
150, 1.3000000000000000e+00, 6.0000000000000000e+00, 1.1000000000000001e+00
151, 1.0000000000000000e+00, 7.2000000000000002e+00, 9.0000000000000002e-01
152, -2.0000000000000001e-01, 7.0000000000000000e+00, 1.2000000000000000e+00
153, 3.0000000000000000e+00, 6.0000000000000000e+00, 0.0000000000000000e+00
154, 4.2000000000000002e+00, 6.0999999999999996e+00, -5.0000000000000003e-02
155, 4.0999999999999996e+00, 7.0000000000000000e+00, 1.0000000000000001e-01
156, 2.8999999999999999e+00, 6.9000000000000004e+00, 0.0000000000000000e+00
157, 3.0499999999999998e+00, 5.9000000000000004e+00, 1.0000000000000000e+00
158, 4.2999999999999998e+00, 6.0000000000000000e+00, 1.1000000000000001e+00
159, 4.0000000000000000e+00, 7.2000000000000002e+00, 9.0000000000000002e-01
160, 2.7999999999999998e+00, 7.0000000000000000e+00, 1.2000000000000000e+00
161, 6.0000000000000000e+00, 6.0000000000000000e+00, 0.0000000000000000e+00
162, 7.2000000000000002e+00, 6.0999999999999996e+00, -5.0000000000000003e-02
163, 7.0999999999999996e+00, 7.0000000000000000e+00, 1.0000000000000001e-01
164, 5.9000000000000004e+00, 6.9000000000000004e+00, 0.0000000000000000e+00
165, 6.0499999999999998e+00, 5.9000000000000004e+00, 1.0000000000000000e+00
166, 7.2999999999999998e+00, 6.0000000000000000e+00, 1.1000000000000001e+00
167, 7.0000000000000000e+00, 7.2000000000000002e+00, 9.0000000000000002e-01
168, 5.7999999999999998e+00, 7.0000000000000000e+00, 1.2000000000000000e+00
169, 9.0000000000000000e+00, 6.0000000000000000e+00, 0.0000000000000000e+00
170, 1.0199999999999999e+01, 6.0999999999999996e+00, -5.0000000000000003e-02
171, 1.0100000000000000e+01, 7.0000000000000000e+00, 1.0000000000000001e-01
172, 8.9000000000000004e+00, 6.9000000000000004e+00, 0.0000000000000000e+00
173, 9.0500000000000007e+00, 5.9000000000000004e+00, 1.0000000000000000e+00
174, 1.0300000000000001e+01, 6.0000000000000000e+00, 1.1000000000000001e+00
175, 1.0000000000000000e+01, 7.2000000000000002e+00, 9.0000000000000002e-01
176, 8.8000000000000007e+00, 7.0000000000000000e+00, 1.2000000000000000e+00
177, 1.2000000000000000e+01, 6.0000000000000000e+00, 0.0000000000000000e+00
178, 1.3199999999999999e+01, 6.0999999999999996e+00, -5.0000000000000003e-02
179, 1.3100000000000000e+01, 7.0000000000000000e+00, 1.0000000000000001e-01
180, 1.1900000000000000e+01, 6.9000000000000004e+00, 0.0000000000000000e+00
181, 1.2050000000000001e+01, 5.9000000000000004e+00, 1.0000000000000000e+00
182, 1.3300000000000001e+01, 6.0000000000000000e+00, 1.1000000000000001e+00
183, 1.3000000000000000e+01, 7.2000000000000002e+00, 9.0000000000000002e-01
184, 1.1800000000000001e+01, 7.0000000000000000e+00, 1.2000000000000000e+00
185, 1.5000000000000000e+01, 6.0000000000000000e+00, 0.0000000000000000e+00
186, 1.6199999999999999e+01, 6.0999999999999996e+00, -5.0000000000000003e-02
187, 1.6100000000000001e+01, 7.0000000000000000e+00, 1.0000000000000001e-01
188, 1.4900000000000000e+01, 6.9000000000000004e+00, 0.0000000000000000e+00
189, 1.5050000000000001e+01, 5.9000000000000004e+00, 1.0000000000000000e+00
190, 1.6300000000000001e+01, 6.0000000000000000e+00, 1.1000000000000001e+00
191, 1.6000000000000000e+01, 7.2000000000000002e+00, 9.0000000000000002e-01
192, 1.4800000000000001e+01, 7.0000000000000000e+00, 1.2000000000000000e+00
193, 1.8000000000000000e+01, 6.0000000000000000e+00, 0.0000000000000000e+00
194, 1.9199999999999999e+01, 6.0999999999999996e+00, -5.0000000000000003e-02
195, 1.9100000000000001e+01, 7.0000000000000000e+00, 1.0000000000000001e-01
196, 1.7899999999999999e+01, 6.9000000000000004e+00, 0.0000000000000000e+00
197, 1.8050000000000001e+01, 5.9000000000000004e+00, 1.0000000000000000e+00
198, 1.9300000000000001e+01, 6.0000000000000000e+00, 1.1000000000000001e+00
199, 1.9000000000000000e+01, 7.2000000000000002e+00, 9.0000000000000002e-01
200, 1.7800000000000001e+01, 7.0000000000000000e+00, 1.2000000000000000e+00
201, 2.1000000000000000e+01, 6.0000000000000000e+00, 0.0000000000000000e+00
202, 2.2199999999999999e+01, 6.0999999999999996e+00, -5.0000000000000003e-02
203, 2.2100000000000001e+01, 7.0000000000000000e+00, 1.0000000000000001e-01
204, 2.0899999999999999e+01, 6.9000000000000004e+00, 0.0000000000000000e+00
205, 2.1050000000000001e+01, 5.9000000000000004e+00, 1.0000000000000000e+00
206, 2.2300000000000001e+01, 6.0000000000000000e+00, 1.1000000000000001e+00
207, 2.2000000000000000e+01, 7.2000000000000002e+00, 9.0000000000000002e-01
208, 2.0800000000000001e+01, 7.0000000000000000e+00, 1.2000000000000000e+00
209, 2.4000000000000000e+01, 6.0000000000000000e+00, 0.0000000000000000e+00
210, 2.5199999999999999e+01, 6.0999999999999996e+00, -5.0000000000000003e-02
211, 2.5100000000000001e+01, 7.0000000000000000e+00, 1.0000000000000001e-01
212, 2.3899999999999999e+01, 6.9000000000000004e+00, 0.0000000000000000e+00
213, 2.4050000000000001e+01, 5.9000000000000004e+00, 1.0000000000000000e+00
214, 2.5300000000000001e+01, 6.0000000000000000e+00, 1.1000000000000001e+00
215, 2.5000000000000000e+01, 7.2000000000000002e+00, 9.0000000000000002e-01
216, 2.3800000000000001e+01, 7.0000000000000000e+00, 1.2000000000000000e+00
217, 0.0000000000000000e+00, 9.0000000000000000e+00, 0.0000000000000000e+00
218, 1.2000000000000000e+00, 9.0999999999999996e+00, -5.0000000000000003e-02
219, 1.1000000000000001e+00, 1.0000000000000000e+01, 1.0000000000000001e-01
220, -1.0000000000000001e-01, 9.9000000000000004e+00, 0.0000000000000000e+00
221, 5.0000000000000003e-02, 8.9000000000000004e+00, 1.0000000000000000e+00
222, 1.3000000000000000e+00, 9.0000000000000000e+00, 1.1000000000000001e+00
223, 1.0000000000000000e+00, 1.0199999999999999e+01, 9.0000000000000002e-01
224, -2.0000000000000001e-01, 1.0000000000000000e+01, 1.2000000000000000e+00
225, 3.0000000000000000e+00, 9.0000000000000000e+00, 0.0000000000000000e+00
226, 4.2000000000000002e+00, 9.0999999999999996e+00, -5.0000000000000003e-02
227, 4.0999999999999996e+00, 1.0000000000000000e+01, 1.0000000000000001e-01
228, 2.8999999999999999e+00, 9.9000000000000004e+00, 0.0000000000000000e+00
229, 3.0499999999999998e+00, 8.9000000000000004e+00, 1.0000000000000000e+00
230, 4.2999999999999998e+00, 9.0000000000000000e+00, 1.1000000000000001e+00
231, 4.0000000000000000e+00, 1.0199999999999999e+01, 9.0000000000000002e-01
232, 2.7999999999999998e+00, 1.0000000000000000e+01, 1.2000000000000000e+00
233, 6.0000000000000000e+00, 9.0000000000000000e+00, 0.0000000000000000e+00
234, 7.2000000000000002e+00, 9.0999999999999996e+00, -5.0000000000000003e-02
235, 7.0999999999999996e+00, 1.0000000000000000e+01, 1.0000000000000001e-01
236, 5.9000000000000004e+00, 9.9000000000000004e+00, 0.0000000000000000e+00
237, 6.0499999999999998e+00, 8.9000000000000004e+00, 1.0000000000000000e+00
238, 7.2999999999999998e+00, 9.0000000000000000e+00, 1.1000000000000001e+00
239, 7.0000000000000000e+00, 1.0199999999999999e+01, 9.0000000000000002e-01
240, 5.7999999999999998e+00, 1.0000000000000000e+01, 1.2000000000000000e+00
241, 9.0000000000000000e+00, 9.0000000000000000e+00, 0.0000000000000000e+00
242, 1.0199999999999999e+01, 9.0999999999999996e+00, -5.0000000000000003e-02
243, 1.0100000000000000e+01, 1.0000000000000000e+01, 1.0000000000000001e-01
244, 8.9000000000000004e+00, 9.9000000000000004e+00, 0.0000000000000000e+00
245, 9.0500000000000007e+00, 8.9000000000000004e+00, 1.0000000000000000e+00
246, 1.0300000000000001e+01, 9.0000000000000000e+00, 1.1000000000000001e+00
247, 1.0000000000000000e+01, 1.0199999999999999e+01, 9.0000000000000002e-01
248, 8.8000000000000007e+00, 1.0000000000000000e+01, 1.2000000000000000e+00
249, 1.2000000000000000e+01, 9.0000000000000000e+00, 0.0000000000000000e+00
250, 1.3199999999999999e+01, 9.0999999999999996e+00, -5.0000000000000003e-02
251, 1.3100000000000000e+01, 1.0000000000000000e+01, 1.0000000000000001e-01
252, 1.1900000000000000e+01, 9.9000000000000004e+00, 0.0000000000000000e+00
253, 1.2050000000000001e+01, 8.9000000000000004e+00, 1.0000000000000000e+00
254, 1.3300000000000001e+01, 9.0000000000000000e+00, 1.1000000000000001e+00
255, 1.3000000000000000e+01, 1.0199999999999999e+01, 9.0000000000000002e-01
256, 1.1800000000000001e+01, 1.0000000000000000e+01, 1.2000000000000000e+00
257, 1.5000000000000000e+01, 9.0000000000000000e+00, 0.0000000000000000e+00
258, 1.6199999999999999e+01, 9.0999999999999996e+00, -5.0000000000000003e-02
259, 1.6100000000000001e+01, 1.0000000000000000e+01, 1.0000000000000001e-01
260, 1.4900000000000000e+01, 9.9000000000000004e+00, 0.0000000000000000e+00
261, 1.5050000000000001e+01, 8.9000000000000004e+00, 1.0000000000000000e+00
262, 1.6300000000000001e+01, 9.0000000000000000e+00, 1.1000000000000001e+00
263, 1.6000000000000000e+01, 1.0199999999999999e+01, 9.0000000000000002e-01
264, 1.4800000000000001e+01, 1.0000000000000000e+01, 1.2000000000000000e+00
265, 1.8000000000000000e+01, 9.0000000000000000e+00, 0.0000000000000000e+00
266, 1.9199999999999999e+01, 9.0999999999999996e+00, -5.0000000000000003e-02
267, 1.9100000000000001e+01, 1.0000000000000000e+01, 1.0000000000000001e-01
268, 1.7899999999999999e+01, 9.9000000000000004e+00, 0.0000000000000000e+00
269, 1.8050000000000001e+01, 8.9000000000000004e+00, 1.0000000000000000e+00
270, 1.9300000000000001e+01, 9.0000000000000000e+00, 1.1000000000000001e+00
271, 1.9000000000000000e+01, 1.0199999999999999e+01, 9.0000000000000002e-01
272, 1.7800000000000001e+01, 1.0000000000000000e+01, 1.2000000000000000e+00
*Element, type=C3D8T, elset=VOLUME
1, 1, 2, 3, 4, 5, 6, 7, 8
2, 9, 10, 11, 12, 13, 14, 15, 16
3, 17, 18, 19, 20, 21, 22, 23, 24
4, 25, 26, 27, 28, 29, 30, 31, 32
5, 33, 34, 35, 36, 37, 38, 39, 40
6, 41, 42, 43, 44, 45, 46, 47, 48
7, 49, 50, 51, 52, 53, 54, 55, 56
8, 57, 58, 59, 60, 61, 62, 63, 64
9, 65, 66, 67, 68, 69, 70, 71, 72
10, 73, 74, 75, 76, 77, 78, 79, 80
11, 81, 82, 83, 84, 85, 86, 87, 88
12, 89, 90, 91, 92, 93, 94, 95, 96
13, 97, 98, 99, 100, 101, 102, 103, 104
14, 105, 106, 107, 108, 109, 110, 111, 112
15, 113, 114, 115, 116, 117, 118, 119, 120
16, 121, 122, 123, 124, 125, 126, 127, 128
17, 129, 130, 131, 132, 133, 134, 135, 136
18, 137, 138, 139, 140, 141, 142, 143, 144
19, 145, 146, 147, 148, 149, 150, 151, 152
20, 153, 154, 155, 156, 157, 158, 159, 160
21, 161, 162, 163, 164, 165, 166, 167, 168
22, 169, 170, 171, 172, 173, 174, 175, 176
23, 177, 178, 179, 180, 181, 182, 183, 184
24, 185, 186, 187, 188, 189, 190, 191, 192
25, 193, 194, 195, 196, 197, 198, 199, 200
26, 201, 202, 203, 204, 205, 206, 207, 208
27, 209, 210, 211, 212, 213, 214, 215, 216
28, 217, 218, 219, 220, 221, 222, 223, 224
29, 225, 226, 227, 228, 229, 230, 231, 232
30, 233, 234, 235, 236, 237, 238, 239, 240
31, 241, 242, 243, 244, 245, 246, 247, 248
32, 249, 250, 251, 252, 253, 254, 255, 256
33, 257, 258, 259, 260, 261, 262, 263, 264
34, 265, 266, 267, 268, 269, 270, 271, 272
*Nset, nset=ALL_NODES, generate
1, 272, 1
*Material, name=THERMAL
*Elastic
2.0000000000000000e11, 2.5000000000000000e-1
*Conductivity
4.0000000000000000e0
*Density
2.0000000000000000e3, 3.0000000000000000e2
1.7000000000000000e3, 6.0000000000000000e2
*Specific Heat
3.0000000000000000e3, 3.0000000000000000e2
4.2000000000000000e3, 6.0000000000000000e2
*Solid Section, elset=VOLUME, material=THERMAL
,
*Initial Conditions, type=TEMPERATURE
1, 3.1000000000000000e+02
2, 3.3000000000000000e+02
3, 3.5000000000000000e+02
4, 3.7000000000000000e+02
5, 3.9000000000000000e+02
6, 4.1000000000000000e+02
7, 4.3000000000000000e+02
8, 4.5000000000000000e+02
9, 3.1000000000000000e+02
10, 3.3000000000000000e+02
11, 3.5000000000000000e+02
12, 3.7000000000000000e+02
13, 3.9000000000000000e+02
14, 4.1000000000000000e+02
15, 4.3000000000000000e+02
16, 4.5000000000000000e+02
17, 3.1000000000000000e+02
18, 3.3000000000000000e+02
19, 3.5000000000000000e+02
20, 3.7000000000000000e+02
21, 3.9000000000000000e+02
22, 4.1000000000000000e+02
23, 4.3000000000000000e+02
24, 4.5000000000000000e+02
25, 3.1000000000000000e+02
26, 3.3000000000000000e+02
27, 3.5000000000000000e+02
28, 3.7000000000000000e+02
29, 3.9000000000000000e+02
30, 4.1000000000000000e+02
31, 4.3000000000000000e+02
32, 4.5000000000000000e+02
33, 3.1000000000000000e+02
34, 3.3000000000000000e+02
35, 3.5000000000000000e+02
36, 3.7000000000000000e+02
37, 3.9000000000000000e+02
38, 4.1000000000000000e+02
39, 4.3000000000000000e+02
40, 4.5000000000000000e+02
41, 3.1000000000000000e+02
42, 3.3000000000000000e+02
43, 3.5000000000000000e+02
44, 3.7000000000000000e+02
45, 3.9000000000000000e+02
46, 4.1000000000000000e+02
47, 4.3000000000000000e+02
48, 4.5000000000000000e+02
49, 3.1000000000000000e+02
50, 3.3000000000000000e+02
51, 3.5000000000000000e+02
52, 3.7000000000000000e+02
53, 3.9000000000000000e+02
54, 4.1000000000000000e+02
55, 4.3000000000000000e+02
56, 4.5000000000000000e+02
57, 3.1000000000000000e+02
58, 3.3000000000000000e+02
59, 3.5000000000000000e+02
60, 3.7000000000000000e+02
61, 3.9000000000000000e+02
62, 4.1000000000000000e+02
63, 4.3000000000000000e+02
64, 4.5000000000000000e+02
65, 3.1000000000000000e+02
66, 3.3000000000000000e+02
67, 3.5000000000000000e+02
68, 3.7000000000000000e+02
69, 3.9000000000000000e+02
70, 4.1000000000000000e+02
71, 4.3000000000000000e+02
72, 4.5000000000000000e+02
73, 3.1000000000000000e+02
74, 3.3000000000000000e+02
75, 3.5000000000000000e+02
76, 3.7000000000000000e+02
77, 3.9000000000000000e+02
78, 4.1000000000000000e+02
79, 4.3000000000000000e+02
80, 4.5000000000000000e+02
81, 3.1000000000000000e+02
82, 3.3000000000000000e+02
83, 3.5000000000000000e+02
84, 3.7000000000000000e+02
85, 3.9000000000000000e+02
86, 4.1000000000000000e+02
87, 4.3000000000000000e+02
88, 4.5000000000000000e+02
89, 3.1000000000000000e+02
90, 3.3000000000000000e+02
91, 3.5000000000000000e+02
92, 3.7000000000000000e+02
93, 3.9000000000000000e+02
94, 4.1000000000000000e+02
95, 4.3000000000000000e+02
96, 4.5000000000000000e+02
97, 3.1000000000000000e+02
98, 3.3000000000000000e+02
99, 3.5000000000000000e+02
100, 3.7000000000000000e+02
101, 3.9000000000000000e+02
102, 4.1000000000000000e+02
103, 4.3000000000000000e+02
104, 4.5000000000000000e+02
105, 3.1000000000000000e+02
106, 3.3000000000000000e+02
107, 3.5000000000000000e+02
108, 3.7000000000000000e+02
109, 3.9000000000000000e+02
110, 4.1000000000000000e+02
111, 4.3000000000000000e+02
112, 4.5000000000000000e+02
113, 3.1000000000000000e+02
114, 3.3000000000000000e+02
115, 3.5000000000000000e+02
116, 3.7000000000000000e+02
117, 3.9000000000000000e+02
118, 4.1000000000000000e+02
119, 4.3000000000000000e+02
120, 4.5000000000000000e+02
121, 3.1000000000000000e+02
122, 3.3000000000000000e+02
123, 3.5000000000000000e+02
124, 3.7000000000000000e+02
125, 3.9000000000000000e+02
126, 4.1000000000000000e+02
127, 4.3000000000000000e+02
128, 4.5000000000000000e+02
129, 3.1000000000000000e+02
130, 3.3000000000000000e+02
131, 3.5000000000000000e+02
132, 3.7000000000000000e+02
133, 3.9000000000000000e+02
134, 4.1000000000000000e+02
135, 4.3000000000000000e+02
136, 4.5000000000000000e+02
137, 3.1000000000000000e+02
138, 3.3000000000000000e+02
139, 3.5000000000000000e+02
140, 3.7000000000000000e+02
141, 3.9000000000000000e+02
142, 4.1000000000000000e+02
143, 4.3000000000000000e+02
144, 4.5000000000000000e+02
145, 3.1000000000000000e+02
146, 3.3000000000000000e+02
147, 3.5000000000000000e+02
148, 3.7000000000000000e+02
149, 3.9000000000000000e+02
150, 4.1000000000000000e+02
151, 4.3000000000000000e+02
152, 4.5000000000000000e+02
153, 3.1000000000000000e+02
154, 3.3000000000000000e+02
155, 3.5000000000000000e+02
156, 3.7000000000000000e+02
157, 3.9000000000000000e+02
158, 4.1000000000000000e+02
159, 4.3000000000000000e+02
160, 4.5000000000000000e+02
161, 3.1000000000000000e+02
162, 3.3000000000000000e+02
163, 3.5000000000000000e+02
164, 3.7000000000000000e+02
165, 3.9000000000000000e+02
166, 4.1000000000000000e+02
167, 4.3000000000000000e+02
168, 4.5000000000000000e+02
169, 3.1000000000000000e+02
170, 3.3000000000000000e+02
171, 3.5000000000000000e+02
172, 3.7000000000000000e+02
173, 3.9000000000000000e+02
174, 4.1000000000000000e+02
175, 4.3000000000000000e+02
176, 4.5000000000000000e+02
177, 3.1000000000000000e+02
178, 3.3000000000000000e+02
179, 3.5000000000000000e+02
180, 3.7000000000000000e+02
181, 3.9000000000000000e+02
182, 4.1000000000000000e+02
183, 4.3000000000000000e+02
184, 4.5000000000000000e+02
185, 3.1000000000000000e+02
186, 3.3000000000000000e+02
187, 3.5000000000000000e+02
188, 3.7000000000000000e+02
189, 3.9000000000000000e+02
190, 4.1000000000000000e+02
191, 4.3000000000000000e+02
192, 4.5000000000000000e+02
193, 3.1000000000000000e+02
194, 3.3000000000000000e+02
195, 3.5000000000000000e+02
196, 3.7000000000000000e+02
197, 3.9000000000000000e+02
198, 4.1000000000000000e+02
199, 4.3000000000000000e+02
200, 4.5000000000000000e+02
201, 3.1000000000000000e+02
202, 3.3000000000000000e+02
203, 3.5000000000000000e+02
204, 3.7000000000000000e+02
205, 3.9000000000000000e+02
206, 4.1000000000000000e+02
207, 4.3000000000000000e+02
208, 4.5000000000000000e+02
209, 3.1000000000000000e+02
210, 3.3000000000000000e+02
211, 3.5000000000000000e+02
212, 3.7000000000000000e+02
213, 3.9000000000000000e+02
214, 4.1000000000000000e+02
215, 4.3000000000000000e+02
216, 4.5000000000000000e+02
217, 3.1000000000000000e+02
218, 3.3000000000000000e+02
219, 3.5000000000000000e+02
220, 3.7000000000000000e+02
221, 3.9000000000000000e+02
222, 4.1000000000000000e+02
223, 4.3000000000000000e+02
224, 4.5000000000000000e+02
225, 3.1000000000000000e+02
226, 3.3000000000000000e+02
227, 3.5000000000000000e+02
228, 3.7000000000000000e+02
229, 3.9000000000000000e+02
230, 4.1000000000000000e+02
231, 4.3000000000000000e+02
232, 4.5000000000000000e+02
233, 3.1000000000000000e+02
234, 3.3000000000000000e+02
235, 3.5000000000000000e+02
236, 3.7000000000000000e+02
237, 3.9000000000000000e+02
238, 4.1000000000000000e+02
239, 4.3000000000000000e+02
240, 4.5000000000000000e+02
241, 3.1000000000000000e+02
242, 3.3000000000000000e+02
243, 3.5000000000000000e+02
244, 3.7000000000000000e+02
245, 3.9000000000000000e+02
246, 4.1000000000000000e+02
247, 4.3000000000000000e+02
248, 4.5000000000000000e+02
249, 3.1000000000000000e+02
250, 3.3000000000000000e+02
251, 3.5000000000000000e+02
252, 3.7000000000000000e+02
253, 3.9000000000000000e+02
254, 4.1000000000000000e+02
255, 4.3000000000000000e+02
256, 4.5000000000000000e+02
257, 3.1000000000000000e+02
258, 3.3000000000000000e+02
259, 3.5000000000000000e+02
260, 3.7000000000000000e+02
261, 3.9000000000000000e+02
262, 4.1000000000000000e+02
263, 4.3000000000000000e+02
264, 4.5000000000000000e+02
265, 3.1000000000000000e+02
266, 3.3000000000000000e+02
267, 3.5000000000000000e+02
268, 3.7000000000000000e+02
269, 3.9000000000000000e+02
270, 4.1000000000000000e+02
271, 4.3000000000000000e+02
272, 4.5000000000000000e+02
*Step, name=STEADY, nlgeom=NO, inc=20
*Coupled Temperature-Displacement, steady state
1.0, 1.0, 1.0e-8, 1.0
*Boundary, op=NEW
1, 1, 3, 0.0
1, 11, 11, 3.6000000000000000e+02
2, 1, 3, 0.0
2, 11, 11, 4.1000000000000000e+02
3, 1, 3, 0.0
3, 11, 11, 4.4500000000000000e+02
4, 1, 3, 0.0
4, 11, 11, 3.8500000000000000e+02
5, 1, 3, 0.0
5, 11, 11, 4.7000000000000000e+02
6, 1, 3, 0.0
6, 11, 11, 4.3000000000000000e+02
7, 1, 3, 0.0
7, 11, 11, 5.1500000000000000e+02
8, 1, 3, 0.0
8, 11, 11, 4.5500000000000000e+02
9, 1, 3, 0.0
9, 11, 11, 3.1000000000000000e+02
10, 1, 3, 0.0
10, 11, 11, 3.3000000000000000e+02
11, 1, 3, 0.0
11, 11, 11, 3.5000000000000000e+02
12, 1, 3, 0.0
12, 11, 11, 3.7000000000000000e+02
13, 1, 3, 0.0
13, 11, 11, 3.9000000000000000e+02
14, 1, 3, 0.0
14, 11, 11, 4.1000000000000000e+02
15, 1, 3, 0.0
15, 11, 11, 4.3000000000000000e+02
16, 1, 3, 0.0
16, 11, 11, 4.5000000000000000e+02
17, 1, 3, 0.0
17, 11, 11, 3.6000099999999998e+02
18, 1, 3, 0.0
18, 11, 11, 4.1000000000000000e+02
19, 1, 3, 0.0
19, 11, 11, 4.4500000000000000e+02
20, 1, 3, 0.0
20, 11, 11, 3.8500000000000000e+02
21, 1, 3, 0.0
21, 11, 11, 4.7000000000000000e+02
22, 1, 3, 0.0
22, 11, 11, 4.3000000000000000e+02
23, 1, 3, 0.0
23, 11, 11, 5.1500000000000000e+02
24, 1, 3, 0.0
24, 11, 11, 4.5500000000000000e+02
25, 1, 3, 0.0
25, 11, 11, 3.1000000000000000e+02
26, 1, 3, 0.0
26, 11, 11, 3.3000000000000000e+02
27, 1, 3, 0.0
27, 11, 11, 3.5000000000000000e+02
28, 1, 3, 0.0
28, 11, 11, 3.7000000000000000e+02
29, 1, 3, 0.0
29, 11, 11, 3.9000000000000000e+02
30, 1, 3, 0.0
30, 11, 11, 4.1000000000000000e+02
31, 1, 3, 0.0
31, 11, 11, 4.3000000000000000e+02
32, 1, 3, 0.0
32, 11, 11, 4.5000000000000000e+02
33, 1, 3, 0.0
33, 11, 11, 3.5999900000000002e+02
34, 1, 3, 0.0
34, 11, 11, 4.1000000000000000e+02
35, 1, 3, 0.0
35, 11, 11, 4.4500000000000000e+02
36, 1, 3, 0.0
36, 11, 11, 3.8500000000000000e+02
37, 1, 3, 0.0
37, 11, 11, 4.7000000000000000e+02
38, 1, 3, 0.0
38, 11, 11, 4.3000000000000000e+02
39, 1, 3, 0.0
39, 11, 11, 5.1500000000000000e+02
40, 1, 3, 0.0
40, 11, 11, 4.5500000000000000e+02
41, 1, 3, 0.0
41, 11, 11, 3.1000000000000000e+02
42, 1, 3, 0.0
42, 11, 11, 3.3000000000000000e+02
43, 1, 3, 0.0
43, 11, 11, 3.5000000000000000e+02
44, 1, 3, 0.0
44, 11, 11, 3.7000000000000000e+02
45, 1, 3, 0.0
45, 11, 11, 3.9000000000000000e+02
46, 1, 3, 0.0
46, 11, 11, 4.1000000000000000e+02
47, 1, 3, 0.0
47, 11, 11, 4.3000000000000000e+02
48, 1, 3, 0.0
48, 11, 11, 4.5000000000000000e+02
49, 1, 3, 0.0
49, 11, 11, 3.6000000000000000e+02
50, 1, 3, 0.0
50, 11, 11, 4.1000099999999998e+02
51, 1, 3, 0.0
51, 11, 11, 4.4500000000000000e+02
52, 1, 3, 0.0
52, 11, 11, 3.8500000000000000e+02
53, 1, 3, 0.0
53, 11, 11, 4.7000000000000000e+02
54, 1, 3, 0.0
54, 11, 11, 4.3000000000000000e+02
55, 1, 3, 0.0
55, 11, 11, 5.1500000000000000e+02
56, 1, 3, 0.0
56, 11, 11, 4.5500000000000000e+02
57, 1, 3, 0.0
57, 11, 11, 3.1000000000000000e+02
58, 1, 3, 0.0
58, 11, 11, 3.3000000000000000e+02
59, 1, 3, 0.0
59, 11, 11, 3.5000000000000000e+02
60, 1, 3, 0.0
60, 11, 11, 3.7000000000000000e+02
61, 1, 3, 0.0
61, 11, 11, 3.9000000000000000e+02
62, 1, 3, 0.0
62, 11, 11, 4.1000000000000000e+02
63, 1, 3, 0.0
63, 11, 11, 4.3000000000000000e+02
64, 1, 3, 0.0
64, 11, 11, 4.5000000000000000e+02
65, 1, 3, 0.0
65, 11, 11, 3.6000000000000000e+02
66, 1, 3, 0.0
66, 11, 11, 4.0999900000000002e+02
67, 1, 3, 0.0
67, 11, 11, 4.4500000000000000e+02
68, 1, 3, 0.0
68, 11, 11, 3.8500000000000000e+02
69, 1, 3, 0.0
69, 11, 11, 4.7000000000000000e+02
70, 1, 3, 0.0
70, 11, 11, 4.3000000000000000e+02
71, 1, 3, 0.0
71, 11, 11, 5.1500000000000000e+02
72, 1, 3, 0.0
72, 11, 11, 4.5500000000000000e+02
73, 1, 3, 0.0
73, 11, 11, 3.1000000000000000e+02
74, 1, 3, 0.0
74, 11, 11, 3.3000000000000000e+02
75, 1, 3, 0.0
75, 11, 11, 3.5000000000000000e+02
76, 1, 3, 0.0
76, 11, 11, 3.7000000000000000e+02
77, 1, 3, 0.0
77, 11, 11, 3.9000000000000000e+02
78, 1, 3, 0.0
78, 11, 11, 4.1000000000000000e+02
79, 1, 3, 0.0
79, 11, 11, 4.3000000000000000e+02
80, 1, 3, 0.0
80, 11, 11, 4.5000000000000000e+02
81, 1, 3, 0.0
81, 11, 11, 3.6000000000000000e+02
82, 1, 3, 0.0
82, 11, 11, 4.1000000000000000e+02
83, 1, 3, 0.0
83, 11, 11, 4.4500099999999998e+02
84, 1, 3, 0.0
84, 11, 11, 3.8500000000000000e+02
85, 1, 3, 0.0
85, 11, 11, 4.7000000000000000e+02
86, 1, 3, 0.0
86, 11, 11, 4.3000000000000000e+02
87, 1, 3, 0.0
87, 11, 11, 5.1500000000000000e+02
88, 1, 3, 0.0
88, 11, 11, 4.5500000000000000e+02
89, 1, 3, 0.0
89, 11, 11, 3.1000000000000000e+02
90, 1, 3, 0.0
90, 11, 11, 3.3000000000000000e+02
91, 1, 3, 0.0
91, 11, 11, 3.5000000000000000e+02
92, 1, 3, 0.0
92, 11, 11, 3.7000000000000000e+02
93, 1, 3, 0.0
93, 11, 11, 3.9000000000000000e+02
94, 1, 3, 0.0
94, 11, 11, 4.1000000000000000e+02
95, 1, 3, 0.0
95, 11, 11, 4.3000000000000000e+02
96, 1, 3, 0.0
96, 11, 11, 4.5000000000000000e+02
97, 1, 3, 0.0
97, 11, 11, 3.6000000000000000e+02
98, 1, 3, 0.0
98, 11, 11, 4.1000000000000000e+02
99, 1, 3, 0.0
99, 11, 11, 4.4499900000000002e+02
100, 1, 3, 0.0
100, 11, 11, 3.8500000000000000e+02
101, 1, 3, 0.0
101, 11, 11, 4.7000000000000000e+02
102, 1, 3, 0.0
102, 11, 11, 4.3000000000000000e+02
103, 1, 3, 0.0
103, 11, 11, 5.1500000000000000e+02
104, 1, 3, 0.0
104, 11, 11, 4.5500000000000000e+02
105, 1, 3, 0.0
105, 11, 11, 3.1000000000000000e+02
106, 1, 3, 0.0
106, 11, 11, 3.3000000000000000e+02
107, 1, 3, 0.0
107, 11, 11, 3.5000000000000000e+02
108, 1, 3, 0.0
108, 11, 11, 3.7000000000000000e+02
109, 1, 3, 0.0
109, 11, 11, 3.9000000000000000e+02
110, 1, 3, 0.0
110, 11, 11, 4.1000000000000000e+02
111, 1, 3, 0.0
111, 11, 11, 4.3000000000000000e+02
112, 1, 3, 0.0
112, 11, 11, 4.5000000000000000e+02
113, 1, 3, 0.0
113, 11, 11, 3.6000000000000000e+02
114, 1, 3, 0.0
114, 11, 11, 4.1000000000000000e+02
115, 1, 3, 0.0
115, 11, 11, 4.4500000000000000e+02
116, 1, 3, 0.0
116, 11, 11, 3.8500099999999998e+02
117, 1, 3, 0.0
117, 11, 11, 4.7000000000000000e+02
118, 1, 3, 0.0
118, 11, 11, 4.3000000000000000e+02
119, 1, 3, 0.0
119, 11, 11, 5.1500000000000000e+02
120, 1, 3, 0.0
120, 11, 11, 4.5500000000000000e+02
121, 1, 3, 0.0
121, 11, 11, 3.1000000000000000e+02
122, 1, 3, 0.0
122, 11, 11, 3.3000000000000000e+02
123, 1, 3, 0.0
123, 11, 11, 3.5000000000000000e+02
124, 1, 3, 0.0
124, 11, 11, 3.7000000000000000e+02
125, 1, 3, 0.0
125, 11, 11, 3.9000000000000000e+02
126, 1, 3, 0.0
126, 11, 11, 4.1000000000000000e+02
127, 1, 3, 0.0
127, 11, 11, 4.3000000000000000e+02
128, 1, 3, 0.0
128, 11, 11, 4.5000000000000000e+02
129, 1, 3, 0.0
129, 11, 11, 3.6000000000000000e+02
130, 1, 3, 0.0
130, 11, 11, 4.1000000000000000e+02
131, 1, 3, 0.0
131, 11, 11, 4.4500000000000000e+02
132, 1, 3, 0.0
132, 11, 11, 3.8499900000000002e+02
133, 1, 3, 0.0
133, 11, 11, 4.7000000000000000e+02
134, 1, 3, 0.0
134, 11, 11, 4.3000000000000000e+02
135, 1, 3, 0.0
135, 11, 11, 5.1500000000000000e+02
136, 1, 3, 0.0
136, 11, 11, 4.5500000000000000e+02
137, 1, 3, 0.0
137, 11, 11, 3.1000000000000000e+02
138, 1, 3, 0.0
138, 11, 11, 3.3000000000000000e+02
139, 1, 3, 0.0
139, 11, 11, 3.5000000000000000e+02
140, 1, 3, 0.0
140, 11, 11, 3.7000000000000000e+02
141, 1, 3, 0.0
141, 11, 11, 3.9000000000000000e+02
142, 1, 3, 0.0
142, 11, 11, 4.1000000000000000e+02
143, 1, 3, 0.0
143, 11, 11, 4.3000000000000000e+02
144, 1, 3, 0.0
144, 11, 11, 4.5000000000000000e+02
145, 1, 3, 0.0
145, 11, 11, 3.6000000000000000e+02
146, 1, 3, 0.0
146, 11, 11, 4.1000000000000000e+02
147, 1, 3, 0.0
147, 11, 11, 4.4500000000000000e+02
148, 1, 3, 0.0
148, 11, 11, 3.8500000000000000e+02
149, 1, 3, 0.0
149, 11, 11, 4.7000099999999998e+02
150, 1, 3, 0.0
150, 11, 11, 4.3000000000000000e+02
151, 1, 3, 0.0
151, 11, 11, 5.1500000000000000e+02
152, 1, 3, 0.0
152, 11, 11, 4.5500000000000000e+02
153, 1, 3, 0.0
153, 11, 11, 3.1000000000000000e+02
154, 1, 3, 0.0
154, 11, 11, 3.3000000000000000e+02
155, 1, 3, 0.0
155, 11, 11, 3.5000000000000000e+02
156, 1, 3, 0.0
156, 11, 11, 3.7000000000000000e+02
157, 1, 3, 0.0
157, 11, 11, 3.9000000000000000e+02
158, 1, 3, 0.0
158, 11, 11, 4.1000000000000000e+02
159, 1, 3, 0.0
159, 11, 11, 4.3000000000000000e+02
160, 1, 3, 0.0
160, 11, 11, 4.5000000000000000e+02
161, 1, 3, 0.0
161, 11, 11, 3.6000000000000000e+02
162, 1, 3, 0.0
162, 11, 11, 4.1000000000000000e+02
163, 1, 3, 0.0
163, 11, 11, 4.4500000000000000e+02
164, 1, 3, 0.0
164, 11, 11, 3.8500000000000000e+02
165, 1, 3, 0.0
165, 11, 11, 4.6999900000000002e+02
166, 1, 3, 0.0
166, 11, 11, 4.3000000000000000e+02
167, 1, 3, 0.0
167, 11, 11, 5.1500000000000000e+02
168, 1, 3, 0.0
168, 11, 11, 4.5500000000000000e+02
169, 1, 3, 0.0
169, 11, 11, 3.1000000000000000e+02
170, 1, 3, 0.0
170, 11, 11, 3.3000000000000000e+02
171, 1, 3, 0.0
171, 11, 11, 3.5000000000000000e+02
172, 1, 3, 0.0
172, 11, 11, 3.7000000000000000e+02
173, 1, 3, 0.0
173, 11, 11, 3.9000000000000000e+02
174, 1, 3, 0.0
174, 11, 11, 4.1000000000000000e+02
175, 1, 3, 0.0
175, 11, 11, 4.3000000000000000e+02
176, 1, 3, 0.0
176, 11, 11, 4.5000000000000000e+02
177, 1, 3, 0.0
177, 11, 11, 3.6000000000000000e+02
178, 1, 3, 0.0
178, 11, 11, 4.1000000000000000e+02
179, 1, 3, 0.0
179, 11, 11, 4.4500000000000000e+02
180, 1, 3, 0.0
180, 11, 11, 3.8500000000000000e+02
181, 1, 3, 0.0
181, 11, 11, 4.7000000000000000e+02
182, 1, 3, 0.0
182, 11, 11, 4.3000099999999998e+02
183, 1, 3, 0.0
183, 11, 11, 5.1500000000000000e+02
184, 1, 3, 0.0
184, 11, 11, 4.5500000000000000e+02
185, 1, 3, 0.0
185, 11, 11, 3.1000000000000000e+02
186, 1, 3, 0.0
186, 11, 11, 3.3000000000000000e+02
187, 1, 3, 0.0
187, 11, 11, 3.5000000000000000e+02
188, 1, 3, 0.0
188, 11, 11, 3.7000000000000000e+02
189, 1, 3, 0.0
189, 11, 11, 3.9000000000000000e+02
190, 1, 3, 0.0
190, 11, 11, 4.1000000000000000e+02
191, 1, 3, 0.0
191, 11, 11, 4.3000000000000000e+02
192, 1, 3, 0.0
192, 11, 11, 4.5000000000000000e+02
193, 1, 3, 0.0
193, 11, 11, 3.6000000000000000e+02
194, 1, 3, 0.0
194, 11, 11, 4.1000000000000000e+02
195, 1, 3, 0.0
195, 11, 11, 4.4500000000000000e+02
196, 1, 3, 0.0
196, 11, 11, 3.8500000000000000e+02
197, 1, 3, 0.0
197, 11, 11, 4.7000000000000000e+02
198, 1, 3, 0.0
198, 11, 11, 4.2999900000000002e+02
199, 1, 3, 0.0
199, 11, 11, 5.1500000000000000e+02
200, 1, 3, 0.0
200, 11, 11, 4.5500000000000000e+02
201, 1, 3, 0.0
201, 11, 11, 3.1000000000000000e+02
202, 1, 3, 0.0
202, 11, 11, 3.3000000000000000e+02
203, 1, 3, 0.0
203, 11, 11, 3.5000000000000000e+02
204, 1, 3, 0.0
204, 11, 11, 3.7000000000000000e+02
205, 1, 3, 0.0
205, 11, 11, 3.9000000000000000e+02
206, 1, 3, 0.0
206, 11, 11, 4.1000000000000000e+02
207, 1, 3, 0.0
207, 11, 11, 4.3000000000000000e+02
208, 1, 3, 0.0
208, 11, 11, 4.5000000000000000e+02
209, 1, 3, 0.0
209, 11, 11, 3.6000000000000000e+02
210, 1, 3, 0.0
210, 11, 11, 4.1000000000000000e+02
211, 1, 3, 0.0
211, 11, 11, 4.4500000000000000e+02
212, 1, 3, 0.0
212, 11, 11, 3.8500000000000000e+02
213, 1, 3, 0.0
213, 11, 11, 4.7000000000000000e+02
214, 1, 3, 0.0
214, 11, 11, 4.3000000000000000e+02
215, 1, 3, 0.0
215, 11, 11, 5.1500099999999998e+02
216, 1, 3, 0.0
216, 11, 11, 4.5500000000000000e+02
217, 1, 3, 0.0
217, 11, 11, 3.1000000000000000e+02
218, 1, 3, 0.0
218, 11, 11, 3.3000000000000000e+02
219, 1, 3, 0.0
219, 11, 11, 3.5000000000000000e+02
220, 1, 3, 0.0
220, 11, 11, 3.7000000000000000e+02
221, 1, 3, 0.0
221, 11, 11, 3.9000000000000000e+02
222, 1, 3, 0.0
222, 11, 11, 4.1000000000000000e+02
223, 1, 3, 0.0
223, 11, 11, 4.3000000000000000e+02
224, 1, 3, 0.0
224, 11, 11, 4.5000000000000000e+02
225, 1, 3, 0.0
225, 11, 11, 3.6000000000000000e+02
226, 1, 3, 0.0
226, 11, 11, 4.1000000000000000e+02
227, 1, 3, 0.0
227, 11, 11, 4.4500000000000000e+02
228, 1, 3, 0.0
228, 11, 11, 3.8500000000000000e+02
229, 1, 3, 0.0
229, 11, 11, 4.7000000000000000e+02
230, 1, 3, 0.0
230, 11, 11, 4.3000000000000000e+02
231, 1, 3, 0.0
231, 11, 11, 5.1499900000000002e+02
232, 1, 3, 0.0
232, 11, 11, 4.5500000000000000e+02
233, 1, 3, 0.0
233, 11, 11, 3.1000000000000000e+02
234, 1, 3, 0.0
234, 11, 11, 3.3000000000000000e+02
235, 1, 3, 0.0
235, 11, 11, 3.5000000000000000e+02
236, 1, 3, 0.0
236, 11, 11, 3.7000000000000000e+02
237, 1, 3, 0.0
237, 11, 11, 3.9000000000000000e+02
238, 1, 3, 0.0
238, 11, 11, 4.1000000000000000e+02
239, 1, 3, 0.0
239, 11, 11, 4.3000000000000000e+02
240, 1, 3, 0.0
240, 11, 11, 4.5000000000000000e+02
241, 1, 3, 0.0
241, 11, 11, 3.6000000000000000e+02
242, 1, 3, 0.0
242, 11, 11, 4.1000000000000000e+02
243, 1, 3, 0.0
243, 11, 11, 4.4500000000000000e+02
244, 1, 3, 0.0
244, 11, 11, 3.8500000000000000e+02
245, 1, 3, 0.0
245, 11, 11, 4.7000000000000000e+02
246, 1, 3, 0.0
246, 11, 11, 4.3000000000000000e+02
247, 1, 3, 0.0
247, 11, 11, 5.1500000000000000e+02
248, 1, 3, 0.0
248, 11, 11, 4.5500099999999998e+02
249, 1, 3, 0.0
249, 11, 11, 3.1000000000000000e+02
250, 1, 3, 0.0
250, 11, 11, 3.3000000000000000e+02
251, 1, 3, 0.0
251, 11, 11, 3.5000000000000000e+02
252, 1, 3, 0.0
252, 11, 11, 3.7000000000000000e+02
253, 1, 3, 0.0
253, 11, 11, 3.9000000000000000e+02
254, 1, 3, 0.0
254, 11, 11, 4.1000000000000000e+02
255, 1, 3, 0.0
255, 11, 11, 4.3000000000000000e+02
256, 1, 3, 0.0
256, 11, 11, 4.5000000000000000e+02
257, 1, 3, 0.0
257, 11, 11, 3.6000000000000000e+02
258, 1, 3, 0.0
258, 11, 11, 4.1000000000000000e+02
259, 1, 3, 0.0
259, 11, 11, 4.4500000000000000e+02
260, 1, 3, 0.0
260, 11, 11, 3.8500000000000000e+02
261, 1, 3, 0.0
261, 11, 11, 4.7000000000000000e+02
262, 1, 3, 0.0
262, 11, 11, 4.3000000000000000e+02
263, 1, 3, 0.0
263, 11, 11, 5.1500000000000000e+02
264, 1, 3, 0.0
264, 11, 11, 4.5499900000000002e+02
265, 1, 3, 0.0
265, 11, 11, 3.1000000000000000e+02
266, 1, 3, 0.0
266, 11, 11, 3.3000000000000000e+02
267, 1, 3, 0.0
267, 11, 11, 3.5000000000000000e+02
268, 1, 3, 0.0
268, 11, 11, 3.7000000000000000e+02
269, 1, 3, 0.0
269, 11, 11, 3.9000000000000000e+02
270, 1, 3, 0.0
270, 11, 11, 4.1000000000000000e+02
271, 1, 3, 0.0
271, 11, 11, 4.3000000000000000e+02
272, 1, 3, 0.0
272, 11, 11, 4.5000000000000000e+02
*Output, field, frequency=1
*Node Output
NT, RFL
*End Step
*Step, name=TRANSIENT, nlgeom=NO, inc=4
*Coupled Temperature-Displacement
1.0, 1.0, 1.0, 1.0
*Boundary, op=NEW
1, 1, 3, 0.0
1, 11, 11, 3.6000000000000000e+02
2, 1, 3, 0.0
2, 11, 11, 4.1000000000000000e+02
3, 1, 3, 0.0
3, 11, 11, 4.4500000000000000e+02
4, 1, 3, 0.0
4, 11, 11, 3.8500000000000000e+02
5, 1, 3, 0.0
5, 11, 11, 4.7000000000000000e+02
6, 1, 3, 0.0
6, 11, 11, 4.3000000000000000e+02
7, 1, 3, 0.0
7, 11, 11, 5.1500000000000000e+02
8, 1, 3, 0.0
8, 11, 11, 4.5500000000000000e+02
9, 1, 3, 0.0
9, 11, 11, 3.6000000000000000e+02
10, 1, 3, 0.0
10, 11, 11, 4.1000000000000000e+02
11, 1, 3, 0.0
11, 11, 11, 4.4500000000000000e+02
12, 1, 3, 0.0
12, 11, 11, 3.8500000000000000e+02
13, 1, 3, 0.0
13, 11, 11, 4.7000000000000000e+02
14, 1, 3, 0.0
14, 11, 11, 4.3000000000000000e+02
15, 1, 3, 0.0
15, 11, 11, 5.1500000000000000e+02
16, 1, 3, 0.0
16, 11, 11, 4.5500000000000000e+02
17, 1, 3, 0.0
17, 11, 11, 3.6000099999999998e+02
18, 1, 3, 0.0
18, 11, 11, 4.1000000000000000e+02
19, 1, 3, 0.0
19, 11, 11, 4.4500000000000000e+02
20, 1, 3, 0.0
20, 11, 11, 3.8500000000000000e+02
21, 1, 3, 0.0
21, 11, 11, 4.7000000000000000e+02
22, 1, 3, 0.0
22, 11, 11, 4.3000000000000000e+02
23, 1, 3, 0.0
23, 11, 11, 5.1500000000000000e+02
24, 1, 3, 0.0
24, 11, 11, 4.5500000000000000e+02
25, 1, 3, 0.0
25, 11, 11, 3.6000099999999998e+02
26, 1, 3, 0.0
26, 11, 11, 4.1000000000000000e+02
27, 1, 3, 0.0
27, 11, 11, 4.4500000000000000e+02
28, 1, 3, 0.0
28, 11, 11, 3.8500000000000000e+02
29, 1, 3, 0.0
29, 11, 11, 4.7000000000000000e+02
30, 1, 3, 0.0
30, 11, 11, 4.3000000000000000e+02
31, 1, 3, 0.0
31, 11, 11, 5.1500000000000000e+02
32, 1, 3, 0.0
32, 11, 11, 4.5500000000000000e+02
33, 1, 3, 0.0
33, 11, 11, 3.5999900000000002e+02
34, 1, 3, 0.0
34, 11, 11, 4.1000000000000000e+02
35, 1, 3, 0.0
35, 11, 11, 4.4500000000000000e+02
36, 1, 3, 0.0
36, 11, 11, 3.8500000000000000e+02
37, 1, 3, 0.0
37, 11, 11, 4.7000000000000000e+02
38, 1, 3, 0.0
38, 11, 11, 4.3000000000000000e+02
39, 1, 3, 0.0
39, 11, 11, 5.1500000000000000e+02
40, 1, 3, 0.0
40, 11, 11, 4.5500000000000000e+02
41, 1, 3, 0.0
41, 11, 11, 3.5999900000000002e+02
42, 1, 3, 0.0
42, 11, 11, 4.1000000000000000e+02
43, 1, 3, 0.0
43, 11, 11, 4.4500000000000000e+02
44, 1, 3, 0.0
44, 11, 11, 3.8500000000000000e+02
45, 1, 3, 0.0
45, 11, 11, 4.7000000000000000e+02
46, 1, 3, 0.0
46, 11, 11, 4.3000000000000000e+02
47, 1, 3, 0.0
47, 11, 11, 5.1500000000000000e+02
48, 1, 3, 0.0
48, 11, 11, 4.5500000000000000e+02
49, 1, 3, 0.0
49, 11, 11, 3.6000000000000000e+02
50, 1, 3, 0.0
50, 11, 11, 4.1000099999999998e+02
51, 1, 3, 0.0
51, 11, 11, 4.4500000000000000e+02
52, 1, 3, 0.0
52, 11, 11, 3.8500000000000000e+02
53, 1, 3, 0.0
53, 11, 11, 4.7000000000000000e+02
54, 1, 3, 0.0
54, 11, 11, 4.3000000000000000e+02
55, 1, 3, 0.0
55, 11, 11, 5.1500000000000000e+02
56, 1, 3, 0.0
56, 11, 11, 4.5500000000000000e+02
57, 1, 3, 0.0
57, 11, 11, 3.6000000000000000e+02
58, 1, 3, 0.0
58, 11, 11, 4.1000099999999998e+02
59, 1, 3, 0.0
59, 11, 11, 4.4500000000000000e+02
60, 1, 3, 0.0
60, 11, 11, 3.8500000000000000e+02
61, 1, 3, 0.0
61, 11, 11, 4.7000000000000000e+02
62, 1, 3, 0.0
62, 11, 11, 4.3000000000000000e+02
63, 1, 3, 0.0
63, 11, 11, 5.1500000000000000e+02
64, 1, 3, 0.0
64, 11, 11, 4.5500000000000000e+02
65, 1, 3, 0.0
65, 11, 11, 3.6000000000000000e+02
66, 1, 3, 0.0
66, 11, 11, 4.0999900000000002e+02
67, 1, 3, 0.0
67, 11, 11, 4.4500000000000000e+02
68, 1, 3, 0.0
68, 11, 11, 3.8500000000000000e+02
69, 1, 3, 0.0
69, 11, 11, 4.7000000000000000e+02
70, 1, 3, 0.0
70, 11, 11, 4.3000000000000000e+02
71, 1, 3, 0.0
71, 11, 11, 5.1500000000000000e+02
72, 1, 3, 0.0
72, 11, 11, 4.5500000000000000e+02
73, 1, 3, 0.0
73, 11, 11, 3.6000000000000000e+02
74, 1, 3, 0.0
74, 11, 11, 4.0999900000000002e+02
75, 1, 3, 0.0
75, 11, 11, 4.4500000000000000e+02
76, 1, 3, 0.0
76, 11, 11, 3.8500000000000000e+02
77, 1, 3, 0.0
77, 11, 11, 4.7000000000000000e+02
78, 1, 3, 0.0
78, 11, 11, 4.3000000000000000e+02
79, 1, 3, 0.0
79, 11, 11, 5.1500000000000000e+02
80, 1, 3, 0.0
80, 11, 11, 4.5500000000000000e+02
81, 1, 3, 0.0
81, 11, 11, 3.6000000000000000e+02
82, 1, 3, 0.0
82, 11, 11, 4.1000000000000000e+02
83, 1, 3, 0.0
83, 11, 11, 4.4500099999999998e+02
84, 1, 3, 0.0
84, 11, 11, 3.8500000000000000e+02
85, 1, 3, 0.0
85, 11, 11, 4.7000000000000000e+02
86, 1, 3, 0.0
86, 11, 11, 4.3000000000000000e+02
87, 1, 3, 0.0
87, 11, 11, 5.1500000000000000e+02
88, 1, 3, 0.0
88, 11, 11, 4.5500000000000000e+02
89, 1, 3, 0.0
89, 11, 11, 3.6000000000000000e+02
90, 1, 3, 0.0
90, 11, 11, 4.1000000000000000e+02
91, 1, 3, 0.0
91, 11, 11, 4.4500099999999998e+02
92, 1, 3, 0.0
92, 11, 11, 3.8500000000000000e+02
93, 1, 3, 0.0
93, 11, 11, 4.7000000000000000e+02
94, 1, 3, 0.0
94, 11, 11, 4.3000000000000000e+02
95, 1, 3, 0.0
95, 11, 11, 5.1500000000000000e+02
96, 1, 3, 0.0
96, 11, 11, 4.5500000000000000e+02
97, 1, 3, 0.0
97, 11, 11, 3.6000000000000000e+02
98, 1, 3, 0.0
98, 11, 11, 4.1000000000000000e+02
99, 1, 3, 0.0
99, 11, 11, 4.4499900000000002e+02
100, 1, 3, 0.0
100, 11, 11, 3.8500000000000000e+02
101, 1, 3, 0.0
101, 11, 11, 4.7000000000000000e+02
102, 1, 3, 0.0
102, 11, 11, 4.3000000000000000e+02
103, 1, 3, 0.0
103, 11, 11, 5.1500000000000000e+02
104, 1, 3, 0.0
104, 11, 11, 4.5500000000000000e+02
105, 1, 3, 0.0
105, 11, 11, 3.6000000000000000e+02
106, 1, 3, 0.0
106, 11, 11, 4.1000000000000000e+02
107, 1, 3, 0.0
107, 11, 11, 4.4499900000000002e+02
108, 1, 3, 0.0
108, 11, 11, 3.8500000000000000e+02
109, 1, 3, 0.0
109, 11, 11, 4.7000000000000000e+02
110, 1, 3, 0.0
110, 11, 11, 4.3000000000000000e+02
111, 1, 3, 0.0
111, 11, 11, 5.1500000000000000e+02
112, 1, 3, 0.0
112, 11, 11, 4.5500000000000000e+02
113, 1, 3, 0.0
113, 11, 11, 3.6000000000000000e+02
114, 1, 3, 0.0
114, 11, 11, 4.1000000000000000e+02
115, 1, 3, 0.0
115, 11, 11, 4.4500000000000000e+02
116, 1, 3, 0.0
116, 11, 11, 3.8500099999999998e+02
117, 1, 3, 0.0
117, 11, 11, 4.7000000000000000e+02
118, 1, 3, 0.0
118, 11, 11, 4.3000000000000000e+02
119, 1, 3, 0.0
119, 11, 11, 5.1500000000000000e+02
120, 1, 3, 0.0
120, 11, 11, 4.5500000000000000e+02
121, 1, 3, 0.0
121, 11, 11, 3.6000000000000000e+02
122, 1, 3, 0.0
122, 11, 11, 4.1000000000000000e+02
123, 1, 3, 0.0
123, 11, 11, 4.4500000000000000e+02
124, 1, 3, 0.0
124, 11, 11, 3.8500099999999998e+02
125, 1, 3, 0.0
125, 11, 11, 4.7000000000000000e+02
126, 1, 3, 0.0
126, 11, 11, 4.3000000000000000e+02
127, 1, 3, 0.0
127, 11, 11, 5.1500000000000000e+02
128, 1, 3, 0.0
128, 11, 11, 4.5500000000000000e+02
129, 1, 3, 0.0
129, 11, 11, 3.6000000000000000e+02
130, 1, 3, 0.0
130, 11, 11, 4.1000000000000000e+02
131, 1, 3, 0.0
131, 11, 11, 4.4500000000000000e+02
132, 1, 3, 0.0
132, 11, 11, 3.8499900000000002e+02
133, 1, 3, 0.0
133, 11, 11, 4.7000000000000000e+02
134, 1, 3, 0.0
134, 11, 11, 4.3000000000000000e+02
135, 1, 3, 0.0
135, 11, 11, 5.1500000000000000e+02
136, 1, 3, 0.0
136, 11, 11, 4.5500000000000000e+02
137, 1, 3, 0.0
137, 11, 11, 3.6000000000000000e+02
138, 1, 3, 0.0
138, 11, 11, 4.1000000000000000e+02
139, 1, 3, 0.0
139, 11, 11, 4.4500000000000000e+02
140, 1, 3, 0.0
140, 11, 11, 3.8499900000000002e+02
141, 1, 3, 0.0
141, 11, 11, 4.7000000000000000e+02
142, 1, 3, 0.0
142, 11, 11, 4.3000000000000000e+02
143, 1, 3, 0.0
143, 11, 11, 5.1500000000000000e+02
144, 1, 3, 0.0
144, 11, 11, 4.5500000000000000e+02
145, 1, 3, 0.0
145, 11, 11, 3.6000000000000000e+02
146, 1, 3, 0.0
146, 11, 11, 4.1000000000000000e+02
147, 1, 3, 0.0
147, 11, 11, 4.4500000000000000e+02
148, 1, 3, 0.0
148, 11, 11, 3.8500000000000000e+02
149, 1, 3, 0.0
149, 11, 11, 4.7000099999999998e+02
150, 1, 3, 0.0
150, 11, 11, 4.3000000000000000e+02
151, 1, 3, 0.0
151, 11, 11, 5.1500000000000000e+02
152, 1, 3, 0.0
152, 11, 11, 4.5500000000000000e+02
153, 1, 3, 0.0
153, 11, 11, 3.6000000000000000e+02
154, 1, 3, 0.0
154, 11, 11, 4.1000000000000000e+02
155, 1, 3, 0.0
155, 11, 11, 4.4500000000000000e+02
156, 1, 3, 0.0
156, 11, 11, 3.8500000000000000e+02
157, 1, 3, 0.0
157, 11, 11, 4.7000099999999998e+02
158, 1, 3, 0.0
158, 11, 11, 4.3000000000000000e+02
159, 1, 3, 0.0
159, 11, 11, 5.1500000000000000e+02
160, 1, 3, 0.0
160, 11, 11, 4.5500000000000000e+02
161, 1, 3, 0.0
161, 11, 11, 3.6000000000000000e+02
162, 1, 3, 0.0
162, 11, 11, 4.1000000000000000e+02
163, 1, 3, 0.0
163, 11, 11, 4.4500000000000000e+02
164, 1, 3, 0.0
164, 11, 11, 3.8500000000000000e+02
165, 1, 3, 0.0
165, 11, 11, 4.6999900000000002e+02
166, 1, 3, 0.0
166, 11, 11, 4.3000000000000000e+02
167, 1, 3, 0.0
167, 11, 11, 5.1500000000000000e+02
168, 1, 3, 0.0
168, 11, 11, 4.5500000000000000e+02
169, 1, 3, 0.0
169, 11, 11, 3.6000000000000000e+02
170, 1, 3, 0.0
170, 11, 11, 4.1000000000000000e+02
171, 1, 3, 0.0
171, 11, 11, 4.4500000000000000e+02
172, 1, 3, 0.0
172, 11, 11, 3.8500000000000000e+02
173, 1, 3, 0.0
173, 11, 11, 4.6999900000000002e+02
174, 1, 3, 0.0
174, 11, 11, 4.3000000000000000e+02
175, 1, 3, 0.0
175, 11, 11, 5.1500000000000000e+02
176, 1, 3, 0.0
176, 11, 11, 4.5500000000000000e+02
177, 1, 3, 0.0
177, 11, 11, 3.6000000000000000e+02
178, 1, 3, 0.0
178, 11, 11, 4.1000000000000000e+02
179, 1, 3, 0.0
179, 11, 11, 4.4500000000000000e+02
180, 1, 3, 0.0
180, 11, 11, 3.8500000000000000e+02
181, 1, 3, 0.0
181, 11, 11, 4.7000000000000000e+02
182, 1, 3, 0.0
182, 11, 11, 4.3000099999999998e+02
183, 1, 3, 0.0
183, 11, 11, 5.1500000000000000e+02
184, 1, 3, 0.0
184, 11, 11, 4.5500000000000000e+02
185, 1, 3, 0.0
185, 11, 11, 3.6000000000000000e+02
186, 1, 3, 0.0
186, 11, 11, 4.1000000000000000e+02
187, 1, 3, 0.0
187, 11, 11, 4.4500000000000000e+02
188, 1, 3, 0.0
188, 11, 11, 3.8500000000000000e+02
189, 1, 3, 0.0
189, 11, 11, 4.7000000000000000e+02
190, 1, 3, 0.0
190, 11, 11, 4.3000099999999998e+02
191, 1, 3, 0.0
191, 11, 11, 5.1500000000000000e+02
192, 1, 3, 0.0
192, 11, 11, 4.5500000000000000e+02
193, 1, 3, 0.0
193, 11, 11, 3.6000000000000000e+02
194, 1, 3, 0.0
194, 11, 11, 4.1000000000000000e+02
195, 1, 3, 0.0
195, 11, 11, 4.4500000000000000e+02
196, 1, 3, 0.0
196, 11, 11, 3.8500000000000000e+02
197, 1, 3, 0.0
197, 11, 11, 4.7000000000000000e+02
198, 1, 3, 0.0
198, 11, 11, 4.2999900000000002e+02
199, 1, 3, 0.0
199, 11, 11, 5.1500000000000000e+02
200, 1, 3, 0.0
200, 11, 11, 4.5500000000000000e+02
201, 1, 3, 0.0
201, 11, 11, 3.6000000000000000e+02
202, 1, 3, 0.0
202, 11, 11, 4.1000000000000000e+02
203, 1, 3, 0.0
203, 11, 11, 4.4500000000000000e+02
204, 1, 3, 0.0
204, 11, 11, 3.8500000000000000e+02
205, 1, 3, 0.0
205, 11, 11, 4.7000000000000000e+02
206, 1, 3, 0.0
206, 11, 11, 4.2999900000000002e+02
207, 1, 3, 0.0
207, 11, 11, 5.1500000000000000e+02
208, 1, 3, 0.0
208, 11, 11, 4.5500000000000000e+02
209, 1, 3, 0.0
209, 11, 11, 3.6000000000000000e+02
210, 1, 3, 0.0
210, 11, 11, 4.1000000000000000e+02
211, 1, 3, 0.0
211, 11, 11, 4.4500000000000000e+02
212, 1, 3, 0.0
212, 11, 11, 3.8500000000000000e+02
213, 1, 3, 0.0
213, 11, 11, 4.7000000000000000e+02
214, 1, 3, 0.0
214, 11, 11, 4.3000000000000000e+02
215, 1, 3, 0.0
215, 11, 11, 5.1500099999999998e+02
216, 1, 3, 0.0
216, 11, 11, 4.5500000000000000e+02
217, 1, 3, 0.0
217, 11, 11, 3.6000000000000000e+02
218, 1, 3, 0.0
218, 11, 11, 4.1000000000000000e+02
219, 1, 3, 0.0
219, 11, 11, 4.4500000000000000e+02
220, 1, 3, 0.0
220, 11, 11, 3.8500000000000000e+02
221, 1, 3, 0.0
221, 11, 11, 4.7000000000000000e+02
222, 1, 3, 0.0
222, 11, 11, 4.3000000000000000e+02
223, 1, 3, 0.0
223, 11, 11, 5.1500099999999998e+02
224, 1, 3, 0.0
224, 11, 11, 4.5500000000000000e+02
225, 1, 3, 0.0
225, 11, 11, 3.6000000000000000e+02
226, 1, 3, 0.0
226, 11, 11, 4.1000000000000000e+02
227, 1, 3, 0.0
227, 11, 11, 4.4500000000000000e+02
228, 1, 3, 0.0
228, 11, 11, 3.8500000000000000e+02
229, 1, 3, 0.0
229, 11, 11, 4.7000000000000000e+02
230, 1, 3, 0.0
230, 11, 11, 4.3000000000000000e+02
231, 1, 3, 0.0
231, 11, 11, 5.1499900000000002e+02
232, 1, 3, 0.0
232, 11, 11, 4.5500000000000000e+02
233, 1, 3, 0.0
233, 11, 11, 3.6000000000000000e+02
234, 1, 3, 0.0
234, 11, 11, 4.1000000000000000e+02
235, 1, 3, 0.0
235, 11, 11, 4.4500000000000000e+02
236, 1, 3, 0.0
236, 11, 11, 3.8500000000000000e+02
237, 1, 3, 0.0
237, 11, 11, 4.7000000000000000e+02
238, 1, 3, 0.0
238, 11, 11, 4.3000000000000000e+02
239, 1, 3, 0.0
239, 11, 11, 5.1499900000000002e+02
240, 1, 3, 0.0
240, 11, 11, 4.5500000000000000e+02
241, 1, 3, 0.0
241, 11, 11, 3.6000000000000000e+02
242, 1, 3, 0.0
242, 11, 11, 4.1000000000000000e+02
243, 1, 3, 0.0
243, 11, 11, 4.4500000000000000e+02
244, 1, 3, 0.0
244, 11, 11, 3.8500000000000000e+02
245, 1, 3, 0.0
245, 11, 11, 4.7000000000000000e+02
246, 1, 3, 0.0
246, 11, 11, 4.3000000000000000e+02
247, 1, 3, 0.0
247, 11, 11, 5.1500000000000000e+02
248, 1, 3, 0.0
248, 11, 11, 4.5500099999999998e+02
249, 1, 3, 0.0
249, 11, 11, 3.6000000000000000e+02
250, 1, 3, 0.0
250, 11, 11, 4.1000000000000000e+02
251, 1, 3, 0.0
251, 11, 11, 4.4500000000000000e+02
252, 1, 3, 0.0
252, 11, 11, 3.8500000000000000e+02
253, 1, 3, 0.0
253, 11, 11, 4.7000000000000000e+02
254, 1, 3, 0.0
254, 11, 11, 4.3000000000000000e+02
255, 1, 3, 0.0
255, 11, 11, 5.1500000000000000e+02
256, 1, 3, 0.0
256, 11, 11, 4.5500099999999998e+02
257, 1, 3, 0.0
257, 11, 11, 3.6000000000000000e+02
258, 1, 3, 0.0
258, 11, 11, 4.1000000000000000e+02
259, 1, 3, 0.0
259, 11, 11, 4.4500000000000000e+02
260, 1, 3, 0.0
260, 11, 11, 3.8500000000000000e+02
261, 1, 3, 0.0
261, 11, 11, 4.7000000000000000e+02
262, 1, 3, 0.0
262, 11, 11, 4.3000000000000000e+02
263, 1, 3, 0.0
263, 11, 11, 5.1500000000000000e+02
264, 1, 3, 0.0
264, 11, 11, 4.5499900000000002e+02
265, 1, 3, 0.0
265, 11, 11, 3.6000000000000000e+02
266, 1, 3, 0.0
266, 11, 11, 4.1000000000000000e+02
267, 1, 3, 0.0
267, 11, 11, 4.4500000000000000e+02
268, 1, 3, 0.0
268, 11, 11, 3.8500000000000000e+02
269, 1, 3, 0.0
269, 11, 11, 4.7000000000000000e+02
270, 1, 3, 0.0
270, 11, 11, 4.3000000000000000e+02
271, 1, 3, 0.0
271, 11, 11, 5.1500000000000000e+02
272, 1, 3, 0.0
272, 11, 11, 4.5499900000000002e+02
*Output, field, frequency=1
*Node Output
NT, RFL
*End Step
