*Heading
** B5.8 Abaqus/Standard multi-step temperature-dependent C3D8T full-field probe.
** The four one-second increments cover heating, continued heating, holding and cooling.
*Preprint, echo=NO, model=NO, history=NO, contact=NO
*Node
1, 0.0000000000000000e+00, 0.0000000000000000e+00, 0.0000000000000000e+00
2, 1.0000000000000000e+00, 0.0000000000000000e+00, 0.0000000000000000e+00
3, 2.0000000000000000e+00, 0.0000000000000000e+00, 0.0000000000000000e+00
4, 0.0000000000000000e+00, 1.0000000000000000e+00, 0.0000000000000000e+00
5, 1.0000000000000000e+00, 1.0000000000000000e+00, 0.0000000000000000e+00
6, 2.0000000000000000e+00, 1.0000000000000000e+00, 0.0000000000000000e+00
7, 0.0000000000000000e+00, 0.0000000000000000e+00, 1.0000000000000000e+00
8, 1.0000000000000000e+00, 0.0000000000000000e+00, 1.0000000000000000e+00
9, 2.0000000000000000e+00, 0.0000000000000000e+00, 1.0000000000000000e+00
10, 0.0000000000000000e+00, 1.0000000000000000e+00, 1.0000000000000000e+00
11, 1.0000000000000000e+00, 1.0000000000000000e+00, 1.0000000000000000e+00
12, 2.0000000000000000e+00, 1.0000000000000000e+00, 1.0000000000000000e+00
*Element, type=C3D8T, elset=VOLUME
1, 1, 2, 5, 4, 7, 8, 11, 10
2, 2, 3, 6, 5, 8, 9, 12, 11
*Nset, nset=ALL_NODES, generate
1, 12, 1
*Nset, nset=LEFT
1, 4, 7, 10
*Nset, nset=RIGHT
3, 6, 9, 12
*Nset, nset=Y0
1, 2, 3, 7, 8, 9
*Nset, nset=Z0, generate
1, 6, 1
*Material, name=THERMAL_ELASTIC
*Elastic
2.0000000000000000e11, 2.5000000000000000e-1, 3.0000000000000000e2
1.7000000000000000e11, 2.8000000000000003e-1, 6.0000000000000000e2
*Expansion, zero=3.0000000000000000e2
1.2000000000000000e-5, 3.0000000000000000e2
1.8000000000000000e-5, 6.0000000000000000e2
*Conductivity
4.0000000000000000e0, 3.0000000000000000e2
7.0000000000000000e0, 6.0000000000000000e2
*Density
2.0000000000000000e3, 3.0000000000000000e2
1.7000000000000000e3, 6.0000000000000000e2
*Specific Heat
3.0000000000000000e3, 3.0000000000000000e2
4.2000000000000000e3, 6.0000000000000000e2
*Solid Section, elset=VOLUME, material=THERMAL_ELASTIC
,
*Initial Conditions, type=TEMPERATURE
ALL_NODES, 3.0000000000000000e2
*Step, name=STEP1, nlgeom=NO, inc=4
*Coupled Temperature-Displacement
1.0, 1.0, 1.0, 1.0
*Boundary, op=NEW
LEFT, 11, 11, 3.0000000000000000e2
RIGHT, 11, 11, 3.6000000000000000e+02
LEFT, 1, 1, 0.0
Y0, 2, 2, 0.0
Z0, 3, 3, 0.0
*Dflux, op=NEW
VOLUME, BF, 2.0000000000000000e+06
1, S2, 2.0000000000000000e+03
2, S2, 2.0000000000000000e+03
*Film, op=NEW
1, F5, 2.8000000000000000e2, 2.0000000000000000e1
2, F5, 2.8000000000000000e2, 2.0000000000000000e1
*Output, field, frequency=1
*Node Output
NT, RFL, RF, U
*Element Output, directions=YES
COORD, E, HFL, IVOL, S, TEMP
*End Step
*Step, name=STEP2, nlgeom=NO, inc=4
*Coupled Temperature-Displacement
1.0, 1.0, 1.0, 1.0
*Boundary, op=NEW
LEFT, 11, 11, 3.0000000000000000e2
RIGHT, 11, 11, 4.2000000000000000e+02
LEFT, 1, 1, 0.0
Y0, 2, 2, 0.0
Z0, 3, 3, 0.0
*Dflux, op=NEW
VOLUME, BF, 4.0000000000000000e+06
1, S2, 5.0000000000000000e+03
2, S2, 5.0000000000000000e+03
*Film, op=NEW
1, F5, 2.8000000000000000e2, 2.0000000000000000e1
2, F5, 2.8000000000000000e2, 2.0000000000000000e1
*Output, field, frequency=1
*Node Output
NT, RFL, RF, U
*Element Output, directions=YES
COORD, E, HFL, IVOL, S, TEMP
*End Step
*Step, name=STEP3, nlgeom=NO, inc=4
*Coupled Temperature-Displacement
1.0, 1.0, 1.0, 1.0
*Boundary, op=NEW
LEFT, 11, 11, 3.0000000000000000e2
RIGHT, 11, 11, 4.2000000000000000e+02
LEFT, 1, 1, 0.0
Y0, 2, 2, 0.0
Z0, 3, 3, 0.0
*Dflux, op=NEW
VOLUME, BF, 0.0000000000000000e+00
1, S2, 5.0000000000000000e+03
2, S2, 5.0000000000000000e+03
*Film, op=NEW
1, F5, 2.8000000000000000e2, 2.0000000000000000e1
2, F5, 2.8000000000000000e2, 2.0000000000000000e1
*Output, field, frequency=1
*Node Output
NT, RFL, RF, U
*Element Output, directions=YES
COORD, E, HFL, IVOL, S, TEMP
*End Step
*Step, name=STEP4, nlgeom=NO, inc=4
*Coupled Temperature-Displacement
1.0, 1.0, 1.0, 1.0
*Boundary, op=NEW
LEFT, 11, 11, 3.0000000000000000e2
RIGHT, 11, 11, 3.3000000000000000e+02
LEFT, 1, 1, 0.0
Y0, 2, 2, 0.0
Z0, 3, 3, 0.0
*Dflux, op=NEW
VOLUME, BF, 0.0000000000000000e+00
1, S2, 0.0000000000000000e+00
2, S2, 0.0000000000000000e+00
*Film, op=NEW
1, F5, 2.8000000000000000e2, 2.0000000000000000e1
2, F5, 2.8000000000000000e2, 2.0000000000000000e1
*Output, field, frequency=1
*Node Output
NT, RFL, RF, U
*Element Output, directions=YES
COORD, E, HFL, IVOL, S, TEMP
*End Step
