*Heading
** B5.9 Abaqus/Standard multi-material C3D8T mesh-refinement and distortion probe.
** Two bonded layers share nodes; three meshes undergo heating, holding and cooling.
*Preprint, echo=NO, model=NO, history=NO, contact=NO
*Node
1, 0.0000000000000000e+00, -1.0000000000000001e-01, 0.0000000000000000e+00
2, 1.0000000000000000e+00, -1.0000000000000001e-01, 0.0000000000000000e+00
3, 2.0000000000000000e+00, -1.0000000000000001e-01, 0.0000000000000000e+00
4, 0.0000000000000000e+00, 0.0000000000000000e+00, 0.0000000000000000e+00
5, 1.0000000000000000e+00, 0.0000000000000000e+00, 0.0000000000000000e+00
6, 2.0000000000000000e+00, 0.0000000000000000e+00, 0.0000000000000000e+00
7, 0.0000000000000000e+00, 1.0000000000000001e-01, 0.0000000000000000e+00
8, 1.0000000000000000e+00, 1.0000000000000001e-01, 0.0000000000000000e+00
9, 2.0000000000000000e+00, 1.0000000000000001e-01, 0.0000000000000000e+00
10, 0.0000000000000000e+00, -1.0000000000000001e-01, 2.5000000000000000e-01
11, 1.0000000000000000e+00, -1.0000000000000001e-01, 2.5000000000000000e-01
12, 2.0000000000000000e+00, -1.0000000000000001e-01, 2.5000000000000000e-01
13, 0.0000000000000000e+00, 0.0000000000000000e+00, 2.5000000000000000e-01
14, 1.0000000000000000e+00, 0.0000000000000000e+00, 2.5000000000000000e-01
15, 2.0000000000000000e+00, 0.0000000000000000e+00, 2.5000000000000000e-01
16, 0.0000000000000000e+00, 1.0000000000000001e-01, 2.5000000000000000e-01
17, 1.0000000000000000e+00, 1.0000000000000001e-01, 2.5000000000000000e-01
18, 2.0000000000000000e+00, 1.0000000000000001e-01, 2.5000000000000000e-01
1001, 0.0000000000000000e+00, -1.0000000000000001e-01, 0.0000000000000000e+00
1002, 5.0000000000000000e-01, -1.0000000000000001e-01, 0.0000000000000000e+00
1003, 1.0000000000000000e+00, -1.0000000000000001e-01, 0.0000000000000000e+00
1004, 1.5000000000000000e+00, -1.0000000000000001e-01, 0.0000000000000000e+00
1005, 2.0000000000000000e+00, -1.0000000000000001e-01, 0.0000000000000000e+00
1006, 0.0000000000000000e+00, -5.0000000000000003e-02, 0.0000000000000000e+00
1007, 5.0000000000000000e-01, -5.0000000000000003e-02, 0.0000000000000000e+00
1008, 1.0000000000000000e+00, -5.0000000000000003e-02, 0.0000000000000000e+00
1009, 1.5000000000000000e+00, -5.0000000000000003e-02, 0.0000000000000000e+00
1010, 2.0000000000000000e+00, -5.0000000000000003e-02, 0.0000000000000000e+00
1011, 0.0000000000000000e+00, 0.0000000000000000e+00, 0.0000000000000000e+00
1012, 5.0000000000000000e-01, 0.0000000000000000e+00, 0.0000000000000000e+00
1013, 1.0000000000000000e+00, 0.0000000000000000e+00, 0.0000000000000000e+00
1014, 1.5000000000000000e+00, 0.0000000000000000e+00, 0.0000000000000000e+00
1015, 2.0000000000000000e+00, 0.0000000000000000e+00, 0.0000000000000000e+00
1016, 0.0000000000000000e+00, 5.0000000000000017e-02, 0.0000000000000000e+00
1017, 5.0000000000000000e-01, 5.0000000000000017e-02, 0.0000000000000000e+00
1018, 1.0000000000000000e+00, 5.0000000000000017e-02, 0.0000000000000000e+00
1019, 1.5000000000000000e+00, 5.0000000000000017e-02, 0.0000000000000000e+00
1020, 2.0000000000000000e+00, 5.0000000000000017e-02, 0.0000000000000000e+00
1021, 0.0000000000000000e+00, 1.0000000000000001e-01, 0.0000000000000000e+00
1022, 5.0000000000000000e-01, 1.0000000000000001e-01, 0.0000000000000000e+00
1023, 1.0000000000000000e+00, 1.0000000000000001e-01, 0.0000000000000000e+00
1024, 1.5000000000000000e+00, 1.0000000000000001e-01, 0.0000000000000000e+00
1025, 2.0000000000000000e+00, 1.0000000000000001e-01, 0.0000000000000000e+00
1026, 0.0000000000000000e+00, -1.0000000000000001e-01, 1.2500000000000000e-01
1027, 5.0000000000000000e-01, -1.0000000000000001e-01, 1.2500000000000000e-01
1028, 1.0000000000000000e+00, -1.0000000000000001e-01, 1.2500000000000000e-01
1029, 1.5000000000000000e+00, -1.0000000000000001e-01, 1.2500000000000000e-01
1030, 2.0000000000000000e+00, -1.0000000000000001e-01, 1.2500000000000000e-01
1031, 0.0000000000000000e+00, -5.0000000000000003e-02, 1.2500000000000000e-01
1032, 5.0000000000000000e-01, -5.0000000000000003e-02, 1.2500000000000000e-01
1033, 1.0000000000000000e+00, -5.0000000000000003e-02, 1.2500000000000000e-01
1034, 1.5000000000000000e+00, -5.0000000000000003e-02, 1.2500000000000000e-01
1035, 2.0000000000000000e+00, -5.0000000000000003e-02, 1.2500000000000000e-01
1036, 0.0000000000000000e+00, 0.0000000000000000e+00, 1.2500000000000000e-01
1037, 5.0000000000000000e-01, 0.0000000000000000e+00, 1.2500000000000000e-01
1038, 1.0000000000000000e+00, 0.0000000000000000e+00, 1.2500000000000000e-01
1039, 1.5000000000000000e+00, 0.0000000000000000e+00, 1.2500000000000000e-01
1040, 2.0000000000000000e+00, 0.0000000000000000e+00, 1.2500000000000000e-01
1041, 0.0000000000000000e+00, 5.0000000000000017e-02, 1.2500000000000000e-01
1042, 5.0000000000000000e-01, 5.0000000000000017e-02, 1.2500000000000000e-01
1043, 1.0000000000000000e+00, 5.0000000000000017e-02, 1.2500000000000000e-01
1044, 1.5000000000000000e+00, 5.0000000000000017e-02, 1.2500000000000000e-01
1045, 2.0000000000000000e+00, 5.0000000000000017e-02, 1.2500000000000000e-01
1046, 0.0000000000000000e+00, 1.0000000000000001e-01, 1.2500000000000000e-01
1047, 5.0000000000000000e-01, 1.0000000000000001e-01, 1.2500000000000000e-01
1048, 1.0000000000000000e+00, 1.0000000000000001e-01, 1.2500000000000000e-01
1049, 1.5000000000000000e+00, 1.0000000000000001e-01, 1.2500000000000000e-01
1050, 2.0000000000000000e+00, 1.0000000000000001e-01, 1.2500000000000000e-01
1051, 0.0000000000000000e+00, -1.0000000000000001e-01, 2.5000000000000000e-01
1052, 5.0000000000000000e-01, -1.0000000000000001e-01, 2.5000000000000000e-01
1053, 1.0000000000000000e+00, -1.0000000000000001e-01, 2.5000000000000000e-01
1054, 1.5000000000000000e+00, -1.0000000000000001e-01, 2.5000000000000000e-01
1055, 2.0000000000000000e+00, -1.0000000000000001e-01, 2.5000000000000000e-01
1056, 0.0000000000000000e+00, -5.0000000000000003e-02, 2.5000000000000000e-01
1057, 5.0000000000000000e-01, -5.0000000000000003e-02, 2.5000000000000000e-01
1058, 1.0000000000000000e+00, -5.0000000000000003e-02, 2.5000000000000000e-01
1059, 1.5000000000000000e+00, -5.0000000000000003e-02, 2.5000000000000000e-01
1060, 2.0000000000000000e+00, -5.0000000000000003e-02, 2.5000000000000000e-01
1061, 0.0000000000000000e+00, 0.0000000000000000e+00, 2.5000000000000000e-01
1062, 5.0000000000000000e-01, 0.0000000000000000e+00, 2.5000000000000000e-01
1063, 1.0000000000000000e+00, 0.0000000000000000e+00, 2.5000000000000000e-01
1064, 1.5000000000000000e+00, 0.0000000000000000e+00, 2.5000000000000000e-01
1065, 2.0000000000000000e+00, 0.0000000000000000e+00, 2.5000000000000000e-01
1066, 0.0000000000000000e+00, 5.0000000000000017e-02, 2.5000000000000000e-01
1067, 5.0000000000000000e-01, 5.0000000000000017e-02, 2.5000000000000000e-01
1068, 1.0000000000000000e+00, 5.0000000000000017e-02, 2.5000000000000000e-01
1069, 1.5000000000000000e+00, 5.0000000000000017e-02, 2.5000000000000000e-01
1070, 2.0000000000000000e+00, 5.0000000000000017e-02, 2.5000000000000000e-01
1071, 0.0000000000000000e+00, 1.0000000000000001e-01, 2.5000000000000000e-01
1072, 5.0000000000000000e-01, 1.0000000000000001e-01, 2.5000000000000000e-01
1073, 1.0000000000000000e+00, 1.0000000000000001e-01, 2.5000000000000000e-01
1074, 1.5000000000000000e+00, 1.0000000000000001e-01, 2.5000000000000000e-01
1075, 2.0000000000000000e+00, 1.0000000000000001e-01, 2.5000000000000000e-01
2001, 0.0000000000000000e+00, -1.0000000000000001e-01, 0.0000000000000000e+00
2002, 5.0000000000000000e-01, -1.0000000000000001e-01, 0.0000000000000000e+00
2003, 1.0000000000000000e+00, -1.0000000000000001e-01, 0.0000000000000000e+00
2004, 1.5000000000000000e+00, -1.0000000000000001e-01, 0.0000000000000000e+00
2005, 2.0000000000000000e+00, -1.0000000000000001e-01, 0.0000000000000000e+00
2006, 0.0000000000000000e+00, -5.0000000000000003e-02, 0.0000000000000000e+00
2007, 4.7999999999999998e-01, -5.0000000000000003e-02, 0.0000000000000000e+00
2008, 9.7171572875253809e-01, -5.0000000000000003e-02, 0.0000000000000000e+00
2009, 1.4800000000000000e+00, -5.0000000000000003e-02, 0.0000000000000000e+00
2010, 2.0000000000000000e+00, -5.0000000000000003e-02, 0.0000000000000000e+00
2011, 0.0000000000000000e+00, 0.0000000000000000e+00, 0.0000000000000000e+00
2012, 4.7171572875253809e-01, 0.0000000000000000e+00, 0.0000000000000000e+00
2013, 9.5999999999999996e-01, 0.0000000000000000e+00, 0.0000000000000000e+00
2014, 1.4717157287525382e+00, 0.0000000000000000e+00, 0.0000000000000000e+00
2015, 2.0000000000000000e+00, 0.0000000000000000e+00, 0.0000000000000000e+00
2016, 0.0000000000000000e+00, 5.0000000000000017e-02, 0.0000000000000000e+00
2017, 4.7999999999999998e-01, 5.0000000000000017e-02, 0.0000000000000000e+00
2018, 9.7171572875253809e-01, 5.0000000000000017e-02, 0.0000000000000000e+00
2019, 1.4800000000000000e+00, 5.0000000000000017e-02, 0.0000000000000000e+00
2020, 2.0000000000000000e+00, 5.0000000000000017e-02, 0.0000000000000000e+00
2021, 0.0000000000000000e+00, 1.0000000000000001e-01, 0.0000000000000000e+00
2022, 5.0000000000000000e-01, 1.0000000000000001e-01, 0.0000000000000000e+00
2023, 1.0000000000000000e+00, 1.0000000000000001e-01, 0.0000000000000000e+00
2024, 1.5000000000000000e+00, 1.0000000000000001e-01, 0.0000000000000000e+00
2025, 2.0000000000000000e+00, 1.0000000000000001e-01, 0.0000000000000000e+00
2026, 0.0000000000000000e+00, -1.0000000000000001e-01, 1.2500000000000000e-01
2027, 5.0000000000000000e-01, -1.0000000000000001e-01, 1.2500000000000000e-01
2028, 1.0000000000000000e+00, -1.0000000000000001e-01, 1.2500000000000000e-01
2029, 1.5000000000000000e+00, -1.0000000000000001e-01, 1.2500000000000000e-01
2030, 2.0000000000000000e+00, -1.0000000000000001e-01, 1.2500000000000000e-01
2031, 0.0000000000000000e+00, -5.0000000000000003e-02, 1.2500000000000000e-01
2032, 5.0000000000000000e-01, -4.7000000000000000e-02, 1.2250000000000000e-01
2033, 1.0000000000000000e+00, -4.5757359312880719e-02, 1.2146446609406726e-01
2034, 1.5000000000000000e+00, -4.7000000000000000e-02, 1.2250000000000000e-01
2035, 2.0000000000000000e+00, -5.0000000000000003e-02, 1.2500000000000000e-01
2036, 0.0000000000000000e+00, 0.0000000000000000e+00, 1.2500000000000000e-01
2037, 5.0000000000000000e-01, 4.2426406871192849e-03, 1.2500000000000000e-01
2038, 1.0000000000000000e+00, 6.0000000000000001e-03, 1.2500000000000000e-01
2039, 1.5000000000000000e+00, 4.2426406871192857e-03, 1.2500000000000000e-01
2040, 2.0000000000000000e+00, 7.3478807948841193e-19, 1.2500000000000000e-01
2041, 0.0000000000000000e+00, 5.0000000000000017e-02, 1.2500000000000000e-01
2042, 5.0000000000000000e-01, 5.3000000000000019e-02, 1.2750000000000000e-01
2043, 1.0000000000000000e+00, 5.4242640687119301e-02, 1.2853553390593275e-01
2044, 1.5000000000000000e+00, 5.3000000000000019e-02, 1.2750000000000000e-01
2045, 2.0000000000000000e+00, 5.0000000000000017e-02, 1.2500000000000000e-01
2046, 0.0000000000000000e+00, 1.0000000000000001e-01, 1.2500000000000000e-01
2047, 5.0000000000000000e-01, 1.0000000000000001e-01, 1.2500000000000000e-01
2048, 1.0000000000000000e+00, 1.0000000000000001e-01, 1.2500000000000000e-01
2049, 1.5000000000000000e+00, 1.0000000000000001e-01, 1.2500000000000000e-01
2050, 2.0000000000000000e+00, 1.0000000000000001e-01, 1.2500000000000000e-01
2051, 0.0000000000000000e+00, -1.0000000000000001e-01, 2.5000000000000000e-01
2052, 5.0000000000000000e-01, -1.0000000000000001e-01, 2.5000000000000000e-01
2053, 1.0000000000000000e+00, -1.0000000000000001e-01, 2.5000000000000000e-01
2054, 1.5000000000000000e+00, -1.0000000000000001e-01, 2.5000000000000000e-01
2055, 2.0000000000000000e+00, -1.0000000000000001e-01, 2.5000000000000000e-01
2056, 0.0000000000000000e+00, -5.0000000000000003e-02, 2.5000000000000000e-01
2057, 5.2000000000000002e-01, -5.0000000000000003e-02, 2.5000000000000000e-01
2058, 1.0282842712474618e+00, -5.0000000000000003e-02, 2.5000000000000000e-01
2059, 1.5200000000000000e+00, -5.0000000000000003e-02, 2.5000000000000000e-01
2060, 2.0000000000000000e+00, -5.0000000000000003e-02, 2.5000000000000000e-01
2061, 0.0000000000000000e+00, 0.0000000000000000e+00, 2.5000000000000000e-01
2062, 5.2828427124746191e-01, 5.1957363374129593e-19, 2.5000000000000000e-01
2063, 1.0400000000000000e+00, 7.3478807948841193e-19, 2.5000000000000000e-01
2064, 1.5282842712474618e+00, 5.1957363374129603e-19, 2.5000000000000000e-01
2065, 2.0000000000000000e+00, 8.9985586959711457e-35, 2.5000000000000000e-01
2066, 0.0000000000000000e+00, 5.0000000000000017e-02, 2.5000000000000000e-01
2067, 5.2000000000000002e-01, 5.0000000000000017e-02, 2.5000000000000000e-01
2068, 1.0282842712474618e+00, 5.0000000000000017e-02, 2.5000000000000000e-01
2069, 1.5200000000000000e+00, 5.0000000000000017e-02, 2.5000000000000000e-01
2070, 2.0000000000000000e+00, 5.0000000000000017e-02, 2.5000000000000000e-01
2071, 0.0000000000000000e+00, 1.0000000000000001e-01, 2.5000000000000000e-01
2072, 5.0000000000000000e-01, 1.0000000000000001e-01, 2.5000000000000000e-01
2073, 1.0000000000000000e+00, 1.0000000000000001e-01, 2.5000000000000000e-01
2074, 1.5000000000000000e+00, 1.0000000000000001e-01, 2.5000000000000000e-01
2075, 2.0000000000000000e+00, 1.0000000000000001e-01, 2.5000000000000000e-01
*Element, type=C3D8T, elset=LOWER
1, 1, 2, 5, 4, 10, 11, 14, 13
2, 2, 3, 6, 5, 11, 12, 15, 14
1001, 1001, 1002, 1007, 1006, 1026, 1027, 1032, 1031
1002, 1002, 1003, 1008, 1007, 1027, 1028, 1033, 1032
1003, 1003, 1004, 1009, 1008, 1028, 1029, 1034, 1033
1004, 1004, 1005, 1010, 1009, 1029, 1030, 1035, 1034
1005, 1006, 1007, 1012, 1011, 1031, 1032, 1037, 1036
1006, 1007, 1008, 1013, 1012, 1032, 1033, 1038, 1037
1007, 1008, 1009, 1014, 1013, 1033, 1034, 1039, 1038
1008, 1009, 1010, 1015, 1014, 1034, 1035, 1040, 1039
1009, 1026, 1027, 1032, 1031, 1051, 1052, 1057, 1056
1010, 1027, 1028, 1033, 1032, 1052, 1053, 1058, 1057
1011, 1028, 1029, 1034, 1033, 1053, 1054, 1059, 1058
1012, 1029, 1030, 1035, 1034, 1054, 1055, 1060, 1059
1013, 1031, 1032, 1037, 1036, 1056, 1057, 1062, 1061
1014, 1032, 1033, 1038, 1037, 1057, 1058, 1063, 1062
1015, 1033, 1034, 1039, 1038, 1058, 1059, 1064, 1063
1016, 1034, 1035, 1040, 1039, 1059, 1060, 1065, 1064
2001, 2001, 2002, 2007, 2006, 2026, 2027, 2032, 2031
2002, 2002, 2003, 2008, 2007, 2027, 2028, 2033, 2032
2003, 2003, 2004, 2009, 2008, 2028, 2029, 2034, 2033
2004, 2004, 2005, 2010, 2009, 2029, 2030, 2035, 2034
2005, 2006, 2007, 2012, 2011, 2031, 2032, 2037, 2036
2006, 2007, 2008, 2013, 2012, 2032, 2033, 2038, 2037
2007, 2008, 2009, 2014, 2013, 2033, 2034, 2039, 2038
2008, 2009, 2010, 2015, 2014, 2034, 2035, 2040, 2039
2009, 2026, 2027, 2032, 2031, 2051, 2052, 2057, 2056
2010, 2027, 2028, 2033, 2032, 2052, 2053, 2058, 2057
2011, 2028, 2029, 2034, 2033, 2053, 2054, 2059, 2058
2012, 2029, 2030, 2035, 2034, 2054, 2055, 2060, 2059
2013, 2031, 2032, 2037, 2036, 2056, 2057, 2062, 2061
2014, 2032, 2033, 2038, 2037, 2057, 2058, 2063, 2062
2015, 2033, 2034, 2039, 2038, 2058, 2059, 2064, 2063
2016, 2034, 2035, 2040, 2039, 2059, 2060, 2065, 2064
*Element, type=C3D8T, elset=UPPER
3, 4, 5, 8, 7, 13, 14, 17, 16
4, 5, 6, 9, 8, 14, 15, 18, 17
1017, 1011, 1012, 1017, 1016, 1036, 1037, 1042, 1041
1018, 1012, 1013, 1018, 1017, 1037, 1038, 1043, 1042
1019, 1013, 1014, 1019, 1018, 1038, 1039, 1044, 1043
1020, 1014, 1015, 1020, 1019, 1039, 1040, 1045, 1044
1021, 1016, 1017, 1022, 1021, 1041, 1042, 1047, 1046
1022, 1017, 1018, 1023, 1022, 1042, 1043, 1048, 1047
1023, 1018, 1019, 1024, 1023, 1043, 1044, 1049, 1048
1024, 1019, 1020, 1025, 1024, 1044, 1045, 1050, 1049
1025, 1036, 1037, 1042, 1041, 1061, 1062, 1067, 1066
1026, 1037, 1038, 1043, 1042, 1062, 1063, 1068, 1067
1027, 1038, 1039, 1044, 1043, 1063, 1064, 1069, 1068
1028, 1039, 1040, 1045, 1044, 1064, 1065, 1070, 1069
1029, 1041, 1042, 1047, 1046, 1066, 1067, 1072, 1071
1030, 1042, 1043, 1048, 1047, 1067, 1068, 1073, 1072
1031, 1043, 1044, 1049, 1048, 1068, 1069, 1074, 1073
1032, 1044, 1045, 1050, 1049, 1069, 1070, 1075, 1074
2017, 2011, 2012, 2017, 2016, 2036, 2037, 2042, 2041
2018, 2012, 2013, 2018, 2017, 2037, 2038, 2043, 2042
2019, 2013, 2014, 2019, 2018, 2038, 2039, 2044, 2043
2020, 2014, 2015, 2020, 2019, 2039, 2040, 2045, 2044
2021, 2016, 2017, 2022, 2021, 2041, 2042, 2047, 2046
2022, 2017, 2018, 2023, 2022, 2042, 2043, 2048, 2047
2023, 2018, 2019, 2024, 2023, 2043, 2044, 2049, 2048
2024, 2019, 2020, 2025, 2024, 2044, 2045, 2050, 2049
2025, 2036, 2037, 2042, 2041, 2061, 2062, 2067, 2066
2026, 2037, 2038, 2043, 2042, 2062, 2063, 2068, 2067
2027, 2038, 2039, 2044, 2043, 2063, 2064, 2069, 2068
2028, 2039, 2040, 2045, 2044, 2064, 2065, 2070, 2069
2029, 2041, 2042, 2047, 2046, 2066, 2067, 2072, 2071
2030, 2042, 2043, 2048, 2047, 2067, 2068, 2073, 2072
2031, 2043, 2044, 2049, 2048, 2068, 2069, 2074, 2073
2032, 2044, 2045, 2050, 2049, 2069, 2070, 2075, 2074
*Nset, nset=BOTTOM
1, 2, 3, 10, 11, 12, 1001, 1002, 1003, 1004, 1005, 1026
1027, 1028, 1029, 1030, 1051, 1052, 1053, 1054, 1055, 2001, 2002, 2003
2004, 2005, 2026, 2027, 2028, 2029, 2030, 2051, 2052, 2053, 2054, 2055
*Nset, nset=TOP
7, 8, 9, 16, 17, 18, 1021, 1022, 1023, 1024, 1025, 1046
1047, 1048, 1049, 1050, 1071, 1072, 1073, 1074, 1075, 2021, 2022, 2023
2024, 2025, 2046, 2047, 2048, 2049, 2050, 2071, 2072, 2073, 2074, 2075
*Nset, nset=LEFT_LOWER
1, 4, 10, 13, 1001, 1006, 1011, 1026, 1031, 1036, 1051, 1056
1061, 2001, 2006, 2011, 2026, 2031, 2036, 2051, 2056, 2061
*Nset, nset=ALL_NODES
1, 2, 3, 4, 5, 6, 7, 8, 9, 10, 11, 12
13, 14, 15, 16, 17, 18, 1001, 1002, 1003, 1004, 1005, 1006
1007, 1008, 1009, 1010, 1011, 1012, 1013, 1014, 1015, 1016, 1017, 1018
1019, 1020, 1021, 1022, 1023, 1024, 1025, 1026, 1027, 1028, 1029, 1030
1031, 1032, 1033, 1034, 1035, 1036, 1037, 1038, 1039, 1040, 1041, 1042
1043, 1044, 1045, 1046, 1047, 1048, 1049, 1050, 1051, 1052, 1053, 1054
1055, 1056, 1057, 1058, 1059, 1060, 1061, 1062, 1063, 1064, 1065, 1066
1067, 1068, 1069, 1070, 1071, 1072, 1073, 1074, 1075, 2001, 2002, 2003
2004, 2005, 2006, 2007, 2008, 2009, 2010, 2011, 2012, 2013, 2014, 2015
2016, 2017, 2018, 2019, 2020, 2021, 2022, 2023, 2024, 2025, 2026, 2027
2028, 2029, 2030, 2031, 2032, 2033, 2034, 2035, 2036, 2037, 2038, 2039
2040, 2041, 2042, 2043, 2044, 2045, 2046, 2047, 2048, 2049, 2050, 2051
2052, 2053, 2054, 2055, 2056, 2057, 2058, 2059, 2060, 2061, 2062, 2063
2064, 2065, 2066, 2067, 2068, 2069, 2070, 2071, 2072, 2073, 2074, 2075
*Material, name=LOWER_MATERIAL
*Elastic
1.2000000000000000e11, 2.8000000000000003e-1
*Expansion, zero=3.0000000000000000e2
1.8000000000000000e-5
*Conductivity
8.0000000000000000e0
*Density
1.0000000000000000e4
*Specific Heat
3.0000000000000000e2
*Material, name=UPPER_MATERIAL
*Elastic
2.0000000000000000e11, 3.0000000000000000e-1
*Expansion, zero=3.0000000000000000e2
7.0000000000000001e-6
*Conductivity
2.4000000000000000e1
*Density
6.5000000000000000e3
*Specific Heat
5.0000000000000000e2
*Solid Section, elset=LOWER, material=LOWER_MATERIAL
,
*Solid Section, elset=UPPER, material=UPPER_MATERIAL
,
*Initial Conditions, type=TEMPERATURE
ALL_NODES, 3.0000000000000000e2
*Step, name=STEP1, nlgeom=NO, inc=4
*Coupled Temperature-Displacement
1.0000000000000000e+07, 1.0000000000000000e+07, 1.0000000000000000e+07, 1.0000000000000000e+07
*Boundary, op=NEW
BOTTOM, 11, 11, 4.8000000000000000e+02
TOP, 11, 11, 3.0000000000000000e2
LEFT_LOWER, 1, 3, 0.0
*Output, field, frequency=1
*Node Output
NT, RFL, RF, U
*Element Output, directions=YES
COORD, E, HFL, IVOL, S, TEMP
*End Step
*Step, name=STEP2, nlgeom=NO, inc=4
*Coupled Temperature-Displacement
1.0000000000000000e+07, 1.0000000000000000e+07, 1.0000000000000000e+07, 1.0000000000000000e+07
*Boundary, op=NEW
BOTTOM, 11, 11, 6.0000000000000000e+02
TOP, 11, 11, 3.0000000000000000e2
LEFT_LOWER, 1, 3, 0.0
*Output, field, frequency=1
*Node Output
NT, RFL, RF, U
*Element Output, directions=YES
COORD, E, HFL, IVOL, S, TEMP
*End Step
*Step, name=STEP3, nlgeom=NO, inc=4
*Coupled Temperature-Displacement
1.0000000000000000e+07, 1.0000000000000000e+07, 1.0000000000000000e+07, 1.0000000000000000e+07
*Boundary, op=NEW
BOTTOM, 11, 11, 6.0000000000000000e+02
TOP, 11, 11, 3.0000000000000000e2
LEFT_LOWER, 1, 3, 0.0
*Output, field, frequency=1
*Node Output
NT, RFL, RF, U
*Element Output, directions=YES
COORD, E, HFL, IVOL, S, TEMP
*End Step
*Step, name=STEP4, nlgeom=NO, inc=4
*Coupled Temperature-Displacement
1.0000000000000000e+07, 1.0000000000000000e+07, 1.0000000000000000e+07, 1.0000000000000000e+07
*Boundary, op=NEW
BOTTOM, 11, 11, 3.3000000000000000e+02
TOP, 11, 11, 3.0000000000000000e2
LEFT_LOWER, 1, 3, 0.0
*Output, field, frequency=1
*Node Output
NT, RFL, RF, U
*Element Output, directions=YES
COORD, E, HFL, IVOL, S, TEMP
*End Step
