*Heading
** Prescribed native first-increment displacement geometry; contact output identification only.
** Generated from the same Fuelsim mesh that is stored as the tracked Exodus reference.
*Node
1, 0,-0.10000000000000001, 0
2, 1,-0.10000000000000001, 0
3, 1,0.45000000000000007, 0
4, 0,0.45000000000000007, 0
5, 0,-0.10000000000000001, 1
6, 1,-0.10000000000000001, 1
7, 1,0.45000000000000007, 1
8, 0,0.45000000000000007, 1
9, 0.5,-0.10000000000000001, 0
10, 1,0.17500000000000002, 0
11, 0.5,0.45000000000000007, 0
12, 0,0.17500000000000002, 0
13, 0,-0.10000000000000001, 0.5
14, 1,-0.10000000000000001, 0.5
15, 1,0.45000000000000007, 0.5
16, 0,0.45000000000000007, 0.5
17, 0.5,-0.10000000000000001, 1
18, 1,0.17500000000000002, 1
19, 0.5,0.45000000000000007, 1
20, 0,0.17500000000000002, 1
21, 1,1, 0
22, 0,1, 0
23, 1,1, 1
24, 0,1, 1
25, 1,0.72500000000000009, 0
26, 0.5,1, 0
27, 0,0.72500000000000009, 0
28, 1,1, 0.5
29, 0,1, 0.5
30, 1,0.72500000000000009, 1
31, 0.5,1, 1
32, 0,0.72500000000000009, 1
33, 1,1.55, 0
34, 0,1.55, 0
35, 1,1.55, 1
36, 0,1.55, 1
37, 1,1.2749999999999999, 0
38, 0.5,1.55, 0
39, 0,1.2749999999999999, 0
40, 1,1.55, 0.5
41, 0,1.55, 0.5
42, 1,1.2749999999999999, 1
43, 0.5,1.55, 1
44, 0,1.2749999999999999, 1
45, 1,2.1000000000000001, 0
46, 0,2.1000000000000001, 0
47, 1,2.1000000000000001, 1
48, 0,2.1000000000000001, 1
49, 1,1.8250000000000002, 0
50, 0.5,2.1000000000000001, 0
51, 0,1.8250000000000002, 0
52, 1,2.1000000000000001, 0.5
53, 0,2.1000000000000001, 0.5
54, 1,1.8250000000000002, 1
55, 0.5,2.1000000000000001, 1
56, 0,1.8250000000000002, 1
57, 1, 0, 0
58, 2, 0, 0
59, 2, 1.2, 0
60, 1, 1.2, 0
61, 1, 0, 1
62, 2, 0, 1
63, 2, 1.2, 1
64, 1, 1.2, 1
65, 1.5, 0, 0
66, 2, 0.6, 0
67, 1.5, 1.2, 0
68, 1, 0.6, 0
69, 1, 0, 0.5
70, 2, 0, 0.5
71, 2, 1.2, 0.5
72, 1, 1.2, 0.5
73, 1.5, 0, 1
74, 2, 0.6, 1
75, 1.5, 1.2, 1
76, 1, 0.6, 1
77, 2, 2, 0
78, 1, 2, 0
79, 2, 2, 1
80, 1, 2, 1
81, 2, 1.6, 0
82, 1.5, 2, 0
83, 1, 1.6, 0
84, 2, 2, 0.5
85, 1, 2, 0.5
86, 2, 1.6, 1
87, 1.5, 2, 1
88, 1, 1.6, 1
*Element, type=C3D20RT, elset=PRIMARY
1, 1, 2, 3, 4, 5, 6, 7, 8, 9, 10, 11, 12, 17, 18, 19, 20, 13, 14, 15, 16
2, 4, 3, 21, 22, 8, 7, 23, 24, 11, 25, 26, 27, 19, 30, 31, 32, 16, 15, 28, 29
3, 22, 21, 33, 34, 24, 23, 35, 36, 26, 37, 38, 39, 31, 42, 43, 44, 29, 28, 40, 41
4, 34, 33, 45, 46, 36, 35, 47, 48, 38, 49, 50, 51, 43, 54, 55, 56, 41, 40, 52, 53
*Element, type=C3D20RT, elset=SECONDARY
5, 57, 58, 59, 60, 61, 62, 63, 64, 65, 66, 67, 68, 73, 74, 75, 76, 69, 70, 71, 72
6, 60, 59, 77, 78, 64, 63, 79, 80, 67, 81, 82, 83, 75, 86, 87, 88, 72, 71, 84, 85
*Elset, elset=ALL
PRIMARY, SECONDARY
*Nset, nset=PRIMARY_X0
1, 4, 5, 8, 12, 13, 16, 20, 22, 24, 27, 29, 32, 34, 36, 39
41, 44, 46, 48, 51, 53, 56
*Nset, nset=SECONDARY_X2
58, 59, 62, 63, 66, 70, 71, 74, 77, 79, 81, 84, 86
*Nset, nset=SECONDARY_Y0
57, 58, 61, 62, 65, 69, 70, 73
*Nset, nset=SECONDARY_Z0
57, 58, 59, 60, 65, 66, 67, 68, 77, 78, 81, 82, 83
*Surface, type=ELEMENT, name=PRIMARY_CONTACT
PRIMARY, S4
*Surface, type=ELEMENT, name=SECONDARY_CONTACT
SECONDARY, S6
*Nset, nset=ALL_NODES, generate
1, 88, 1
*Nset, nset=SECONDARY_NODES, generate
57, 88, 1
*Material, name=ELASTIC
*Elastic
1.e9, 0.
*Conductivity
10
*Density
1
*Specific Heat
1
*Solid Section, elset=ALL, material=ELASTIC
,
*Surface Interaction, name=PENALTY_CONTACT
*Surface Behavior, pressure-overclosure=LINEAR
1.e11,
*Friction, slip tolerance=1.e-5
0.3,
*Gap Conductance
100, 0
100, 1e-5
*Gap Heat Generation
0, 0.5
*Contact Pair, interaction=PENALTY_CONTACT, type=SURFACE TO SURFACE, small sliding, adjust=0.
SECONDARY_CONTACT, PRIMARY_CONTACT
*Initial Conditions, type=TEMPERATURE
ALL_NODES, 300
SECONDARY_NODES, 400
*Step, name=GEOMETRY_1, nlgeom=YES, unsymm=YES, extrapolation=NO
*Coupled Temperature-Displacement
0.025,0.025
*Boundary
1,1,1,-1.2634777659767471e-40
1,2,2,5.0188840596868322e-40
1,3,3,-3.1085809784098389e-41
2,1,1,-0.00015572864404336475
2,2,2,7.4689224790169093e-05
2,3,3,7.8268556748598504e-07
3,1,1,-0.0002346297178712256
3,2,2,6.0119953455486484e-05
3,3,3,3.4587252736013969e-07
4,1,1,1.085676979219507e-32
4,2,2,-1.7976270368791273e-33
4,3,3,1.643713952847422e-35
5,1,1,6.4312326197251232e-43
5,2,2,1.4858025873233276e-40
5,3,3,5.7525167076637364e-41
6,1,1,-0.00015562773548242345
6,2,2,7.5378119404765286e-05
6,3,3,1.4373428687554815e-06
7,1,1,-0.00023440174597205349
7,2,2,6.0703118882772832e-05
7,3,3,5.7063103515786663e-07
8,1,1,1.0864664356721531e-32
8,2,2,-1.7926001455423398e-33
8,3,3,-1.6020942868457236e-36
9,1,1,-7.9796793364025266e-05
9,2,2,1.2568230371759347e-05
9,3,3,2.797991388746357e-06
10,1,1,-0.00020985756836890447
10,2,2,6.6772114300824438e-05
10,3,3,-9.9654349974129554e-07
11,1,1,-0.00011019054853438666
11,2,2,2.3561076994554338e-05
11,3,3,-9.5551474003696457e-08
12,1,1,2.7631365848817745e-40
12,2,2,-8.1808171362178591e-40
12,3,3,-9.5043828922630736e-41
13,1,1,-5.4712919173667737e-40
13,2,2,2.1618892903189553e-40
13,3,3,7.1658792141742514e-41
14,1,1,-0.00014951954800327945
14,2,2,8.0403819824817444e-05
14,3,3,1.0338037529180552e-06
15,1,1,-0.00023536283062819559
15,2,2,5.9757348209706814e-05
15,3,3,4.1837297052002945e-07
16,1,1,-3.7208136933558962e-32
16,2,2,5.2860484780499005e-33
16,3,3,6.7854172316394902e-36
17,1,1,-8.0110409198592034e-05
17,2,2,1.2957972413405813e-05
17,3,3,-1.7943481368398213e-06
18,1,1,-0.00020971724044460335
18,2,2,6.7448742281077501e-05
18,3,3,2.6891654955833176e-06
19,1,1,-0.00011041110655691131
19,2,2,2.3980106084851848e-05
19,3,3,5.6995287750787111e-07
20,1,1,9.1514628384637585e-41
20,2,2,-4.4515094640865105e-40
20,3,3,-5.8977266989535409e-41
21,1,1,-0.00024780959714809804
21,2,2,6.0687581934034791e-05
21,3,3,-8.6572154090089961e-07
22,1,1,8.9027169531383145e-33
22,2,2,-1.6210115368394969e-33
22,3,3,-1.7947658395457538e-35
23,1,1,-0.00024780630953127826
23,2,2,6.0943845990766762e-05
23,3,3,5.2064265016691246e-07
24,1,1,8.9005903584131358e-33
24,2,2,-1.6201191399616512e-33
24,3,3,3.0418424410210042e-35
25,1,1,-0.00024083634221476455
25,2,2,6.0549137625699098e-05
25,3,3,-2.56888341727408e-07
26,1,1,-0.00012351623287941001
26,2,2,2.7138005710538047e-05
26,3,3,3.9594551205723557e-07
27,1,1,9.4789423333334396e-40
27,2,2,1.0111826785934869e-39
27,3,3,-2.7898192496315954e-40
28,1,1,-0.00024519720585843051
28,2,2,5.9933476077809299e-05
28,3,3,-1.315439056297037e-07
29,1,1,-3.6304567382962033e-32
29,2,2,5.8165543306774279e-33
29,3,3,-2.0957537434118215e-35
30,1,1,-0.00024066410637735351
30,2,2,6.0999969879734667e-05
30,3,3,4.475406290210844e-07
31,1,1,-0.00012347408761134845
31,2,2,2.7313976503047461e-05
31,3,3,-4.2655575541305195e-07
32,1,1,4.3505609512598893e-40
32,2,2,8.6044815283255149e-40
32,3,3,-1.2127386044276404e-40
33,1,1,-0.00024626143989485378
33,2,2,5.7523456657748763e-05
33,3,3,1.8556366667565121e-06
34,1,1,6.8157281272043048e-33
34,2,2,-5.1590146950923374e-34
34,3,3,4.0304031942418895e-35
35,1,1,-0.00024626613804013632
35,2,2,5.7327127794176034e-05
35,3,3,-1.9876588604961067e-06
36,1,1,6.8140405754281533e-33
36,2,2,-5.1598834554280896e-34
36,3,3,-5.5571800476118468e-35
37,1,1,-0.00024869634538445093
37,2,2,5.9168534510427327e-05
37,3,3,7.9076528571706599e-07
38,1,1,-0.00012168723992210275
38,2,2,2.8079909056850436e-05
38,3,3,-7.7574280021614743e-07
39,1,1,-1.4336216019978518e-39
39,2,2,5.1191470308094388e-40
39,3,3,-2.8496611502634129e-40
40,1,1,-0.00025185676379943668
40,2,2,5.8805868329721389e-05
40,3,3,-6.4482000953743595e-08
41,1,1,-3.8461583538566307e-32
41,2,2,4.1971389796292322e-33
41,3,3,1.3404726424259748e-35
42,1,1,-0.00024873088548349768
42,2,2,5.9174477986554017e-05
42,3,3,-1.1863101453100499e-06
43,1,1,-0.00012168508535179478
43,2,2,2.7984039840636041e-05
43,3,3,7.4379058263105089e-07
44,1,1,5.9852183547104262e-41
44,2,2,-1.9551170784459744e-40
44,3,3,-1.12612141087697e-40
45,1,1,-0.00024528937776485357
45,2,2,5.3194691297607672e-05
45,3,3,-1.4386803464006618e-06
46,1,1,-2.2460742389037617e-39
46,2,2,-1.2725178317054684e-39
46,3,3,-1.9652815859275679e-40
47,1,1,-0.00024526924053523485
47,2,2,5.2873746775447422e-05
47,3,3,2.112373862589602e-06
48,1,1,-7.1582340049070061e-40
48,2,2,-4.3185546512207479e-40
48,3,3,1.4119152503748483e-43
49,1,1,-0.00025084405726642463
49,2,2,5.6070646045338235e-05
49,3,3,-3.9902177523372002e-07
50,1,1,-0.00013811458931446233
50,2,2,3.1354673809926771e-05
50,3,3,1.2421600733085636e-06
51,1,1,3.5809495072030603e-39
51,2,2,3.9480073331156738e-40
51,3,3,9.1026445750578312e-41
52,1,1,-0.00023862968975750615
52,2,2,5.1312546150139042e-05
52,3,3,2.8673750642646133e-07
53,1,1,-9.0664682598384111e-40
53,2,2,-1.455817778406731e-41
53,3,3,6.0025841006070591e-40
54,1,1,-0.0002508673281220206
54,2,2,5.5769016148098992e-05
54,3,3,7.23006984646827e-07
55,1,1,-0.00013817219722598112
55,2,2,3.1218368243707471e-05
55,3,3,-1.0504120429160443e-06
56,1,1,9.4305790421455495e-40
56,2,2,1.0743285934488728e-40
56,3,3,-1.2859749796868502e-41
57,1,1,-0.0001881923314891401
57,2,2,6.6647867923231766e-05
57,3,3,-1.0434683309866688e-34
58,1,1,-0.00050000000000000001
58,2,2,0.000125
58,3,3,-1.1216150995581011e-40
59,1,1,-0.00050000000000000001
59,2,2,0.000125
59,3,3,1.6035482025558174e-35
60,1,1,-0.000251144424352755
60,2,2,6.3480336690046484e-05
60,3,3,1.5643188719285385e-34
61,1,1,-0.00018804943348584732
61,2,2,6.7421660979525796e-05
61,3,3,3.3874858745412388e-06
62,1,1,-0.00050000000000000001
62,2,2,0.000125
62,3,3,-5.9129435128948781e-07
63,1,1,-0.00050000000000000001
63,2,2,0.000125
63,3,3,1.5077881200933717e-07
64,1,1,-0.00025124612608313726
64,2,2,6.3516565555726714e-05
64,3,3,-9.7153196730994688e-07
65,1,1,-0.00034016920825658329
65,2,2,0.00010519968365107292
65,3,3,-6.2999658010490065e-41
66,1,1,-0.00050000000000000001
66,2,2,0.000125
66,3,3,4.1300584507790662e-40
67,1,1,-0.00037291440021322179
67,2,2,9.5472628316089367e-05
67,3,3,-7.5855737438061307e-35
68,1,1,-0.00023996988451683459
68,2,2,6.5401751163254569e-05
68,3,3,-1.4723981100352978e-34
69,1,1,-0.00019235265350193057
69,2,2,6.513851295798876e-05
69,3,3,1.0487700240457166e-06
70,1,1,-0.00050000000000000001
70,2,2,0.000125
70,3,3,2.0302676367668702e-07
71,1,1,-0.00050000000000000001
71,2,2,0.000125
71,3,3,-2.0402787260525125e-07
72,1,1,-0.00024911171626480202
72,2,2,6.3920551919780398e-05
72,3,3,-1.0516783722409207e-07
73,1,1,-0.00033977196939339932
73,2,2,0.00010569845415563521
73,3,3,3.1448543257610258e-07
74,1,1,-0.00050000000000000001
74,2,2,0.000125
74,3,3,-3.7516562054619526e-07
75,1,1,-0.00037297335973889923
75,2,2,9.5429601135627452e-05
75,3,3,4.1963689211803429e-08
76,1,1,-0.00023975859985580407
76,2,2,6.5873396575409336e-05
76,3,3,5.959755952907669e-07
77,1,1,-0.00050000000000000001
77,2,2,0.000125
77,3,3,-5.2525736985752369e-41
78,1,1,-0.00025264610719512477
78,2,2,5.8184180367829569e-05
78,3,3,-9.0313534411098936e-35
79,1,1,-0.00050000000000000001
79,2,2,0.000125
79,3,3,-2.6806754343295118e-07
80,1,1,-0.00025265798445094892
80,2,2,5.7811031277044552e-05
80,3,3,1.2548470044365007e-06
81,1,1,-0.00050000000000000001
81,2,2,0.000125
81,3,3,1.8661637132960985e-41
82,1,1,-0.0003890989461156325
82,2,2,9.4107339176624367e-05
82,3,3,-1.2432617041961463e-39
83,1,1,-0.00025216521108230273
83,2,2,6.0506171251360992e-05
83,3,3,9.5193733224310479e-35
84,1,1,-0.00050000000000000001
84,2,2,0.000125
84,3,3,1.1605354130082205e-07
85,1,1,-0.00025458916297788585
85,2,2,5.8257052802716384e-05
85,3,3,2.8345939979251819e-07
86,1,1,-0.00050000000000000001
86,2,2,0.000125
86,3,3,8.4858614465234919e-08
87,1,1,-0.00038909477927423383
87,2,2,9.3962266420131879e-05
87,3,3,7.8544784574157991e-08
88,1,1,-0.00025217536825322689
88,2,2,6.0309583560895246e-05
88,3,3,-1.5505770626664444e-07
PRIMARY_X0,11,11,300.
SECONDARY_X2,11,11,400.
*Output, field, frequency=1
*Node Output
U,NT,RF,RFL
*Element Output, directions=YES
S
*Contact Output
CSTRESS,CDISP,CFORCE,HFLA,CTANDIR
*End Step
*Step, name=GEOMETRY_2, nlgeom=YES, unsymm=YES, extrapolation=NO
*Coupled Temperature-Displacement
0.025,0.025
*Boundary
1,1,1,-2.5269555319534942e-40
1,2,2,1.0037768119373664e-39
1,3,3,-6.2171619568196777e-41
2,1,1,-0.0003114572880867295
2,2,2,0.00014937844958033819
2,3,3,1.5653711349719701e-06
3,1,1,-0.00046925943574245121
3,2,2,0.00012023990691097297
3,3,3,6.9174505472027938e-07
4,1,1,2.1713539584390141e-32
4,2,2,-3.5952540737582547e-33
4,3,3,3.287427905694844e-35
5,1,1,1.2862465239450246e-42
5,2,2,2.9716051746466552e-40
5,3,3,1.1505033415327473e-40
6,1,1,-0.0003112554709648469
6,2,2,0.00015075623880953057
6,3,3,2.8746857375109629e-06
7,1,1,-0.00046880349194410698
7,2,2,0.00012140623776554566
7,3,3,1.1412620703157333e-06
8,1,1,2.1729328713443061e-32
8,2,2,-3.5852002910846796e-33
8,3,3,-3.2041885736914472e-36
9,1,1,-0.00015959358672805053
9,2,2,2.5136460743518694e-05
9,3,3,5.595982777492714e-06
10,1,1,-0.00041971513673780893
10,2,2,0.00013354422860164888
10,3,3,-1.9930869994825911e-06
11,1,1,-0.00022038109706877331
11,2,2,4.7122153989108676e-05
11,3,3,-1.9110294800739291e-07
12,1,1,5.526273169763549e-40
12,2,2,-1.6361634272435718e-39
12,3,3,-1.9008765784526147e-40
13,1,1,-1.0942583834733547e-39
13,2,2,4.3237785806379106e-40
13,3,3,1.4331758428348503e-40
14,1,1,-0.0002990390960065589
14,2,2,0.00016080763964963489
14,3,3,2.0676075058361104e-06
15,1,1,-0.00047072566125639119
15,2,2,0.00011951469641941363
15,3,3,8.3674594104005891e-07
16,1,1,-7.4416273867117924e-32
16,2,2,1.0572096956099801e-32
16,3,3,1.357083446327898e-35
17,1,1,-0.00016022081839718407
17,2,2,2.5915944826811625e-05
17,3,3,-3.5886962736796427e-06
18,1,1,-0.00041943448088920671
18,2,2,0.000134897484562155
18,3,3,5.3783309911666352e-06
19,1,1,-0.00022082221311382262
19,2,2,4.7960212169703696e-05
19,3,3,1.1399057550157422e-06
20,1,1,1.8302925676927517e-40
20,2,2,-8.903018928173021e-40
20,3,3,-1.1795453397907082e-40
21,1,1,-0.00049561919429619609
21,2,2,0.00012137516386806958
21,3,3,-1.7314430818017992e-06
22,1,1,1.7805433906276629e-32
22,2,2,-3.2420230736789938e-33
22,3,3,-3.5895316790915076e-35
23,1,1,-0.00049561261906255652
23,2,2,0.00012188769198153352
23,3,3,1.0412853003338249e-06
24,1,1,1.7801180716826272e-32
24,2,2,-3.2402382799233024e-33
24,3,3,6.0836848820420084e-35
25,1,1,-0.0004816726844295291
25,2,2,0.0001210982752513982
25,3,3,-5.1377668345481601e-07
26,1,1,-0.00024703246575882002
26,2,2,5.4276011421076094e-05
26,3,3,7.9189102411447114e-07
27,1,1,1.8957884666666879e-39
27,2,2,2.0223653571869738e-39
27,3,3,-5.5796384992631908e-40
28,1,1,-0.00049039441171686102
28,2,2,0.0001198669521556186
28,3,3,-2.630878112594074e-07
29,1,1,-7.2609134765924065e-32
29,2,2,1.1633108661354856e-32
29,3,3,-4.191507486823643e-35
30,1,1,-0.00048132821275470702
30,2,2,0.00012199993975946933
30,3,3,8.950812580421688e-07
31,1,1,-0.0002469481752226969
31,2,2,5.4627953006094921e-05
31,3,3,-8.5311151082610389e-07
32,1,1,8.7011219025197786e-40
32,2,2,1.720896305665103e-39
32,3,3,-2.4254772088552808e-40
33,1,1,-0.00049252287978970757
33,2,2,0.00011504691331549753
33,3,3,3.7112733335130242e-06
34,1,1,1.363145625440861e-32
34,2,2,-1.0318029390184675e-33
34,3,3,8.060806388483779e-35
35,1,1,-0.00049253227608027264
35,2,2,0.00011465425558835207
35,3,3,-3.9753177209922133e-06
36,1,1,1.3628081150856307e-32
36,2,2,-1.0319766910856179e-33
36,3,3,-1.1114360095223694e-34
37,1,1,-0.00049739269076890186
37,2,2,0.00011833706902085465
37,3,3,1.581530571434132e-06
38,1,1,-0.0002433744798442055
38,2,2,5.6159818113700871e-05
38,3,3,-1.5514856004322949e-06
39,1,1,-2.8672432039957037e-39
39,2,2,1.0238294061618878e-39
39,3,3,-5.6993223005268259e-40
40,1,1,-0.00050371352759887337
40,2,2,0.00011761173665944278
40,3,3,-1.2896400190748719e-07
41,1,1,-7.6923167077132613e-32
41,2,2,8.3942779592584643e-33
41,3,3,2.6809452848519496e-35
42,1,1,-0.00049746177096699536
42,2,2,0.00011834895597310803
42,3,3,-2.3726202906200998e-06
43,1,1,-0.00024337017070358955
43,2,2,5.5968079681272082e-05
43,3,3,1.4875811652621018e-06
44,1,1,1.1970436709420852e-40
44,2,2,-3.9102341568919488e-40
44,3,3,-2.25224282175394e-40
45,1,1,-0.00049057875552970713
45,2,2,0.00010638938259521534
45,3,3,-2.8773606928013236e-06
46,1,1,-4.4921484778075235e-39
46,2,2,-2.5450356634109369e-39
46,3,3,-3.9305631718551358e-40
47,1,1,-0.0004905384810704697
47,2,2,0.00010574749355089484
47,3,3,4.224747725179204e-06
48,1,1,-1.4316468009814012e-39
48,2,2,-8.6371093024414957e-40
48,3,3,2.8238305007496966e-43
49,1,1,-0.00050168811453284927
49,2,2,0.00011214129209067647
49,3,3,-7.9804355046744003e-07
50,1,1,-0.00027622917862892465
50,2,2,6.2709347619853542e-05
50,3,3,2.4843201466171271e-06
51,1,1,7.1618990144061205e-39
51,2,2,7.8960146662313476e-40
51,3,3,1.8205289150115662e-40
52,1,1,-0.0004772593795150123
52,2,2,0.00010262509230027808
52,3,3,5.7347501285292267e-07
53,1,1,-1.8132936519676822e-39
53,2,2,-2.9116355568134621e-41
53,3,3,1.2005168201214118e-39
54,1,1,-0.0005017346562440412
54,2,2,0.00011153803229619798
54,3,3,1.446013969293654e-06
55,1,1,-0.00027634439445196223
55,2,2,6.2436736487414942e-05
55,3,3,-2.1008240858320886e-06
56,1,1,1.8861158084291099e-39
56,2,2,2.1486571868977457e-40
56,3,3,-2.5719499593737005e-41
57,1,1,-0.00037638466297828019
57,2,2,0.00013329573584646353
57,3,3,-2.0869366619733375e-34
58,1,1,-0.001
58,2,2,0.00025000000000000001
58,3,3,-2.2432301991162023e-40
59,1,1,-0.001
59,2,2,0.00025000000000000001
59,3,3,3.2070964051116348e-35
60,1,1,-0.00050228884870550999
60,2,2,0.00012696067338009297
60,3,3,3.1286377438570769e-34
61,1,1,-0.00037609886697169463
61,2,2,0.00013484332195905159
61,3,3,6.7749717490824776e-06
62,1,1,-0.001
62,2,2,0.00025000000000000001
62,3,3,-1.1825887025789756e-06
63,1,1,-0.001
63,2,2,0.00025000000000000001
63,3,3,3.0155762401867434e-07
64,1,1,-0.00050249225216627451
64,2,2,0.00012703313111145343
64,3,3,-1.9430639346198938e-06
65,1,1,-0.00068033841651316657
65,2,2,0.00021039936730214584
65,3,3,-1.2599931602098013e-40
66,1,1,-0.001
66,2,2,0.00025000000000000001
66,3,3,8.2601169015581323e-40
67,1,1,-0.00074582880042644358
67,2,2,0.00019094525663217873
67,3,3,-1.5171147487612261e-34
68,1,1,-0.00047993976903366918
68,2,2,0.00013080350232650914
68,3,3,-2.9447962200705956e-34
69,1,1,-0.00038470530700386113
69,2,2,0.00013027702591597752
69,3,3,2.0975400480914332e-06
70,1,1,-0.001
70,2,2,0.00025000000000000001
70,3,3,4.0605352735337404e-07
71,1,1,-0.001
71,2,2,0.00025000000000000001
71,3,3,-4.080557452105025e-07
72,1,1,-0.00049822343252960404
72,2,2,0.0001278411038395608
72,3,3,-2.1033567444818413e-07
73,1,1,-0.00067954393878679863
73,2,2,0.00021139690831127042
73,3,3,6.2897086515220516e-07
74,1,1,-0.001
74,2,2,0.00025000000000000001
74,3,3,-7.5033124109239051e-07
75,1,1,-0.00074594671947779845
75,2,2,0.0001908592022712549
75,3,3,8.3927378423606857e-08
76,1,1,-0.00047951719971160814
76,2,2,0.00013174679315081867
76,3,3,1.1919511905815338e-06
77,1,1,-0.001
77,2,2,0.00025000000000000001
77,3,3,-1.0505147397150474e-40
78,1,1,-0.00050529221439024954
78,2,2,0.00011636836073565914
78,3,3,-1.8062706882219787e-34
79,1,1,-0.001
79,2,2,0.00025000000000000001
79,3,3,-5.3613508686590235e-07
80,1,1,-0.00050531596890189784
80,2,2,0.0001156220625540891
80,3,3,2.5096940088730014e-06
81,1,1,-0.001
81,2,2,0.00025000000000000001
81,3,3,3.732327426592197e-41
82,1,1,-0.000778197892231265
82,2,2,0.00018821467835324873
82,3,3,-2.4865234083922927e-39
83,1,1,-0.00050433042216460546
83,2,2,0.00012101234250272198
83,3,3,1.9038746644862096e-34
84,1,1,-0.001
84,2,2,0.00025000000000000001
84,3,3,2.321070826016441e-07
85,1,1,-0.0005091783259557717
85,2,2,0.00011651410560543277
85,3,3,5.6691879958503637e-07
86,1,1,-0.001
86,2,2,0.00025000000000000001
86,3,3,1.6971722893046984e-07
87,1,1,-0.00077818955854846766
87,2,2,0.00018792453284026376
87,3,3,1.5708956914831598e-07
88,1,1,-0.00050435073650645379
88,2,2,0.00012061916712179049
88,3,3,-3.1011541253328888e-07
PRIMARY_X0,11,11,300.
SECONDARY_X2,11,11,400.
*Output, field, frequency=1
*Node Output
U,NT,RF,RFL
*Element Output, directions=YES
S
*Contact Output
CSTRESS,CDISP,CFORCE,HFLA,CTANDIR
*End Step
*Step, name=GEOMETRY_3, nlgeom=YES, unsymm=YES, extrapolation=NO
*Coupled Temperature-Displacement
0.025,0.025
*Boundary
1,1,1,-6.3173888298837355e-41
1,2,2,2.5094420298434161e-40
1,3,3,-1.5542904892049194e-41
2,1,1,-7.7864322021682376e-05
2,2,2,3.7344612395084547e-05
2,3,3,3.9134278374299252e-07
3,1,1,-0.0001173148589356128
3,2,2,3.0059976727743242e-05
3,3,3,1.7293626368006984e-07
4,1,1,5.4283848960975352e-33
4,2,2,-8.9881351843956367e-34
4,3,3,8.21856976423711e-36
5,1,1,3.2156163098625616e-43
5,2,2,7.429012936616638e-41
5,3,3,2.8762583538318682e-41
6,1,1,-7.7813867741211725e-05
6,2,2,3.7689059702382643e-05
6,3,3,7.1867143437774073e-07
7,1,1,-0.00011720087298602675
7,2,2,3.0351559441386416e-05
7,3,3,2.8531551757893331e-07
8,1,1,5.4323321783607653e-33
8,2,2,-8.963000727711699e-34
8,3,3,-8.0104714342286179e-37
9,1,1,-3.9898396682012633e-05
9,2,2,6.2841151858796734e-06
9,3,3,1.3989956943731785e-06
10,1,1,-0.00010492878418445223
10,2,2,3.3386057150412219e-05
10,3,3,-4.9827174987064777e-07
11,1,1,-5.5095274267193328e-05
11,2,2,1.1780538497277169e-05
11,3,3,-4.7775737001848229e-08
12,1,1,1.3815682924408872e-40
12,2,2,-4.0904085681089296e-40
12,3,3,-4.7521914461315368e-41
13,1,1,-2.7356459586833869e-40
13,2,2,1.0809446451594776e-40
13,3,3,3.5829396070871257e-41
14,1,1,-7.4759774001639725e-05
14,2,2,4.0201909912408722e-05
14,3,3,5.1690187645902759e-07
15,1,1,-0.0001176814153140978
15,2,2,2.9878674104853407e-05
15,3,3,2.0918648526001473e-07
16,1,1,-1.8604068466779481e-32
16,2,2,2.6430242390249502e-33
16,3,3,3.3927086158197451e-36
17,1,1,-4.0055204599296017e-05
17,2,2,6.4789862067029063e-06
17,3,3,-8.9717406841991067e-07
18,1,1,-0.00010485862022230168
18,2,2,3.372437114053875e-05
18,3,3,1.3445827477916588e-06
19,1,1,-5.5205553278455654e-05
19,2,2,1.1990053042425924e-05
19,3,3,2.8497643875393555e-07
20,1,1,4.5757314192318792e-41
20,2,2,-2.2257547320432553e-40
20,3,3,-2.9488633494767705e-41
21,1,1,-0.00012390479857404902
21,2,2,3.0343790967017395e-05
21,3,3,-4.3286077045044981e-07
22,1,1,4.4513584765691573e-33
22,2,2,-8.1050576841974846e-34
22,3,3,-8.9738291977287691e-36
23,1,1,-0.00012390315476563913
23,2,2,3.0471922995383381e-05
23,3,3,2.6032132508345623e-07
24,1,1,4.4502951792065679e-33
24,2,2,-8.100595699808256e-34
24,3,3,1.5209212205105021e-35
25,1,1,-0.00012041817110738228
25,2,2,3.0274568812849549e-05
25,3,3,-1.28444170863704e-07
26,1,1,-6.1758116439705006e-05
26,2,2,1.3569002855269023e-05
26,3,3,1.9797275602861779e-07
27,1,1,4.7394711666667198e-40
27,2,2,5.0559133929674346e-40
27,3,3,-1.3949096248157977e-40
28,1,1,-0.00012259860292921526
28,2,2,2.996673803890465e-05
28,3,3,-6.5771952814851849e-08
29,1,1,-1.8152283691481016e-32
29,2,2,2.908277165338714e-33
29,3,3,-1.0478768717059107e-35
30,1,1,-0.00012033205318867676
30,2,2,3.0499984939867334e-05
30,3,3,2.237703145105422e-07
31,1,1,-6.1737043805674225e-05
31,2,2,1.365698825152373e-05
31,3,3,-2.1327787770652597e-07
32,1,1,2.1752804756299447e-40
32,2,2,4.3022407641627575e-40
32,3,3,-6.063693022138202e-41
33,1,1,-0.00012313071994742689
33,2,2,2.8761728328874382e-05
33,3,3,9.2781833337825606e-07
34,1,1,3.4078640636021524e-33
34,2,2,-2.5795073475461687e-34
34,3,3,2.0152015971209447e-35
35,1,1,-0.00012313306902006816
35,2,2,2.8663563897088017e-05
35,3,3,-9.9382943024805333e-07
36,1,1,3.4070202877140767e-33
36,2,2,-2.5799417277140448e-34
36,3,3,-2.7785900238059234e-35
37,1,1,-0.00012434817269222547
37,2,2,2.9584267255213663e-05
37,3,3,3.9538264285853299e-07
38,1,1,-6.0843619961051375e-05
38,2,2,1.4039954528425218e-05
38,3,3,-3.8787140010807372e-07
39,1,1,-7.1681080099892592e-40
39,2,2,2.5595735154047194e-40
39,3,3,-1.4248305751317065e-40
40,1,1,-0.00012592838189971834
40,2,2,2.9402934164860695e-05
40,3,3,-3.2241000476871798e-08
41,1,1,-1.9230791769283153e-32
41,2,2,2.0985694898146161e-33
41,3,3,6.702363212129874e-36
42,1,1,-0.00012436544274174884
42,2,2,2.9587238993277008e-05
42,3,3,-5.9315507265502494e-07
43,1,1,-6.0842542675897388e-05
43,2,2,1.3992019920318021e-05
43,3,3,3.7189529131552544e-07
44,1,1,2.9926091773552131e-41
44,2,2,-9.775585392229872e-41
44,3,3,-5.63060705438485e-41
45,1,1,-0.00012264468888242678
45,2,2,2.6597345648803836e-05
45,3,3,-7.1934017320033089e-07
46,1,1,-1.1230371194518809e-39
46,2,2,-6.3625891585273422e-40
46,3,3,-9.8264079296378395e-41
47,1,1,-0.00012263462026761742
47,2,2,2.6436873387723711e-05
47,3,3,1.056186931294801e-06
48,1,1,-3.579117002453503e-40
48,2,2,-2.1592773256103739e-40
48,3,3,7.0595762518742414e-44
49,1,1,-0.00012542202863321232
49,2,2,2.8035323022669118e-05
49,3,3,-1.9951088761686001e-07
50,1,1,-6.9057294657231164e-05
50,2,2,1.5677336904963385e-05
50,3,3,6.2108003665428178e-07
51,1,1,1.7904747536015301e-39
51,2,2,1.9740036665578369e-40
51,3,3,4.5513222875289156e-41
52,1,1,-0.00011931484487875308
52,2,2,2.5656273075069521e-05
52,3,3,1.4336875321323067e-07
53,1,1,-4.5332341299192056e-40
53,2,2,-7.2790888920336551e-42
53,3,3,3.0012920503035295e-40
54,1,1,-0.0001254336640610103
54,2,2,2.7884508074049496e-05
54,3,3,3.615034923234135e-07
55,1,1,-6.9086098612990558e-05
55,2,2,1.5609184121853735e-05
55,3,3,-5.2520602145802216e-07
56,1,1,4.7152895210727748e-40
56,2,2,5.3716429672443642e-41
56,3,3,-6.4298748984342512e-42
57,1,1,-9.4096165744570048e-05
57,2,2,3.3323933961615883e-05
57,3,3,-5.2173416549333438e-35
58,1,1,-0.00025000000000000001
58,2,2,6.2500000000000001e-05
58,3,3,-5.6080754977905057e-41
59,1,1,-0.00025000000000000001
59,2,2,6.2500000000000001e-05
59,3,3,8.0177410127790871e-36
60,1,1,-0.0001255722121763775
60,2,2,3.1740168345023242e-05
60,3,3,7.8215943596426923e-35
61,1,1,-9.4024716742923658e-05
61,2,2,3.3710830489762898e-05
61,3,3,1.6937429372706194e-06
62,1,1,-0.00025000000000000001
62,2,2,6.2500000000000001e-05
62,3,3,-2.956471756447439e-07
63,1,1,-0.00025000000000000001
63,2,2,6.2500000000000001e-05
63,3,3,7.5389406004668586e-08
64,1,1,-0.00012562306304156863
64,2,2,3.1758282777863357e-05
64,3,3,-4.8576598365497344e-07
65,1,1,-0.00017008460412829164
65,2,2,5.259984182553646e-05
65,3,3,-3.1499829005245033e-41
66,1,1,-0.00025000000000000001
66,2,2,6.2500000000000001e-05
66,3,3,2.0650292253895331e-40
67,1,1,-0.00018645720010661089
67,2,2,4.7736314158044683e-05
67,3,3,-3.7927868719030654e-35
68,1,1,-0.0001199849422584173
68,2,2,3.2700875581627285e-05
68,3,3,-7.361990550176489e-35
69,1,1,-9.6176326750965283e-05
69,2,2,3.256925647899438e-05
69,3,3,5.2438501202285831e-07
70,1,1,-0.00025000000000000001
70,2,2,6.2500000000000001e-05
70,3,3,1.0151338183834351e-07
71,1,1,-0.00025000000000000001
71,2,2,6.2500000000000001e-05
71,3,3,-1.0201393630262562e-07
72,1,1,-0.00012455585813240101
72,2,2,3.1960275959890199e-05
72,3,3,-5.2583918612046033e-08
73,1,1,-0.00016988598469669966
73,2,2,5.2849227077817604e-05
73,3,3,1.5724271628805129e-07
74,1,1,-0.00025000000000000001
74,2,2,6.2500000000000001e-05
74,3,3,-1.8758281027309763e-07
75,1,1,-0.00018648667986944961
75,2,2,4.7714800567813726e-05
75,3,3,2.0981844605901714e-08
76,1,1,-0.00011987929992790204
76,2,2,3.2936698287704668e-05
76,3,3,2.9798779764538345e-07
77,1,1,-0.00025000000000000001
77,2,2,6.2500000000000001e-05
77,3,3,-2.6262868492876185e-41
78,1,1,-0.00012632305359756239
78,2,2,2.9092090183914785e-05
78,3,3,-4.5156767205549468e-35
79,1,1,-0.00025000000000000001
79,2,2,6.2500000000000001e-05
79,3,3,-1.3403377171647559e-07
80,1,1,-0.00012632899222547446
80,2,2,2.8905515638522276e-05
80,3,3,6.2742350221825036e-07
81,1,1,-0.00025000000000000001
81,2,2,6.2500000000000001e-05
81,3,3,9.3308185664804924e-42
82,1,1,-0.00019454947305781625
82,2,2,4.7053669588312183e-05
82,3,3,-6.2163085209807317e-40
83,1,1,-0.00012608260554115136
83,2,2,3.0253085625680496e-05
83,3,3,4.759686661215524e-35
84,1,1,-0.00025000000000000001
84,2,2,6.2500000000000001e-05
84,3,3,5.8026770650411024e-08
85,1,1,-0.00012729458148894293
85,2,2,2.9128526401358192e-05
85,3,3,1.4172969989625909e-07
86,1,1,-0.00025000000000000001
86,2,2,6.2500000000000001e-05
86,3,3,4.242930723261746e-08
87,1,1,-0.00019454738963711692
87,2,2,4.698113321006594e-05
87,3,3,3.9272392287078996e-08
88,1,1,-0.00012608768412661345
88,2,2,3.0154791780447623e-05
88,3,3,-7.752885313332222e-08
PRIMARY_X0,11,11,300.
SECONDARY_X2,11,11,400.
*Output, field, frequency=1
*Node Output
U,NT,RF,RFL
*Element Output, directions=YES
S
*Contact Output
CSTRESS,CDISP,CFORCE,HFLA,CTANDIR
*End Step
