*Heading
** Independent finite-sliding gap response matrix at a uniformly compressed flat interface.
** Generated from the same Fuelsim mesh that is stored as the tracked Exodus reference.
*Node
1, 0,-0.10000000000000001, 0
2, 1,-0.10000000000000001, 0
3, 1,0.45000000000000007, 0
4, 0,0.45000000000000007, 0
5, 0,-0.10000000000000001, 1
6, 1,-0.10000000000000001, 1
7, 1,0.45000000000000007, 1
8, 0,0.45000000000000007, 1
9, 0.5,-0.10000000000000001, 0
10, 1,0.17500000000000002, 0
11, 0.5,0.45000000000000007, 0
12, 0,0.17500000000000002, 0
13, 0,-0.10000000000000001, 0.5
14, 1,-0.10000000000000001, 0.5
15, 1,0.45000000000000007, 0.5
16, 0,0.45000000000000007, 0.5
17, 0.5,-0.10000000000000001, 1
18, 1,0.17500000000000002, 1
19, 0.5,0.45000000000000007, 1
20, 0,0.17500000000000002, 1
21, 1,1, 0
22, 0,1, 0
23, 1,1, 1
24, 0,1, 1
25, 1,0.72500000000000009, 0
26, 0.5,1, 0
27, 0,0.72500000000000009, 0
28, 1,1, 0.5
29, 0,1, 0.5
30, 1,0.72500000000000009, 1
31, 0.5,1, 1
32, 0,0.72500000000000009, 1
33, 1,1.55, 0
34, 0,1.55, 0
35, 1,1.55, 1
36, 0,1.55, 1
37, 1,1.2749999999999999, 0
38, 0.5,1.55, 0
39, 0,1.2749999999999999, 0
40, 1,1.55, 0.5
41, 0,1.55, 0.5
42, 1,1.2749999999999999, 1
43, 0.5,1.55, 1
44, 0,1.2749999999999999, 1
45, 1,2.1000000000000001, 0
46, 0,2.1000000000000001, 0
47, 1,2.1000000000000001, 1
48, 0,2.1000000000000001, 1
49, 1,1.8250000000000002, 0
50, 0.5,2.1000000000000001, 0
51, 0,1.8250000000000002, 0
52, 1,2.1000000000000001, 0.5
53, 0,2.1000000000000001, 0.5
54, 1,1.8250000000000002, 1
55, 0.5,2.1000000000000001, 1
56, 0,1.8250000000000002, 1
57, 1, 0, 0
58, 2, 0, 0
59, 2, 1.2, 0
60, 1, 1.2, 0
61, 1, 0, 1
62, 2, 0, 1
63, 2, 1.2, 1
64, 1, 1.2, 1
65, 1.5, 0, 0
66, 2, 0.6, 0
67, 1.5, 1.2, 0
68, 1, 0.6, 0
69, 1, 0, 0.5
70, 2, 0, 0.5
71, 2, 1.2, 0.5
72, 1, 1.2, 0.5
73, 1.5, 0, 1
74, 2, 0.6, 1
75, 1.5, 1.2, 1
76, 1, 0.6, 1
77, 2, 2, 0
78, 1, 2, 0
79, 2, 2, 1
80, 1, 2, 1
81, 2, 1.6, 0
82, 1.5, 2, 0
83, 1, 1.6, 0
84, 2, 2, 0.5
85, 1, 2, 0.5
86, 2, 1.6, 1
87, 1.5, 2, 1
88, 1, 1.6, 1
*Element, type=C3D20RT, elset=PRIMARY
1, 1, 2, 3, 4, 5, 6, 7, 8, 9, 10, 11, 12, 17, 18, 19, 20, 13, 14, 15, 16
2, 4, 3, 21, 22, 8, 7, 23, 24, 11, 25, 26, 27, 19, 30, 31, 32, 16, 15, 28, 29
3, 22, 21, 33, 34, 24, 23, 35, 36, 26, 37, 38, 39, 31, 42, 43, 44, 29, 28, 40, 41
4, 34, 33, 45, 46, 36, 35, 47, 48, 38, 49, 50, 51, 43, 54, 55, 56, 41, 40, 52, 53
*Element, type=C3D20RT, elset=SECONDARY
5, 57, 58, 59, 60, 61, 62, 63, 64, 65, 66, 67, 68, 73, 74, 75, 76, 69, 70, 71, 72
6, 60, 59, 77, 78, 64, 63, 79, 80, 67, 81, 82, 83, 75, 86, 87, 88, 72, 71, 84, 85
*Elset, elset=ALL
PRIMARY, SECONDARY
*Nset, nset=PRIMARY_X0
1, 4, 5, 8, 12, 13, 16, 20, 22, 24, 27, 29, 32, 34, 36, 39
41, 44, 46, 48, 51, 53, 56
*Nset, nset=SECONDARY_X2
58, 59, 62, 63, 66, 70, 71, 74, 77, 79, 81, 84, 86
*Nset, nset=SECONDARY_Y0
57, 58, 61, 62, 65, 69, 70, 73
*Nset, nset=SECONDARY_Z0
57, 58, 59, 60, 65, 66, 67, 68, 77, 78, 81, 82, 83
*Surface, type=ELEMENT, name=PRIMARY_CONTACT
PRIMARY, S4
*Surface, type=ELEMENT, name=SECONDARY_CONTACT
SECONDARY, S6
*Nset, nset=ALL_NODES, generate
1, 88, 1
*Nset, nset=SECONDARY_NODES, generate
57, 88, 1
*Material, name=ELASTIC
*Elastic
1.e9, 0.
*Conductivity
10
*Density
1
*Specific Heat
1
*Solid Section, elset=ALL, material=ELASTIC
,
*Surface Interaction, name=PENALTY_CONTACT
*Surface Behavior, pressure-overclosure=LINEAR
1.e11,
*Friction, slip tolerance=1.e-5
0.3,
*Gap Conductance
100, 0
100, 1e-5
*Gap Heat Generation
0, 0.5
*Contact Pair, interaction=PENALTY_CONTACT, type=SURFACE TO SURFACE, adjust=0.
SECONDARY_CONTACT, PRIMARY_CONTACT
*Initial Conditions, type=TEMPERATURE
ALL_NODES, 300
SECONDARY_NODES, 400
*Step, name=GAP_1, nlgeom=YES, unsymm=YES, extrapolation=NO
*Coupled Temperature-Displacement
0.025,0.025
*Boundary
1,1,1,0
1,2,3,0.
2,1,1,0
2,2,3,0.
3,1,1,0
3,2,3,0.
4,1,1,0
4,2,3,0.
5,1,1,0
5,2,3,0.
6,1,1,0
6,2,3,0.
7,1,1,0
7,2,3,0.
8,1,1,0
8,2,3,0.
9,1,1,0
9,2,3,0.
10,1,1,0
10,2,3,0.
11,1,1,0
11,2,3,0.
12,1,1,0
12,2,3,0.
13,1,1,0
13,2,3,0.
14,1,1,0
14,2,3,0.
15,1,1,0
15,2,3,0.
16,1,1,0
16,2,3,0.
17,1,1,0
17,2,3,0.
18,1,1,0
18,2,3,0.
19,1,1,0
19,2,3,0.
20,1,1,0
20,2,3,0.
21,1,1,0
21,2,3,0.
22,1,1,0
22,2,3,0.
23,1,1,0
23,2,3,0.
24,1,1,0
24,2,3,0.
25,1,1,0
25,2,3,0.
26,1,1,0
26,2,3,0.
27,1,1,0
27,2,3,0.
28,1,1,0
28,2,3,0.
29,1,1,0
29,2,3,0.
30,1,1,0
30,2,3,0.
31,1,1,0
31,2,3,0.
32,1,1,0
32,2,3,0.
33,1,1,0
33,2,3,0.
34,1,1,0
34,2,3,0.
35,1,1,0
35,2,3,0.
36,1,1,0
36,2,3,0.
37,1,1,0
37,2,3,0.
38,1,1,0
38,2,3,0.
39,1,1,0
39,2,3,0.
40,1,1,0
40,2,3,0.
41,1,1,0
41,2,3,0.
42,1,1,0
42,2,3,0.
43,1,1,0
43,2,3,0.
44,1,1,0
44,2,3,0.
45,1,1,0
45,2,3,0.
46,1,1,0
46,2,3,0.
47,1,1,0
47,2,3,0.
48,1,1,0
48,2,3,0.
49,1,1,0
49,2,3,0.
50,1,1,0
50,2,3,0.
51,1,1,0
51,2,3,0.
52,1,1,0
52,2,3,0.
53,1,1,0
53,2,3,0.
54,1,1,0
54,2,3,0.
55,1,1,0
55,2,3,0.
56,1,1,0
56,2,3,0.
57,1,1,-1.0000000000000001e-05
57,2,3,0.
58,1,1,-1.0000000000000001e-05
58,2,3,0.
59,1,1,-1.0000000000000001e-05
59,2,3,0.
60,1,1,-1.0000000000000001e-05
60,2,3,0.
61,1,1,-1.0000000000000001e-05
61,2,3,0.
62,1,1,-1.0000000000000001e-05
62,2,3,0.
63,1,1,-1.0000000000000001e-05
63,2,3,0.
64,1,1,-1.0000000000000001e-05
64,2,3,0.
65,1,1,-1.0000000000000001e-05
65,2,3,0.
66,1,1,-1.0000000000000001e-05
66,2,3,0.
67,1,1,-1.0000000000000001e-05
67,2,3,0.
68,1,1,-1.0000000000000001e-05
68,2,3,0.
69,1,1,-1.0000000000000001e-05
69,2,3,0.
70,1,1,-1.0000000000000001e-05
70,2,3,0.
71,1,1,-1.0000000000000001e-05
71,2,3,0.
72,1,1,-1.0000000000000001e-05
72,2,3,0.
73,1,1,-1.0000000000000001e-05
73,2,3,0.
74,1,1,-1.0000000000000001e-05
74,2,3,0.
75,1,1,-1.0000000000000001e-05
75,2,3,0.
76,1,1,-1.0000000000000001e-05
76,2,3,0.
77,1,1,-1.0000000000000001e-05
77,2,3,0.
78,1,1,-1.0000000000000001e-05
78,2,3,0.
79,1,1,-1.0000000000000001e-05
79,2,3,0.
80,1,1,-1.0000000000000001e-05
80,2,3,0.
81,1,1,-1.0000000000000001e-05
81,2,3,0.
82,1,1,-1.0000000000000001e-05
82,2,3,0.
83,1,1,-1.0000000000000001e-05
83,2,3,0.
84,1,1,-1.0000000000000001e-05
84,2,3,0.
85,1,1,-1.0000000000000001e-05
85,2,3,0.
86,1,1,-1.0000000000000001e-05
86,2,3,0.
87,1,1,-1.0000000000000001e-05
87,2,3,0.
88,1,1,-1.0000000000000001e-05
88,2,3,0.
PRIMARY_X0,11,11,300.
SECONDARY_X2,11,11,400.
*Output, field, frequency=1
*Node Output
U,NT,RF,RFL
*Element Output, directions=YES
S
*Contact Output
CSTRESS,CDISP,CFORCE,HFLA,CTANDIR
*End Step
*Step, name=GAP_2, nlgeom=YES, unsymm=YES, extrapolation=NO
*Coupled Temperature-Displacement
0.025,0.025
*Boundary
1,1,1,0
1,2,3,0.
2,1,1,9.9999999999999995e-08
2,2,3,0.
3,1,1,0
3,2,3,0.
4,1,1,0
4,2,3,0.
5,1,1,0
5,2,3,0.
6,1,1,0
6,2,3,0.
7,1,1,0
7,2,3,0.
8,1,1,0
8,2,3,0.
9,1,1,0
9,2,3,0.
10,1,1,0
10,2,3,0.
11,1,1,0
11,2,3,0.
12,1,1,0
12,2,3,0.
13,1,1,0
13,2,3,0.
14,1,1,0
14,2,3,0.
15,1,1,0
15,2,3,0.
16,1,1,0
16,2,3,0.
17,1,1,0
17,2,3,0.
18,1,1,0
18,2,3,0.
19,1,1,0
19,2,3,0.
20,1,1,0
20,2,3,0.
21,1,1,0
21,2,3,0.
22,1,1,0
22,2,3,0.
23,1,1,0
23,2,3,0.
24,1,1,0
24,2,3,0.
25,1,1,0
25,2,3,0.
26,1,1,0
26,2,3,0.
27,1,1,0
27,2,3,0.
28,1,1,0
28,2,3,0.
29,1,1,0
29,2,3,0.
30,1,1,0
30,2,3,0.
31,1,1,0
31,2,3,0.
32,1,1,0
32,2,3,0.
33,1,1,0
33,2,3,0.
34,1,1,0
34,2,3,0.
35,1,1,0
35,2,3,0.
36,1,1,0
36,2,3,0.
37,1,1,0
37,2,3,0.
38,1,1,0
38,2,3,0.
39,1,1,0
39,2,3,0.
40,1,1,0
40,2,3,0.
41,1,1,0
41,2,3,0.
42,1,1,0
42,2,3,0.
43,1,1,0
43,2,3,0.
44,1,1,0
44,2,3,0.
45,1,1,0
45,2,3,0.
46,1,1,0
46,2,3,0.
47,1,1,0
47,2,3,0.
48,1,1,0
48,2,3,0.
49,1,1,0
49,2,3,0.
50,1,1,0
50,2,3,0.
51,1,1,0
51,2,3,0.
52,1,1,0
52,2,3,0.
53,1,1,0
53,2,3,0.
54,1,1,0
54,2,3,0.
55,1,1,0
55,2,3,0.
56,1,1,0
56,2,3,0.
57,1,1,-1.0000000000000001e-05
57,2,3,0.
58,1,1,-1.0000000000000001e-05
58,2,3,0.
59,1,1,-1.0000000000000001e-05
59,2,3,0.
60,1,1,-1.0000000000000001e-05
60,2,3,0.
61,1,1,-1.0000000000000001e-05
61,2,3,0.
62,1,1,-1.0000000000000001e-05
62,2,3,0.
63,1,1,-1.0000000000000001e-05
63,2,3,0.
64,1,1,-1.0000000000000001e-05
64,2,3,0.
65,1,1,-1.0000000000000001e-05
65,2,3,0.
66,1,1,-1.0000000000000001e-05
66,2,3,0.
67,1,1,-1.0000000000000001e-05
67,2,3,0.
68,1,1,-1.0000000000000001e-05
68,2,3,0.
69,1,1,-1.0000000000000001e-05
69,2,3,0.
70,1,1,-1.0000000000000001e-05
70,2,3,0.
71,1,1,-1.0000000000000001e-05
71,2,3,0.
72,1,1,-1.0000000000000001e-05
72,2,3,0.
73,1,1,-1.0000000000000001e-05
73,2,3,0.
74,1,1,-1.0000000000000001e-05
74,2,3,0.
75,1,1,-1.0000000000000001e-05
75,2,3,0.
76,1,1,-1.0000000000000001e-05
76,2,3,0.
77,1,1,-1.0000000000000001e-05
77,2,3,0.
78,1,1,-1.0000000000000001e-05
78,2,3,0.
79,1,1,-1.0000000000000001e-05
79,2,3,0.
80,1,1,-1.0000000000000001e-05
80,2,3,0.
81,1,1,-1.0000000000000001e-05
81,2,3,0.
82,1,1,-1.0000000000000001e-05
82,2,3,0.
83,1,1,-1.0000000000000001e-05
83,2,3,0.
84,1,1,-1.0000000000000001e-05
84,2,3,0.
85,1,1,-1.0000000000000001e-05
85,2,3,0.
86,1,1,-1.0000000000000001e-05
86,2,3,0.
87,1,1,-1.0000000000000001e-05
87,2,3,0.
88,1,1,-1.0000000000000001e-05
88,2,3,0.
PRIMARY_X0,11,11,300.
SECONDARY_X2,11,11,400.
*Output, field, frequency=1
*Node Output
U,NT,RF,RFL
*Element Output, directions=YES
S
*Contact Output
CSTRESS,CDISP,CFORCE,HFLA,CTANDIR
*End Step
*Step, name=GAP_3, nlgeom=YES, unsymm=YES, extrapolation=NO
*Coupled Temperature-Displacement
0.025,0.025
*Boundary
1,1,1,0
1,2,3,0.
2,1,1,-9.9999999999999995e-08
2,2,3,0.
3,1,1,0
3,2,3,0.
4,1,1,0
4,2,3,0.
5,1,1,0
5,2,3,0.
6,1,1,0
6,2,3,0.
7,1,1,0
7,2,3,0.
8,1,1,0
8,2,3,0.
9,1,1,0
9,2,3,0.
10,1,1,0
10,2,3,0.
11,1,1,0
11,2,3,0.
12,1,1,0
12,2,3,0.
13,1,1,0
13,2,3,0.
14,1,1,0
14,2,3,0.
15,1,1,0
15,2,3,0.
16,1,1,0
16,2,3,0.
17,1,1,0
17,2,3,0.
18,1,1,0
18,2,3,0.
19,1,1,0
19,2,3,0.
20,1,1,0
20,2,3,0.
21,1,1,0
21,2,3,0.
22,1,1,0
22,2,3,0.
23,1,1,0
23,2,3,0.
24,1,1,0
24,2,3,0.
25,1,1,0
25,2,3,0.
26,1,1,0
26,2,3,0.
27,1,1,0
27,2,3,0.
28,1,1,0
28,2,3,0.
29,1,1,0
29,2,3,0.
30,1,1,0
30,2,3,0.
31,1,1,0
31,2,3,0.
32,1,1,0
32,2,3,0.
33,1,1,0
33,2,3,0.
34,1,1,0
34,2,3,0.
35,1,1,0
35,2,3,0.
36,1,1,0
36,2,3,0.
37,1,1,0
37,2,3,0.
38,1,1,0
38,2,3,0.
39,1,1,0
39,2,3,0.
40,1,1,0
40,2,3,0.
41,1,1,0
41,2,3,0.
42,1,1,0
42,2,3,0.
43,1,1,0
43,2,3,0.
44,1,1,0
44,2,3,0.
45,1,1,0
45,2,3,0.
46,1,1,0
46,2,3,0.
47,1,1,0
47,2,3,0.
48,1,1,0
48,2,3,0.
49,1,1,0
49,2,3,0.
50,1,1,0
50,2,3,0.
51,1,1,0
51,2,3,0.
52,1,1,0
52,2,3,0.
53,1,1,0
53,2,3,0.
54,1,1,0
54,2,3,0.
55,1,1,0
55,2,3,0.
56,1,1,0
56,2,3,0.
57,1,1,-1.0000000000000001e-05
57,2,3,0.
58,1,1,-1.0000000000000001e-05
58,2,3,0.
59,1,1,-1.0000000000000001e-05
59,2,3,0.
60,1,1,-1.0000000000000001e-05
60,2,3,0.
61,1,1,-1.0000000000000001e-05
61,2,3,0.
62,1,1,-1.0000000000000001e-05
62,2,3,0.
63,1,1,-1.0000000000000001e-05
63,2,3,0.
64,1,1,-1.0000000000000001e-05
64,2,3,0.
65,1,1,-1.0000000000000001e-05
65,2,3,0.
66,1,1,-1.0000000000000001e-05
66,2,3,0.
67,1,1,-1.0000000000000001e-05
67,2,3,0.
68,1,1,-1.0000000000000001e-05
68,2,3,0.
69,1,1,-1.0000000000000001e-05
69,2,3,0.
70,1,1,-1.0000000000000001e-05
70,2,3,0.
71,1,1,-1.0000000000000001e-05
71,2,3,0.
72,1,1,-1.0000000000000001e-05
72,2,3,0.
73,1,1,-1.0000000000000001e-05
73,2,3,0.
74,1,1,-1.0000000000000001e-05
74,2,3,0.
75,1,1,-1.0000000000000001e-05
75,2,3,0.
76,1,1,-1.0000000000000001e-05
76,2,3,0.
77,1,1,-1.0000000000000001e-05
77,2,3,0.
78,1,1,-1.0000000000000001e-05
78,2,3,0.
79,1,1,-1.0000000000000001e-05
79,2,3,0.
80,1,1,-1.0000000000000001e-05
80,2,3,0.
81,1,1,-1.0000000000000001e-05
81,2,3,0.
82,1,1,-1.0000000000000001e-05
82,2,3,0.
83,1,1,-1.0000000000000001e-05
83,2,3,0.
84,1,1,-1.0000000000000001e-05
84,2,3,0.
85,1,1,-1.0000000000000001e-05
85,2,3,0.
86,1,1,-1.0000000000000001e-05
86,2,3,0.
87,1,1,-1.0000000000000001e-05
87,2,3,0.
88,1,1,-1.0000000000000001e-05
88,2,3,0.
PRIMARY_X0,11,11,300.
SECONDARY_X2,11,11,400.
*Output, field, frequency=1
*Node Output
U,NT,RF,RFL
*Element Output, directions=YES
S
*Contact Output
CSTRESS,CDISP,CFORCE,HFLA,CTANDIR
*End Step
*Step, name=GAP_4, nlgeom=YES, unsymm=YES, extrapolation=NO
*Coupled Temperature-Displacement
0.025,0.025
*Boundary
1,1,1,0
1,2,3,0.
2,1,1,0
2,2,3,0.
3,1,1,9.9999999999999995e-08
3,2,3,0.
4,1,1,0
4,2,3,0.
5,1,1,0
5,2,3,0.
6,1,1,0
6,2,3,0.
7,1,1,0
7,2,3,0.
8,1,1,0
8,2,3,0.
9,1,1,0
9,2,3,0.
10,1,1,0
10,2,3,0.
11,1,1,0
11,2,3,0.
12,1,1,0
12,2,3,0.
13,1,1,0
13,2,3,0.
14,1,1,0
14,2,3,0.
15,1,1,0
15,2,3,0.
16,1,1,0
16,2,3,0.
17,1,1,0
17,2,3,0.
18,1,1,0
18,2,3,0.
19,1,1,0
19,2,3,0.
20,1,1,0
20,2,3,0.
21,1,1,0
21,2,3,0.
22,1,1,0
22,2,3,0.
23,1,1,0
23,2,3,0.
24,1,1,0
24,2,3,0.
25,1,1,0
25,2,3,0.
26,1,1,0
26,2,3,0.
27,1,1,0
27,2,3,0.
28,1,1,0
28,2,3,0.
29,1,1,0
29,2,3,0.
30,1,1,0
30,2,3,0.
31,1,1,0
31,2,3,0.
32,1,1,0
32,2,3,0.
33,1,1,0
33,2,3,0.
34,1,1,0
34,2,3,0.
35,1,1,0
35,2,3,0.
36,1,1,0
36,2,3,0.
37,1,1,0
37,2,3,0.
38,1,1,0
38,2,3,0.
39,1,1,0
39,2,3,0.
40,1,1,0
40,2,3,0.
41,1,1,0
41,2,3,0.
42,1,1,0
42,2,3,0.
43,1,1,0
43,2,3,0.
44,1,1,0
44,2,3,0.
45,1,1,0
45,2,3,0.
46,1,1,0
46,2,3,0.
47,1,1,0
47,2,3,0.
48,1,1,0
48,2,3,0.
49,1,1,0
49,2,3,0.
50,1,1,0
50,2,3,0.
51,1,1,0
51,2,3,0.
52,1,1,0
52,2,3,0.
53,1,1,0
53,2,3,0.
54,1,1,0
54,2,3,0.
55,1,1,0
55,2,3,0.
56,1,1,0
56,2,3,0.
57,1,1,-1.0000000000000001e-05
57,2,3,0.
58,1,1,-1.0000000000000001e-05
58,2,3,0.
59,1,1,-1.0000000000000001e-05
59,2,3,0.
60,1,1,-1.0000000000000001e-05
60,2,3,0.
61,1,1,-1.0000000000000001e-05
61,2,3,0.
62,1,1,-1.0000000000000001e-05
62,2,3,0.
63,1,1,-1.0000000000000001e-05
63,2,3,0.
64,1,1,-1.0000000000000001e-05
64,2,3,0.
65,1,1,-1.0000000000000001e-05
65,2,3,0.
66,1,1,-1.0000000000000001e-05
66,2,3,0.
67,1,1,-1.0000000000000001e-05
67,2,3,0.
68,1,1,-1.0000000000000001e-05
68,2,3,0.
69,1,1,-1.0000000000000001e-05
69,2,3,0.
70,1,1,-1.0000000000000001e-05
70,2,3,0.
71,1,1,-1.0000000000000001e-05
71,2,3,0.
72,1,1,-1.0000000000000001e-05
72,2,3,0.
73,1,1,-1.0000000000000001e-05
73,2,3,0.
74,1,1,-1.0000000000000001e-05
74,2,3,0.
75,1,1,-1.0000000000000001e-05
75,2,3,0.
76,1,1,-1.0000000000000001e-05
76,2,3,0.
77,1,1,-1.0000000000000001e-05
77,2,3,0.
78,1,1,-1.0000000000000001e-05
78,2,3,0.
79,1,1,-1.0000000000000001e-05
79,2,3,0.
80,1,1,-1.0000000000000001e-05
80,2,3,0.
81,1,1,-1.0000000000000001e-05
81,2,3,0.
82,1,1,-1.0000000000000001e-05
82,2,3,0.
83,1,1,-1.0000000000000001e-05
83,2,3,0.
84,1,1,-1.0000000000000001e-05
84,2,3,0.
85,1,1,-1.0000000000000001e-05
85,2,3,0.
86,1,1,-1.0000000000000001e-05
86,2,3,0.
87,1,1,-1.0000000000000001e-05
87,2,3,0.
88,1,1,-1.0000000000000001e-05
88,2,3,0.
PRIMARY_X0,11,11,300.
SECONDARY_X2,11,11,400.
*Output, field, frequency=1
*Node Output
U,NT,RF,RFL
*Element Output, directions=YES
S
*Contact Output
CSTRESS,CDISP,CFORCE,HFLA,CTANDIR
*End Step
*Step, name=GAP_5, nlgeom=YES, unsymm=YES, extrapolation=NO
*Coupled Temperature-Displacement
0.025,0.025
*Boundary
1,1,1,0
1,2,3,0.
2,1,1,0
2,2,3,0.
3,1,1,-9.9999999999999995e-08
3,2,3,0.
4,1,1,0
4,2,3,0.
5,1,1,0
5,2,3,0.
6,1,1,0
6,2,3,0.
7,1,1,0
7,2,3,0.
8,1,1,0
8,2,3,0.
9,1,1,0
9,2,3,0.
10,1,1,0
10,2,3,0.
11,1,1,0
11,2,3,0.
12,1,1,0
12,2,3,0.
13,1,1,0
13,2,3,0.
14,1,1,0
14,2,3,0.
15,1,1,0
15,2,3,0.
16,1,1,0
16,2,3,0.
17,1,1,0
17,2,3,0.
18,1,1,0
18,2,3,0.
19,1,1,0
19,2,3,0.
20,1,1,0
20,2,3,0.
21,1,1,0
21,2,3,0.
22,1,1,0
22,2,3,0.
23,1,1,0
23,2,3,0.
24,1,1,0
24,2,3,0.
25,1,1,0
25,2,3,0.
26,1,1,0
26,2,3,0.
27,1,1,0
27,2,3,0.
28,1,1,0
28,2,3,0.
29,1,1,0
29,2,3,0.
30,1,1,0
30,2,3,0.
31,1,1,0
31,2,3,0.
32,1,1,0
32,2,3,0.
33,1,1,0
33,2,3,0.
34,1,1,0
34,2,3,0.
35,1,1,0
35,2,3,0.
36,1,1,0
36,2,3,0.
37,1,1,0
37,2,3,0.
38,1,1,0
38,2,3,0.
39,1,1,0
39,2,3,0.
40,1,1,0
40,2,3,0.
41,1,1,0
41,2,3,0.
42,1,1,0
42,2,3,0.
43,1,1,0
43,2,3,0.
44,1,1,0
44,2,3,0.
45,1,1,0
45,2,3,0.
46,1,1,0
46,2,3,0.
47,1,1,0
47,2,3,0.
48,1,1,0
48,2,3,0.
49,1,1,0
49,2,3,0.
50,1,1,0
50,2,3,0.
51,1,1,0
51,2,3,0.
52,1,1,0
52,2,3,0.
53,1,1,0
53,2,3,0.
54,1,1,0
54,2,3,0.
55,1,1,0
55,2,3,0.
56,1,1,0
56,2,3,0.
57,1,1,-1.0000000000000001e-05
57,2,3,0.
58,1,1,-1.0000000000000001e-05
58,2,3,0.
59,1,1,-1.0000000000000001e-05
59,2,3,0.
60,1,1,-1.0000000000000001e-05
60,2,3,0.
61,1,1,-1.0000000000000001e-05
61,2,3,0.
62,1,1,-1.0000000000000001e-05
62,2,3,0.
63,1,1,-1.0000000000000001e-05
63,2,3,0.
64,1,1,-1.0000000000000001e-05
64,2,3,0.
65,1,1,-1.0000000000000001e-05
65,2,3,0.
66,1,1,-1.0000000000000001e-05
66,2,3,0.
67,1,1,-1.0000000000000001e-05
67,2,3,0.
68,1,1,-1.0000000000000001e-05
68,2,3,0.
69,1,1,-1.0000000000000001e-05
69,2,3,0.
70,1,1,-1.0000000000000001e-05
70,2,3,0.
71,1,1,-1.0000000000000001e-05
71,2,3,0.
72,1,1,-1.0000000000000001e-05
72,2,3,0.
73,1,1,-1.0000000000000001e-05
73,2,3,0.
74,1,1,-1.0000000000000001e-05
74,2,3,0.
75,1,1,-1.0000000000000001e-05
75,2,3,0.
76,1,1,-1.0000000000000001e-05
76,2,3,0.
77,1,1,-1.0000000000000001e-05
77,2,3,0.
78,1,1,-1.0000000000000001e-05
78,2,3,0.
79,1,1,-1.0000000000000001e-05
79,2,3,0.
80,1,1,-1.0000000000000001e-05
80,2,3,0.
81,1,1,-1.0000000000000001e-05
81,2,3,0.
82,1,1,-1.0000000000000001e-05
82,2,3,0.
83,1,1,-1.0000000000000001e-05
83,2,3,0.
84,1,1,-1.0000000000000001e-05
84,2,3,0.
85,1,1,-1.0000000000000001e-05
85,2,3,0.
86,1,1,-1.0000000000000001e-05
86,2,3,0.
87,1,1,-1.0000000000000001e-05
87,2,3,0.
88,1,1,-1.0000000000000001e-05
88,2,3,0.
PRIMARY_X0,11,11,300.
SECONDARY_X2,11,11,400.
*Output, field, frequency=1
*Node Output
U,NT,RF,RFL
*Element Output, directions=YES
S
*Contact Output
CSTRESS,CDISP,CFORCE,HFLA,CTANDIR
*End Step
*Step, name=GAP_6, nlgeom=YES, unsymm=YES, extrapolation=NO
*Coupled Temperature-Displacement
0.025,0.025
*Boundary
1,1,1,0
1,2,3,0.
2,1,1,0
2,2,3,0.
3,1,1,0
3,2,3,0.
4,1,1,0
4,2,3,0.
5,1,1,0
5,2,3,0.
6,1,1,9.9999999999999995e-08
6,2,3,0.
7,1,1,0
7,2,3,0.
8,1,1,0
8,2,3,0.
9,1,1,0
9,2,3,0.
10,1,1,0
10,2,3,0.
11,1,1,0
11,2,3,0.
12,1,1,0
12,2,3,0.
13,1,1,0
13,2,3,0.
14,1,1,0
14,2,3,0.
15,1,1,0
15,2,3,0.
16,1,1,0
16,2,3,0.
17,1,1,0
17,2,3,0.
18,1,1,0
18,2,3,0.
19,1,1,0
19,2,3,0.
20,1,1,0
20,2,3,0.
21,1,1,0
21,2,3,0.
22,1,1,0
22,2,3,0.
23,1,1,0
23,2,3,0.
24,1,1,0
24,2,3,0.
25,1,1,0
25,2,3,0.
26,1,1,0
26,2,3,0.
27,1,1,0
27,2,3,0.
28,1,1,0
28,2,3,0.
29,1,1,0
29,2,3,0.
30,1,1,0
30,2,3,0.
31,1,1,0
31,2,3,0.
32,1,1,0
32,2,3,0.
33,1,1,0
33,2,3,0.
34,1,1,0
34,2,3,0.
35,1,1,0
35,2,3,0.
36,1,1,0
36,2,3,0.
37,1,1,0
37,2,3,0.
38,1,1,0
38,2,3,0.
39,1,1,0
39,2,3,0.
40,1,1,0
40,2,3,0.
41,1,1,0
41,2,3,0.
42,1,1,0
42,2,3,0.
43,1,1,0
43,2,3,0.
44,1,1,0
44,2,3,0.
45,1,1,0
45,2,3,0.
46,1,1,0
46,2,3,0.
47,1,1,0
47,2,3,0.
48,1,1,0
48,2,3,0.
49,1,1,0
49,2,3,0.
50,1,1,0
50,2,3,0.
51,1,1,0
51,2,3,0.
52,1,1,0
52,2,3,0.
53,1,1,0
53,2,3,0.
54,1,1,0
54,2,3,0.
55,1,1,0
55,2,3,0.
56,1,1,0
56,2,3,0.
57,1,1,-1.0000000000000001e-05
57,2,3,0.
58,1,1,-1.0000000000000001e-05
58,2,3,0.
59,1,1,-1.0000000000000001e-05
59,2,3,0.
60,1,1,-1.0000000000000001e-05
60,2,3,0.
61,1,1,-1.0000000000000001e-05
61,2,3,0.
62,1,1,-1.0000000000000001e-05
62,2,3,0.
63,1,1,-1.0000000000000001e-05
63,2,3,0.
64,1,1,-1.0000000000000001e-05
64,2,3,0.
65,1,1,-1.0000000000000001e-05
65,2,3,0.
66,1,1,-1.0000000000000001e-05
66,2,3,0.
67,1,1,-1.0000000000000001e-05
67,2,3,0.
68,1,1,-1.0000000000000001e-05
68,2,3,0.
69,1,1,-1.0000000000000001e-05
69,2,3,0.
70,1,1,-1.0000000000000001e-05
70,2,3,0.
71,1,1,-1.0000000000000001e-05
71,2,3,0.
72,1,1,-1.0000000000000001e-05
72,2,3,0.
73,1,1,-1.0000000000000001e-05
73,2,3,0.
74,1,1,-1.0000000000000001e-05
74,2,3,0.
75,1,1,-1.0000000000000001e-05
75,2,3,0.
76,1,1,-1.0000000000000001e-05
76,2,3,0.
77,1,1,-1.0000000000000001e-05
77,2,3,0.
78,1,1,-1.0000000000000001e-05
78,2,3,0.
79,1,1,-1.0000000000000001e-05
79,2,3,0.
80,1,1,-1.0000000000000001e-05
80,2,3,0.
81,1,1,-1.0000000000000001e-05
81,2,3,0.
82,1,1,-1.0000000000000001e-05
82,2,3,0.
83,1,1,-1.0000000000000001e-05
83,2,3,0.
84,1,1,-1.0000000000000001e-05
84,2,3,0.
85,1,1,-1.0000000000000001e-05
85,2,3,0.
86,1,1,-1.0000000000000001e-05
86,2,3,0.
87,1,1,-1.0000000000000001e-05
87,2,3,0.
88,1,1,-1.0000000000000001e-05
88,2,3,0.
PRIMARY_X0,11,11,300.
SECONDARY_X2,11,11,400.
*Output, field, frequency=1
*Node Output
U,NT,RF,RFL
*Element Output, directions=YES
S
*Contact Output
CSTRESS,CDISP,CFORCE,HFLA,CTANDIR
*End Step
*Step, name=GAP_7, nlgeom=YES, unsymm=YES, extrapolation=NO
*Coupled Temperature-Displacement
0.025,0.025
*Boundary
1,1,1,0
1,2,3,0.
2,1,1,0
2,2,3,0.
3,1,1,0
3,2,3,0.
4,1,1,0
4,2,3,0.
5,1,1,0
5,2,3,0.
6,1,1,-9.9999999999999995e-08
6,2,3,0.
7,1,1,0
7,2,3,0.
8,1,1,0
8,2,3,0.
9,1,1,0
9,2,3,0.
10,1,1,0
10,2,3,0.
11,1,1,0
11,2,3,0.
12,1,1,0
12,2,3,0.
13,1,1,0
13,2,3,0.
14,1,1,0
14,2,3,0.
15,1,1,0
15,2,3,0.
16,1,1,0
16,2,3,0.
17,1,1,0
17,2,3,0.
18,1,1,0
18,2,3,0.
19,1,1,0
19,2,3,0.
20,1,1,0
20,2,3,0.
21,1,1,0
21,2,3,0.
22,1,1,0
22,2,3,0.
23,1,1,0
23,2,3,0.
24,1,1,0
24,2,3,0.
25,1,1,0
25,2,3,0.
26,1,1,0
26,2,3,0.
27,1,1,0
27,2,3,0.
28,1,1,0
28,2,3,0.
29,1,1,0
29,2,3,0.
30,1,1,0
30,2,3,0.
31,1,1,0
31,2,3,0.
32,1,1,0
32,2,3,0.
33,1,1,0
33,2,3,0.
34,1,1,0
34,2,3,0.
35,1,1,0
35,2,3,0.
36,1,1,0
36,2,3,0.
37,1,1,0
37,2,3,0.
38,1,1,0
38,2,3,0.
39,1,1,0
39,2,3,0.
40,1,1,0
40,2,3,0.
41,1,1,0
41,2,3,0.
42,1,1,0
42,2,3,0.
43,1,1,0
43,2,3,0.
44,1,1,0
44,2,3,0.
45,1,1,0
45,2,3,0.
46,1,1,0
46,2,3,0.
47,1,1,0
47,2,3,0.
48,1,1,0
48,2,3,0.
49,1,1,0
49,2,3,0.
50,1,1,0
50,2,3,0.
51,1,1,0
51,2,3,0.
52,1,1,0
52,2,3,0.
53,1,1,0
53,2,3,0.
54,1,1,0
54,2,3,0.
55,1,1,0
55,2,3,0.
56,1,1,0
56,2,3,0.
57,1,1,-1.0000000000000001e-05
57,2,3,0.
58,1,1,-1.0000000000000001e-05
58,2,3,0.
59,1,1,-1.0000000000000001e-05
59,2,3,0.
60,1,1,-1.0000000000000001e-05
60,2,3,0.
61,1,1,-1.0000000000000001e-05
61,2,3,0.
62,1,1,-1.0000000000000001e-05
62,2,3,0.
63,1,1,-1.0000000000000001e-05
63,2,3,0.
64,1,1,-1.0000000000000001e-05
64,2,3,0.
65,1,1,-1.0000000000000001e-05
65,2,3,0.
66,1,1,-1.0000000000000001e-05
66,2,3,0.
67,1,1,-1.0000000000000001e-05
67,2,3,0.
68,1,1,-1.0000000000000001e-05
68,2,3,0.
69,1,1,-1.0000000000000001e-05
69,2,3,0.
70,1,1,-1.0000000000000001e-05
70,2,3,0.
71,1,1,-1.0000000000000001e-05
71,2,3,0.
72,1,1,-1.0000000000000001e-05
72,2,3,0.
73,1,1,-1.0000000000000001e-05
73,2,3,0.
74,1,1,-1.0000000000000001e-05
74,2,3,0.
75,1,1,-1.0000000000000001e-05
75,2,3,0.
76,1,1,-1.0000000000000001e-05
76,2,3,0.
77,1,1,-1.0000000000000001e-05
77,2,3,0.
78,1,1,-1.0000000000000001e-05
78,2,3,0.
79,1,1,-1.0000000000000001e-05
79,2,3,0.
80,1,1,-1.0000000000000001e-05
80,2,3,0.
81,1,1,-1.0000000000000001e-05
81,2,3,0.
82,1,1,-1.0000000000000001e-05
82,2,3,0.
83,1,1,-1.0000000000000001e-05
83,2,3,0.
84,1,1,-1.0000000000000001e-05
84,2,3,0.
85,1,1,-1.0000000000000001e-05
85,2,3,0.
86,1,1,-1.0000000000000001e-05
86,2,3,0.
87,1,1,-1.0000000000000001e-05
87,2,3,0.
88,1,1,-1.0000000000000001e-05
88,2,3,0.
PRIMARY_X0,11,11,300.
SECONDARY_X2,11,11,400.
*Output, field, frequency=1
*Node Output
U,NT,RF,RFL
*Element Output, directions=YES
S
*Contact Output
CSTRESS,CDISP,CFORCE,HFLA,CTANDIR
*End Step
*Step, name=GAP_8, nlgeom=YES, unsymm=YES, extrapolation=NO
*Coupled Temperature-Displacement
0.025,0.025
*Boundary
1,1,1,0
1,2,3,0.
2,1,1,0
2,2,3,0.
3,1,1,0
3,2,3,0.
4,1,1,0
4,2,3,0.
5,1,1,0
5,2,3,0.
6,1,1,0
6,2,3,0.
7,1,1,9.9999999999999995e-08
7,2,3,0.
8,1,1,0
8,2,3,0.
9,1,1,0
9,2,3,0.
10,1,1,0
10,2,3,0.
11,1,1,0
11,2,3,0.
12,1,1,0
12,2,3,0.
13,1,1,0
13,2,3,0.
14,1,1,0
14,2,3,0.
15,1,1,0
15,2,3,0.
16,1,1,0
16,2,3,0.
17,1,1,0
17,2,3,0.
18,1,1,0
18,2,3,0.
19,1,1,0
19,2,3,0.
20,1,1,0
20,2,3,0.
21,1,1,0
21,2,3,0.
22,1,1,0
22,2,3,0.
23,1,1,0
23,2,3,0.
24,1,1,0
24,2,3,0.
25,1,1,0
25,2,3,0.
26,1,1,0
26,2,3,0.
27,1,1,0
27,2,3,0.
28,1,1,0
28,2,3,0.
29,1,1,0
29,2,3,0.
30,1,1,0
30,2,3,0.
31,1,1,0
31,2,3,0.
32,1,1,0
32,2,3,0.
33,1,1,0
33,2,3,0.
34,1,1,0
34,2,3,0.
35,1,1,0
35,2,3,0.
36,1,1,0
36,2,3,0.
37,1,1,0
37,2,3,0.
38,1,1,0
38,2,3,0.
39,1,1,0
39,2,3,0.
40,1,1,0
40,2,3,0.
41,1,1,0
41,2,3,0.
42,1,1,0
42,2,3,0.
43,1,1,0
43,2,3,0.
44,1,1,0
44,2,3,0.
45,1,1,0
45,2,3,0.
46,1,1,0
46,2,3,0.
47,1,1,0
47,2,3,0.
48,1,1,0
48,2,3,0.
49,1,1,0
49,2,3,0.
50,1,1,0
50,2,3,0.
51,1,1,0
51,2,3,0.
52,1,1,0
52,2,3,0.
53,1,1,0
53,2,3,0.
54,1,1,0
54,2,3,0.
55,1,1,0
55,2,3,0.
56,1,1,0
56,2,3,0.
57,1,1,-1.0000000000000001e-05
57,2,3,0.
58,1,1,-1.0000000000000001e-05
58,2,3,0.
59,1,1,-1.0000000000000001e-05
59,2,3,0.
60,1,1,-1.0000000000000001e-05
60,2,3,0.
61,1,1,-1.0000000000000001e-05
61,2,3,0.
62,1,1,-1.0000000000000001e-05
62,2,3,0.
63,1,1,-1.0000000000000001e-05
63,2,3,0.
64,1,1,-1.0000000000000001e-05
64,2,3,0.
65,1,1,-1.0000000000000001e-05
65,2,3,0.
66,1,1,-1.0000000000000001e-05
66,2,3,0.
67,1,1,-1.0000000000000001e-05
67,2,3,0.
68,1,1,-1.0000000000000001e-05
68,2,3,0.
69,1,1,-1.0000000000000001e-05
69,2,3,0.
70,1,1,-1.0000000000000001e-05
70,2,3,0.
71,1,1,-1.0000000000000001e-05
71,2,3,0.
72,1,1,-1.0000000000000001e-05
72,2,3,0.
73,1,1,-1.0000000000000001e-05
73,2,3,0.
74,1,1,-1.0000000000000001e-05
74,2,3,0.
75,1,1,-1.0000000000000001e-05
75,2,3,0.
76,1,1,-1.0000000000000001e-05
76,2,3,0.
77,1,1,-1.0000000000000001e-05
77,2,3,0.
78,1,1,-1.0000000000000001e-05
78,2,3,0.
79,1,1,-1.0000000000000001e-05
79,2,3,0.
80,1,1,-1.0000000000000001e-05
80,2,3,0.
81,1,1,-1.0000000000000001e-05
81,2,3,0.
82,1,1,-1.0000000000000001e-05
82,2,3,0.
83,1,1,-1.0000000000000001e-05
83,2,3,0.
84,1,1,-1.0000000000000001e-05
84,2,3,0.
85,1,1,-1.0000000000000001e-05
85,2,3,0.
86,1,1,-1.0000000000000001e-05
86,2,3,0.
87,1,1,-1.0000000000000001e-05
87,2,3,0.
88,1,1,-1.0000000000000001e-05
88,2,3,0.
PRIMARY_X0,11,11,300.
SECONDARY_X2,11,11,400.
*Output, field, frequency=1
*Node Output
U,NT,RF,RFL
*Element Output, directions=YES
S
*Contact Output
CSTRESS,CDISP,CFORCE,HFLA,CTANDIR
*End Step
*Step, name=GAP_9, nlgeom=YES, unsymm=YES, extrapolation=NO
*Coupled Temperature-Displacement
0.025,0.025
*Boundary
1,1,1,0
1,2,3,0.
2,1,1,0
2,2,3,0.
3,1,1,0
3,2,3,0.
4,1,1,0
4,2,3,0.
5,1,1,0
5,2,3,0.
6,1,1,0
6,2,3,0.
7,1,1,-9.9999999999999995e-08
7,2,3,0.
8,1,1,0
8,2,3,0.
9,1,1,0
9,2,3,0.
10,1,1,0
10,2,3,0.
11,1,1,0
11,2,3,0.
12,1,1,0
12,2,3,0.
13,1,1,0
13,2,3,0.
14,1,1,0
14,2,3,0.
15,1,1,0
15,2,3,0.
16,1,1,0
16,2,3,0.
17,1,1,0
17,2,3,0.
18,1,1,0
18,2,3,0.
19,1,1,0
19,2,3,0.
20,1,1,0
20,2,3,0.
21,1,1,0
21,2,3,0.
22,1,1,0
22,2,3,0.
23,1,1,0
23,2,3,0.
24,1,1,0
24,2,3,0.
25,1,1,0
25,2,3,0.
26,1,1,0
26,2,3,0.
27,1,1,0
27,2,3,0.
28,1,1,0
28,2,3,0.
29,1,1,0
29,2,3,0.
30,1,1,0
30,2,3,0.
31,1,1,0
31,2,3,0.
32,1,1,0
32,2,3,0.
33,1,1,0
33,2,3,0.
34,1,1,0
34,2,3,0.
35,1,1,0
35,2,3,0.
36,1,1,0
36,2,3,0.
37,1,1,0
37,2,3,0.
38,1,1,0
38,2,3,0.
39,1,1,0
39,2,3,0.
40,1,1,0
40,2,3,0.
41,1,1,0
41,2,3,0.
42,1,1,0
42,2,3,0.
43,1,1,0
43,2,3,0.
44,1,1,0
44,2,3,0.
45,1,1,0
45,2,3,0.
46,1,1,0
46,2,3,0.
47,1,1,0
47,2,3,0.
48,1,1,0
48,2,3,0.
49,1,1,0
49,2,3,0.
50,1,1,0
50,2,3,0.
51,1,1,0
51,2,3,0.
52,1,1,0
52,2,3,0.
53,1,1,0
53,2,3,0.
54,1,1,0
54,2,3,0.
55,1,1,0
55,2,3,0.
56,1,1,0
56,2,3,0.
57,1,1,-1.0000000000000001e-05
57,2,3,0.
58,1,1,-1.0000000000000001e-05
58,2,3,0.
59,1,1,-1.0000000000000001e-05
59,2,3,0.
60,1,1,-1.0000000000000001e-05
60,2,3,0.
61,1,1,-1.0000000000000001e-05
61,2,3,0.
62,1,1,-1.0000000000000001e-05
62,2,3,0.
63,1,1,-1.0000000000000001e-05
63,2,3,0.
64,1,1,-1.0000000000000001e-05
64,2,3,0.
65,1,1,-1.0000000000000001e-05
65,2,3,0.
66,1,1,-1.0000000000000001e-05
66,2,3,0.
67,1,1,-1.0000000000000001e-05
67,2,3,0.
68,1,1,-1.0000000000000001e-05
68,2,3,0.
69,1,1,-1.0000000000000001e-05
69,2,3,0.
70,1,1,-1.0000000000000001e-05
70,2,3,0.
71,1,1,-1.0000000000000001e-05
71,2,3,0.
72,1,1,-1.0000000000000001e-05
72,2,3,0.
73,1,1,-1.0000000000000001e-05
73,2,3,0.
74,1,1,-1.0000000000000001e-05
74,2,3,0.
75,1,1,-1.0000000000000001e-05
75,2,3,0.
76,1,1,-1.0000000000000001e-05
76,2,3,0.
77,1,1,-1.0000000000000001e-05
77,2,3,0.
78,1,1,-1.0000000000000001e-05
78,2,3,0.
79,1,1,-1.0000000000000001e-05
79,2,3,0.
80,1,1,-1.0000000000000001e-05
80,2,3,0.
81,1,1,-1.0000000000000001e-05
81,2,3,0.
82,1,1,-1.0000000000000001e-05
82,2,3,0.
83,1,1,-1.0000000000000001e-05
83,2,3,0.
84,1,1,-1.0000000000000001e-05
84,2,3,0.
85,1,1,-1.0000000000000001e-05
85,2,3,0.
86,1,1,-1.0000000000000001e-05
86,2,3,0.
87,1,1,-1.0000000000000001e-05
87,2,3,0.
88,1,1,-1.0000000000000001e-05
88,2,3,0.
PRIMARY_X0,11,11,300.
SECONDARY_X2,11,11,400.
*Output, field, frequency=1
*Node Output
U,NT,RF,RFL
*Element Output, directions=YES
S
*Contact Output
CSTRESS,CDISP,CFORCE,HFLA,CTANDIR
*End Step
*Step, name=GAP_10, nlgeom=YES, unsymm=YES, extrapolation=NO
*Coupled Temperature-Displacement
0.025,0.025
*Boundary
1,1,1,0
1,2,3,0.
2,1,1,0
2,2,3,0.
3,1,1,0
3,2,3,0.
4,1,1,0
4,2,3,0.
5,1,1,0
5,2,3,0.
6,1,1,0
6,2,3,0.
7,1,1,0
7,2,3,0.
8,1,1,0
8,2,3,0.
9,1,1,0
9,2,3,0.
10,1,1,9.9999999999999995e-08
10,2,3,0.
11,1,1,0
11,2,3,0.
12,1,1,0
12,2,3,0.
13,1,1,0
13,2,3,0.
14,1,1,0
14,2,3,0.
15,1,1,0
15,2,3,0.
16,1,1,0
16,2,3,0.
17,1,1,0
17,2,3,0.
18,1,1,0
18,2,3,0.
19,1,1,0
19,2,3,0.
20,1,1,0
20,2,3,0.
21,1,1,0
21,2,3,0.
22,1,1,0
22,2,3,0.
23,1,1,0
23,2,3,0.
24,1,1,0
24,2,3,0.
25,1,1,0
25,2,3,0.
26,1,1,0
26,2,3,0.
27,1,1,0
27,2,3,0.
28,1,1,0
28,2,3,0.
29,1,1,0
29,2,3,0.
30,1,1,0
30,2,3,0.
31,1,1,0
31,2,3,0.
32,1,1,0
32,2,3,0.
33,1,1,0
33,2,3,0.
34,1,1,0
34,2,3,0.
35,1,1,0
35,2,3,0.
36,1,1,0
36,2,3,0.
37,1,1,0
37,2,3,0.
38,1,1,0
38,2,3,0.
39,1,1,0
39,2,3,0.
40,1,1,0
40,2,3,0.
41,1,1,0
41,2,3,0.
42,1,1,0
42,2,3,0.
43,1,1,0
43,2,3,0.
44,1,1,0
44,2,3,0.
45,1,1,0
45,2,3,0.
46,1,1,0
46,2,3,0.
47,1,1,0
47,2,3,0.
48,1,1,0
48,2,3,0.
49,1,1,0
49,2,3,0.
50,1,1,0
50,2,3,0.
51,1,1,0
51,2,3,0.
52,1,1,0
52,2,3,0.
53,1,1,0
53,2,3,0.
54,1,1,0
54,2,3,0.
55,1,1,0
55,2,3,0.
56,1,1,0
56,2,3,0.
57,1,1,-1.0000000000000001e-05
57,2,3,0.
58,1,1,-1.0000000000000001e-05
58,2,3,0.
59,1,1,-1.0000000000000001e-05
59,2,3,0.
60,1,1,-1.0000000000000001e-05
60,2,3,0.
61,1,1,-1.0000000000000001e-05
61,2,3,0.
62,1,1,-1.0000000000000001e-05
62,2,3,0.
63,1,1,-1.0000000000000001e-05
63,2,3,0.
64,1,1,-1.0000000000000001e-05
64,2,3,0.
65,1,1,-1.0000000000000001e-05
65,2,3,0.
66,1,1,-1.0000000000000001e-05
66,2,3,0.
67,1,1,-1.0000000000000001e-05
67,2,3,0.
68,1,1,-1.0000000000000001e-05
68,2,3,0.
69,1,1,-1.0000000000000001e-05
69,2,3,0.
70,1,1,-1.0000000000000001e-05
70,2,3,0.
71,1,1,-1.0000000000000001e-05
71,2,3,0.
72,1,1,-1.0000000000000001e-05
72,2,3,0.
73,1,1,-1.0000000000000001e-05
73,2,3,0.
74,1,1,-1.0000000000000001e-05
74,2,3,0.
75,1,1,-1.0000000000000001e-05
75,2,3,0.
76,1,1,-1.0000000000000001e-05
76,2,3,0.
77,1,1,-1.0000000000000001e-05
77,2,3,0.
78,1,1,-1.0000000000000001e-05
78,2,3,0.
79,1,1,-1.0000000000000001e-05
79,2,3,0.
80,1,1,-1.0000000000000001e-05
80,2,3,0.
81,1,1,-1.0000000000000001e-05
81,2,3,0.
82,1,1,-1.0000000000000001e-05
82,2,3,0.
83,1,1,-1.0000000000000001e-05
83,2,3,0.
84,1,1,-1.0000000000000001e-05
84,2,3,0.
85,1,1,-1.0000000000000001e-05
85,2,3,0.
86,1,1,-1.0000000000000001e-05
86,2,3,0.
87,1,1,-1.0000000000000001e-05
87,2,3,0.
88,1,1,-1.0000000000000001e-05
88,2,3,0.
PRIMARY_X0,11,11,300.
SECONDARY_X2,11,11,400.
*Output, field, frequency=1
*Node Output
U,NT,RF,RFL
*Element Output, directions=YES
S
*Contact Output
CSTRESS,CDISP,CFORCE,HFLA,CTANDIR
*End Step
*Step, name=GAP_11, nlgeom=YES, unsymm=YES, extrapolation=NO
*Coupled Temperature-Displacement
0.025,0.025
*Boundary
1,1,1,0
1,2,3,0.
2,1,1,0
2,2,3,0.
3,1,1,0
3,2,3,0.
4,1,1,0
4,2,3,0.
5,1,1,0
5,2,3,0.
6,1,1,0
6,2,3,0.
7,1,1,0
7,2,3,0.
8,1,1,0
8,2,3,0.
9,1,1,0
9,2,3,0.
10,1,1,-9.9999999999999995e-08
10,2,3,0.
11,1,1,0
11,2,3,0.
12,1,1,0
12,2,3,0.
13,1,1,0
13,2,3,0.
14,1,1,0
14,2,3,0.
15,1,1,0
15,2,3,0.
16,1,1,0
16,2,3,0.
17,1,1,0
17,2,3,0.
18,1,1,0
18,2,3,0.
19,1,1,0
19,2,3,0.
20,1,1,0
20,2,3,0.
21,1,1,0
21,2,3,0.
22,1,1,0
22,2,3,0.
23,1,1,0
23,2,3,0.
24,1,1,0
24,2,3,0.
25,1,1,0
25,2,3,0.
26,1,1,0
26,2,3,0.
27,1,1,0
27,2,3,0.
28,1,1,0
28,2,3,0.
29,1,1,0
29,2,3,0.
30,1,1,0
30,2,3,0.
31,1,1,0
31,2,3,0.
32,1,1,0
32,2,3,0.
33,1,1,0
33,2,3,0.
34,1,1,0
34,2,3,0.
35,1,1,0
35,2,3,0.
36,1,1,0
36,2,3,0.
37,1,1,0
37,2,3,0.
38,1,1,0
38,2,3,0.
39,1,1,0
39,2,3,0.
40,1,1,0
40,2,3,0.
41,1,1,0
41,2,3,0.
42,1,1,0
42,2,3,0.
43,1,1,0
43,2,3,0.
44,1,1,0
44,2,3,0.
45,1,1,0
45,2,3,0.
46,1,1,0
46,2,3,0.
47,1,1,0
47,2,3,0.
48,1,1,0
48,2,3,0.
49,1,1,0
49,2,3,0.
50,1,1,0
50,2,3,0.
51,1,1,0
51,2,3,0.
52,1,1,0
52,2,3,0.
53,1,1,0
53,2,3,0.
54,1,1,0
54,2,3,0.
55,1,1,0
55,2,3,0.
56,1,1,0
56,2,3,0.
57,1,1,-1.0000000000000001e-05
57,2,3,0.
58,1,1,-1.0000000000000001e-05
58,2,3,0.
59,1,1,-1.0000000000000001e-05
59,2,3,0.
60,1,1,-1.0000000000000001e-05
60,2,3,0.
61,1,1,-1.0000000000000001e-05
61,2,3,0.
62,1,1,-1.0000000000000001e-05
62,2,3,0.
63,1,1,-1.0000000000000001e-05
63,2,3,0.
64,1,1,-1.0000000000000001e-05
64,2,3,0.
65,1,1,-1.0000000000000001e-05
65,2,3,0.
66,1,1,-1.0000000000000001e-05
66,2,3,0.
67,1,1,-1.0000000000000001e-05
67,2,3,0.
68,1,1,-1.0000000000000001e-05
68,2,3,0.
69,1,1,-1.0000000000000001e-05
69,2,3,0.
70,1,1,-1.0000000000000001e-05
70,2,3,0.
71,1,1,-1.0000000000000001e-05
71,2,3,0.
72,1,1,-1.0000000000000001e-05
72,2,3,0.
73,1,1,-1.0000000000000001e-05
73,2,3,0.
74,1,1,-1.0000000000000001e-05
74,2,3,0.
75,1,1,-1.0000000000000001e-05
75,2,3,0.
76,1,1,-1.0000000000000001e-05
76,2,3,0.
77,1,1,-1.0000000000000001e-05
77,2,3,0.
78,1,1,-1.0000000000000001e-05
78,2,3,0.
79,1,1,-1.0000000000000001e-05
79,2,3,0.
80,1,1,-1.0000000000000001e-05
80,2,3,0.
81,1,1,-1.0000000000000001e-05
81,2,3,0.
82,1,1,-1.0000000000000001e-05
82,2,3,0.
83,1,1,-1.0000000000000001e-05
83,2,3,0.
84,1,1,-1.0000000000000001e-05
84,2,3,0.
85,1,1,-1.0000000000000001e-05
85,2,3,0.
86,1,1,-1.0000000000000001e-05
86,2,3,0.
87,1,1,-1.0000000000000001e-05
87,2,3,0.
88,1,1,-1.0000000000000001e-05
88,2,3,0.
PRIMARY_X0,11,11,300.
SECONDARY_X2,11,11,400.
*Output, field, frequency=1
*Node Output
U,NT,RF,RFL
*Element Output, directions=YES
S
*Contact Output
CSTRESS,CDISP,CFORCE,HFLA,CTANDIR
*End Step
*Step, name=GAP_12, nlgeom=YES, unsymm=YES, extrapolation=NO
*Coupled Temperature-Displacement
0.025,0.025
*Boundary
1,1,1,0
1,2,3,0.
2,1,1,0
2,2,3,0.
3,1,1,0
3,2,3,0.
4,1,1,0
4,2,3,0.
5,1,1,0
5,2,3,0.
6,1,1,0
6,2,3,0.
7,1,1,0
7,2,3,0.
8,1,1,0
8,2,3,0.
9,1,1,0
9,2,3,0.
10,1,1,0
10,2,3,0.
11,1,1,0
11,2,3,0.
12,1,1,0
12,2,3,0.
13,1,1,0
13,2,3,0.
14,1,1,9.9999999999999995e-08
14,2,3,0.
15,1,1,0
15,2,3,0.
16,1,1,0
16,2,3,0.
17,1,1,0
17,2,3,0.
18,1,1,0
18,2,3,0.
19,1,1,0
19,2,3,0.
20,1,1,0
20,2,3,0.
21,1,1,0
21,2,3,0.
22,1,1,0
22,2,3,0.
23,1,1,0
23,2,3,0.
24,1,1,0
24,2,3,0.
25,1,1,0
25,2,3,0.
26,1,1,0
26,2,3,0.
27,1,1,0
27,2,3,0.
28,1,1,0
28,2,3,0.
29,1,1,0
29,2,3,0.
30,1,1,0
30,2,3,0.
31,1,1,0
31,2,3,0.
32,1,1,0
32,2,3,0.
33,1,1,0
33,2,3,0.
34,1,1,0
34,2,3,0.
35,1,1,0
35,2,3,0.
36,1,1,0
36,2,3,0.
37,1,1,0
37,2,3,0.
38,1,1,0
38,2,3,0.
39,1,1,0
39,2,3,0.
40,1,1,0
40,2,3,0.
41,1,1,0
41,2,3,0.
42,1,1,0
42,2,3,0.
43,1,1,0
43,2,3,0.
44,1,1,0
44,2,3,0.
45,1,1,0
45,2,3,0.
46,1,1,0
46,2,3,0.
47,1,1,0
47,2,3,0.
48,1,1,0
48,2,3,0.
49,1,1,0
49,2,3,0.
50,1,1,0
50,2,3,0.
51,1,1,0
51,2,3,0.
52,1,1,0
52,2,3,0.
53,1,1,0
53,2,3,0.
54,1,1,0
54,2,3,0.
55,1,1,0
55,2,3,0.
56,1,1,0
56,2,3,0.
57,1,1,-1.0000000000000001e-05
57,2,3,0.
58,1,1,-1.0000000000000001e-05
58,2,3,0.
59,1,1,-1.0000000000000001e-05
59,2,3,0.
60,1,1,-1.0000000000000001e-05
60,2,3,0.
61,1,1,-1.0000000000000001e-05
61,2,3,0.
62,1,1,-1.0000000000000001e-05
62,2,3,0.
63,1,1,-1.0000000000000001e-05
63,2,3,0.
64,1,1,-1.0000000000000001e-05
64,2,3,0.
65,1,1,-1.0000000000000001e-05
65,2,3,0.
66,1,1,-1.0000000000000001e-05
66,2,3,0.
67,1,1,-1.0000000000000001e-05
67,2,3,0.
68,1,1,-1.0000000000000001e-05
68,2,3,0.
69,1,1,-1.0000000000000001e-05
69,2,3,0.
70,1,1,-1.0000000000000001e-05
70,2,3,0.
71,1,1,-1.0000000000000001e-05
71,2,3,0.
72,1,1,-1.0000000000000001e-05
72,2,3,0.
73,1,1,-1.0000000000000001e-05
73,2,3,0.
74,1,1,-1.0000000000000001e-05
74,2,3,0.
75,1,1,-1.0000000000000001e-05
75,2,3,0.
76,1,1,-1.0000000000000001e-05
76,2,3,0.
77,1,1,-1.0000000000000001e-05
77,2,3,0.
78,1,1,-1.0000000000000001e-05
78,2,3,0.
79,1,1,-1.0000000000000001e-05
79,2,3,0.
80,1,1,-1.0000000000000001e-05
80,2,3,0.
81,1,1,-1.0000000000000001e-05
81,2,3,0.
82,1,1,-1.0000000000000001e-05
82,2,3,0.
83,1,1,-1.0000000000000001e-05
83,2,3,0.
84,1,1,-1.0000000000000001e-05
84,2,3,0.
85,1,1,-1.0000000000000001e-05
85,2,3,0.
86,1,1,-1.0000000000000001e-05
86,2,3,0.
87,1,1,-1.0000000000000001e-05
87,2,3,0.
88,1,1,-1.0000000000000001e-05
88,2,3,0.
PRIMARY_X0,11,11,300.
SECONDARY_X2,11,11,400.
*Output, field, frequency=1
*Node Output
U,NT,RF,RFL
*Element Output, directions=YES
S
*Contact Output
CSTRESS,CDISP,CFORCE,HFLA,CTANDIR
*End Step
*Step, name=GAP_13, nlgeom=YES, unsymm=YES, extrapolation=NO
*Coupled Temperature-Displacement
0.025,0.025
*Boundary
1,1,1,0
1,2,3,0.
2,1,1,0
2,2,3,0.
3,1,1,0
3,2,3,0.
4,1,1,0
4,2,3,0.
5,1,1,0
5,2,3,0.
6,1,1,0
6,2,3,0.
7,1,1,0
7,2,3,0.
8,1,1,0
8,2,3,0.
9,1,1,0
9,2,3,0.
10,1,1,0
10,2,3,0.
11,1,1,0
11,2,3,0.
12,1,1,0
12,2,3,0.
13,1,1,0
13,2,3,0.
14,1,1,-9.9999999999999995e-08
14,2,3,0.
15,1,1,0
15,2,3,0.
16,1,1,0
16,2,3,0.
17,1,1,0
17,2,3,0.
18,1,1,0
18,2,3,0.
19,1,1,0
19,2,3,0.
20,1,1,0
20,2,3,0.
21,1,1,0
21,2,3,0.
22,1,1,0
22,2,3,0.
23,1,1,0
23,2,3,0.
24,1,1,0
24,2,3,0.
25,1,1,0
25,2,3,0.
26,1,1,0
26,2,3,0.
27,1,1,0
27,2,3,0.
28,1,1,0
28,2,3,0.
29,1,1,0
29,2,3,0.
30,1,1,0
30,2,3,0.
31,1,1,0
31,2,3,0.
32,1,1,0
32,2,3,0.
33,1,1,0
33,2,3,0.
34,1,1,0
34,2,3,0.
35,1,1,0
35,2,3,0.
36,1,1,0
36,2,3,0.
37,1,1,0
37,2,3,0.
38,1,1,0
38,2,3,0.
39,1,1,0
39,2,3,0.
40,1,1,0
40,2,3,0.
41,1,1,0
41,2,3,0.
42,1,1,0
42,2,3,0.
43,1,1,0
43,2,3,0.
44,1,1,0
44,2,3,0.
45,1,1,0
45,2,3,0.
46,1,1,0
46,2,3,0.
47,1,1,0
47,2,3,0.
48,1,1,0
48,2,3,0.
49,1,1,0
49,2,3,0.
50,1,1,0
50,2,3,0.
51,1,1,0
51,2,3,0.
52,1,1,0
52,2,3,0.
53,1,1,0
53,2,3,0.
54,1,1,0
54,2,3,0.
55,1,1,0
55,2,3,0.
56,1,1,0
56,2,3,0.
57,1,1,-1.0000000000000001e-05
57,2,3,0.
58,1,1,-1.0000000000000001e-05
58,2,3,0.
59,1,1,-1.0000000000000001e-05
59,2,3,0.
60,1,1,-1.0000000000000001e-05
60,2,3,0.
61,1,1,-1.0000000000000001e-05
61,2,3,0.
62,1,1,-1.0000000000000001e-05
62,2,3,0.
63,1,1,-1.0000000000000001e-05
63,2,3,0.
64,1,1,-1.0000000000000001e-05
64,2,3,0.
65,1,1,-1.0000000000000001e-05
65,2,3,0.
66,1,1,-1.0000000000000001e-05
66,2,3,0.
67,1,1,-1.0000000000000001e-05
67,2,3,0.
68,1,1,-1.0000000000000001e-05
68,2,3,0.
69,1,1,-1.0000000000000001e-05
69,2,3,0.
70,1,1,-1.0000000000000001e-05
70,2,3,0.
71,1,1,-1.0000000000000001e-05
71,2,3,0.
72,1,1,-1.0000000000000001e-05
72,2,3,0.
73,1,1,-1.0000000000000001e-05
73,2,3,0.
74,1,1,-1.0000000000000001e-05
74,2,3,0.
75,1,1,-1.0000000000000001e-05
75,2,3,0.
76,1,1,-1.0000000000000001e-05
76,2,3,0.
77,1,1,-1.0000000000000001e-05
77,2,3,0.
78,1,1,-1.0000000000000001e-05
78,2,3,0.
79,1,1,-1.0000000000000001e-05
79,2,3,0.
80,1,1,-1.0000000000000001e-05
80,2,3,0.
81,1,1,-1.0000000000000001e-05
81,2,3,0.
82,1,1,-1.0000000000000001e-05
82,2,3,0.
83,1,1,-1.0000000000000001e-05
83,2,3,0.
84,1,1,-1.0000000000000001e-05
84,2,3,0.
85,1,1,-1.0000000000000001e-05
85,2,3,0.
86,1,1,-1.0000000000000001e-05
86,2,3,0.
87,1,1,-1.0000000000000001e-05
87,2,3,0.
88,1,1,-1.0000000000000001e-05
88,2,3,0.
PRIMARY_X0,11,11,300.
SECONDARY_X2,11,11,400.
*Output, field, frequency=1
*Node Output
U,NT,RF,RFL
*Element Output, directions=YES
S
*Contact Output
CSTRESS,CDISP,CFORCE,HFLA,CTANDIR
*End Step
*Step, name=GAP_14, nlgeom=YES, unsymm=YES, extrapolation=NO
*Coupled Temperature-Displacement
0.025,0.025
*Boundary
1,1,1,0
1,2,3,0.
2,1,1,0
2,2,3,0.
3,1,1,0
3,2,3,0.
4,1,1,0
4,2,3,0.
5,1,1,0
5,2,3,0.
6,1,1,0
6,2,3,0.
7,1,1,0
7,2,3,0.
8,1,1,0
8,2,3,0.
9,1,1,0
9,2,3,0.
10,1,1,0
10,2,3,0.
11,1,1,0
11,2,3,0.
12,1,1,0
12,2,3,0.
13,1,1,0
13,2,3,0.
14,1,1,0
14,2,3,0.
15,1,1,9.9999999999999995e-08
15,2,3,0.
16,1,1,0
16,2,3,0.
17,1,1,0
17,2,3,0.
18,1,1,0
18,2,3,0.
19,1,1,0
19,2,3,0.
20,1,1,0
20,2,3,0.
21,1,1,0
21,2,3,0.
22,1,1,0
22,2,3,0.
23,1,1,0
23,2,3,0.
24,1,1,0
24,2,3,0.
25,1,1,0
25,2,3,0.
26,1,1,0
26,2,3,0.
27,1,1,0
27,2,3,0.
28,1,1,0
28,2,3,0.
29,1,1,0
29,2,3,0.
30,1,1,0
30,2,3,0.
31,1,1,0
31,2,3,0.
32,1,1,0
32,2,3,0.
33,1,1,0
33,2,3,0.
34,1,1,0
34,2,3,0.
35,1,1,0
35,2,3,0.
36,1,1,0
36,2,3,0.
37,1,1,0
37,2,3,0.
38,1,1,0
38,2,3,0.
39,1,1,0
39,2,3,0.
40,1,1,0
40,2,3,0.
41,1,1,0
41,2,3,0.
42,1,1,0
42,2,3,0.
43,1,1,0
43,2,3,0.
44,1,1,0
44,2,3,0.
45,1,1,0
45,2,3,0.
46,1,1,0
46,2,3,0.
47,1,1,0
47,2,3,0.
48,1,1,0
48,2,3,0.
49,1,1,0
49,2,3,0.
50,1,1,0
50,2,3,0.
51,1,1,0
51,2,3,0.
52,1,1,0
52,2,3,0.
53,1,1,0
53,2,3,0.
54,1,1,0
54,2,3,0.
55,1,1,0
55,2,3,0.
56,1,1,0
56,2,3,0.
57,1,1,-1.0000000000000001e-05
57,2,3,0.
58,1,1,-1.0000000000000001e-05
58,2,3,0.
59,1,1,-1.0000000000000001e-05
59,2,3,0.
60,1,1,-1.0000000000000001e-05
60,2,3,0.
61,1,1,-1.0000000000000001e-05
61,2,3,0.
62,1,1,-1.0000000000000001e-05
62,2,3,0.
63,1,1,-1.0000000000000001e-05
63,2,3,0.
64,1,1,-1.0000000000000001e-05
64,2,3,0.
65,1,1,-1.0000000000000001e-05
65,2,3,0.
66,1,1,-1.0000000000000001e-05
66,2,3,0.
67,1,1,-1.0000000000000001e-05
67,2,3,0.
68,1,1,-1.0000000000000001e-05
68,2,3,0.
69,1,1,-1.0000000000000001e-05
69,2,3,0.
70,1,1,-1.0000000000000001e-05
70,2,3,0.
71,1,1,-1.0000000000000001e-05
71,2,3,0.
72,1,1,-1.0000000000000001e-05
72,2,3,0.
73,1,1,-1.0000000000000001e-05
73,2,3,0.
74,1,1,-1.0000000000000001e-05
74,2,3,0.
75,1,1,-1.0000000000000001e-05
75,2,3,0.
76,1,1,-1.0000000000000001e-05
76,2,3,0.
77,1,1,-1.0000000000000001e-05
77,2,3,0.
78,1,1,-1.0000000000000001e-05
78,2,3,0.
79,1,1,-1.0000000000000001e-05
79,2,3,0.
80,1,1,-1.0000000000000001e-05
80,2,3,0.
81,1,1,-1.0000000000000001e-05
81,2,3,0.
82,1,1,-1.0000000000000001e-05
82,2,3,0.
83,1,1,-1.0000000000000001e-05
83,2,3,0.
84,1,1,-1.0000000000000001e-05
84,2,3,0.
85,1,1,-1.0000000000000001e-05
85,2,3,0.
86,1,1,-1.0000000000000001e-05
86,2,3,0.
87,1,1,-1.0000000000000001e-05
87,2,3,0.
88,1,1,-1.0000000000000001e-05
88,2,3,0.
PRIMARY_X0,11,11,300.
SECONDARY_X2,11,11,400.
*Output, field, frequency=1
*Node Output
U,NT,RF,RFL
*Element Output, directions=YES
S
*Contact Output
CSTRESS,CDISP,CFORCE,HFLA,CTANDIR
*End Step
*Step, name=GAP_15, nlgeom=YES, unsymm=YES, extrapolation=NO
*Coupled Temperature-Displacement
0.025,0.025
*Boundary
1,1,1,0
1,2,3,0.
2,1,1,0
2,2,3,0.
3,1,1,0
3,2,3,0.
4,1,1,0
4,2,3,0.
5,1,1,0
5,2,3,0.
6,1,1,0
6,2,3,0.
7,1,1,0
7,2,3,0.
8,1,1,0
8,2,3,0.
9,1,1,0
9,2,3,0.
10,1,1,0
10,2,3,0.
11,1,1,0
11,2,3,0.
12,1,1,0
12,2,3,0.
13,1,1,0
13,2,3,0.
14,1,1,0
14,2,3,0.
15,1,1,-9.9999999999999995e-08
15,2,3,0.
16,1,1,0
16,2,3,0.
17,1,1,0
17,2,3,0.
18,1,1,0
18,2,3,0.
19,1,1,0
19,2,3,0.
20,1,1,0
20,2,3,0.
21,1,1,0
21,2,3,0.
22,1,1,0
22,2,3,0.
23,1,1,0
23,2,3,0.
24,1,1,0
24,2,3,0.
25,1,1,0
25,2,3,0.
26,1,1,0
26,2,3,0.
27,1,1,0
27,2,3,0.
28,1,1,0
28,2,3,0.
29,1,1,0
29,2,3,0.
30,1,1,0
30,2,3,0.
31,1,1,0
31,2,3,0.
32,1,1,0
32,2,3,0.
33,1,1,0
33,2,3,0.
34,1,1,0
34,2,3,0.
35,1,1,0
35,2,3,0.
36,1,1,0
36,2,3,0.
37,1,1,0
37,2,3,0.
38,1,1,0
38,2,3,0.
39,1,1,0
39,2,3,0.
40,1,1,0
40,2,3,0.
41,1,1,0
41,2,3,0.
42,1,1,0
42,2,3,0.
43,1,1,0
43,2,3,0.
44,1,1,0
44,2,3,0.
45,1,1,0
45,2,3,0.
46,1,1,0
46,2,3,0.
47,1,1,0
47,2,3,0.
48,1,1,0
48,2,3,0.
49,1,1,0
49,2,3,0.
50,1,1,0
50,2,3,0.
51,1,1,0
51,2,3,0.
52,1,1,0
52,2,3,0.
53,1,1,0
53,2,3,0.
54,1,1,0
54,2,3,0.
55,1,1,0
55,2,3,0.
56,1,1,0
56,2,3,0.
57,1,1,-1.0000000000000001e-05
57,2,3,0.
58,1,1,-1.0000000000000001e-05
58,2,3,0.
59,1,1,-1.0000000000000001e-05
59,2,3,0.
60,1,1,-1.0000000000000001e-05
60,2,3,0.
61,1,1,-1.0000000000000001e-05
61,2,3,0.
62,1,1,-1.0000000000000001e-05
62,2,3,0.
63,1,1,-1.0000000000000001e-05
63,2,3,0.
64,1,1,-1.0000000000000001e-05
64,2,3,0.
65,1,1,-1.0000000000000001e-05
65,2,3,0.
66,1,1,-1.0000000000000001e-05
66,2,3,0.
67,1,1,-1.0000000000000001e-05
67,2,3,0.
68,1,1,-1.0000000000000001e-05
68,2,3,0.
69,1,1,-1.0000000000000001e-05
69,2,3,0.
70,1,1,-1.0000000000000001e-05
70,2,3,0.
71,1,1,-1.0000000000000001e-05
71,2,3,0.
72,1,1,-1.0000000000000001e-05
72,2,3,0.
73,1,1,-1.0000000000000001e-05
73,2,3,0.
74,1,1,-1.0000000000000001e-05
74,2,3,0.
75,1,1,-1.0000000000000001e-05
75,2,3,0.
76,1,1,-1.0000000000000001e-05
76,2,3,0.
77,1,1,-1.0000000000000001e-05
77,2,3,0.
78,1,1,-1.0000000000000001e-05
78,2,3,0.
79,1,1,-1.0000000000000001e-05
79,2,3,0.
80,1,1,-1.0000000000000001e-05
80,2,3,0.
81,1,1,-1.0000000000000001e-05
81,2,3,0.
82,1,1,-1.0000000000000001e-05
82,2,3,0.
83,1,1,-1.0000000000000001e-05
83,2,3,0.
84,1,1,-1.0000000000000001e-05
84,2,3,0.
85,1,1,-1.0000000000000001e-05
85,2,3,0.
86,1,1,-1.0000000000000001e-05
86,2,3,0.
87,1,1,-1.0000000000000001e-05
87,2,3,0.
88,1,1,-1.0000000000000001e-05
88,2,3,0.
PRIMARY_X0,11,11,300.
SECONDARY_X2,11,11,400.
*Output, field, frequency=1
*Node Output
U,NT,RF,RFL
*Element Output, directions=YES
S
*Contact Output
CSTRESS,CDISP,CFORCE,HFLA,CTANDIR
*End Step
*Step, name=GAP_16, nlgeom=YES, unsymm=YES, extrapolation=NO
*Coupled Temperature-Displacement
0.025,0.025
*Boundary
1,1,1,0
1,2,3,0.
2,1,1,0
2,2,3,0.
3,1,1,0
3,2,3,0.
4,1,1,0
4,2,3,0.
5,1,1,0
5,2,3,0.
6,1,1,0
6,2,3,0.
7,1,1,0
7,2,3,0.
8,1,1,0
8,2,3,0.
9,1,1,0
9,2,3,0.
10,1,1,0
10,2,3,0.
11,1,1,0
11,2,3,0.
12,1,1,0
12,2,3,0.
13,1,1,0
13,2,3,0.
14,1,1,0
14,2,3,0.
15,1,1,0
15,2,3,0.
16,1,1,0
16,2,3,0.
17,1,1,0
17,2,3,0.
18,1,1,9.9999999999999995e-08
18,2,3,0.
19,1,1,0
19,2,3,0.
20,1,1,0
20,2,3,0.
21,1,1,0
21,2,3,0.
22,1,1,0
22,2,3,0.
23,1,1,0
23,2,3,0.
24,1,1,0
24,2,3,0.
25,1,1,0
25,2,3,0.
26,1,1,0
26,2,3,0.
27,1,1,0
27,2,3,0.
28,1,1,0
28,2,3,0.
29,1,1,0
29,2,3,0.
30,1,1,0
30,2,3,0.
31,1,1,0
31,2,3,0.
32,1,1,0
32,2,3,0.
33,1,1,0
33,2,3,0.
34,1,1,0
34,2,3,0.
35,1,1,0
35,2,3,0.
36,1,1,0
36,2,3,0.
37,1,1,0
37,2,3,0.
38,1,1,0
38,2,3,0.
39,1,1,0
39,2,3,0.
40,1,1,0
40,2,3,0.
41,1,1,0
41,2,3,0.
42,1,1,0
42,2,3,0.
43,1,1,0
43,2,3,0.
44,1,1,0
44,2,3,0.
45,1,1,0
45,2,3,0.
46,1,1,0
46,2,3,0.
47,1,1,0
47,2,3,0.
48,1,1,0
48,2,3,0.
49,1,1,0
49,2,3,0.
50,1,1,0
50,2,3,0.
51,1,1,0
51,2,3,0.
52,1,1,0
52,2,3,0.
53,1,1,0
53,2,3,0.
54,1,1,0
54,2,3,0.
55,1,1,0
55,2,3,0.
56,1,1,0
56,2,3,0.
57,1,1,-1.0000000000000001e-05
57,2,3,0.
58,1,1,-1.0000000000000001e-05
58,2,3,0.
59,1,1,-1.0000000000000001e-05
59,2,3,0.
60,1,1,-1.0000000000000001e-05
60,2,3,0.
61,1,1,-1.0000000000000001e-05
61,2,3,0.
62,1,1,-1.0000000000000001e-05
62,2,3,0.
63,1,1,-1.0000000000000001e-05
63,2,3,0.
64,1,1,-1.0000000000000001e-05
64,2,3,0.
65,1,1,-1.0000000000000001e-05
65,2,3,0.
66,1,1,-1.0000000000000001e-05
66,2,3,0.
67,1,1,-1.0000000000000001e-05
67,2,3,0.
68,1,1,-1.0000000000000001e-05
68,2,3,0.
69,1,1,-1.0000000000000001e-05
69,2,3,0.
70,1,1,-1.0000000000000001e-05
70,2,3,0.
71,1,1,-1.0000000000000001e-05
71,2,3,0.
72,1,1,-1.0000000000000001e-05
72,2,3,0.
73,1,1,-1.0000000000000001e-05
73,2,3,0.
74,1,1,-1.0000000000000001e-05
74,2,3,0.
75,1,1,-1.0000000000000001e-05
75,2,3,0.
76,1,1,-1.0000000000000001e-05
76,2,3,0.
77,1,1,-1.0000000000000001e-05
77,2,3,0.
78,1,1,-1.0000000000000001e-05
78,2,3,0.
79,1,1,-1.0000000000000001e-05
79,2,3,0.
80,1,1,-1.0000000000000001e-05
80,2,3,0.
81,1,1,-1.0000000000000001e-05
81,2,3,0.
82,1,1,-1.0000000000000001e-05
82,2,3,0.
83,1,1,-1.0000000000000001e-05
83,2,3,0.
84,1,1,-1.0000000000000001e-05
84,2,3,0.
85,1,1,-1.0000000000000001e-05
85,2,3,0.
86,1,1,-1.0000000000000001e-05
86,2,3,0.
87,1,1,-1.0000000000000001e-05
87,2,3,0.
88,1,1,-1.0000000000000001e-05
88,2,3,0.
PRIMARY_X0,11,11,300.
SECONDARY_X2,11,11,400.
*Output, field, frequency=1
*Node Output
U,NT,RF,RFL
*Element Output, directions=YES
S
*Contact Output
CSTRESS,CDISP,CFORCE,HFLA,CTANDIR
*End Step
*Step, name=GAP_17, nlgeom=YES, unsymm=YES, extrapolation=NO
*Coupled Temperature-Displacement
0.025,0.025
*Boundary
1,1,1,0
1,2,3,0.
2,1,1,0
2,2,3,0.
3,1,1,0
3,2,3,0.
4,1,1,0
4,2,3,0.
5,1,1,0
5,2,3,0.
6,1,1,0
6,2,3,0.
7,1,1,0
7,2,3,0.
8,1,1,0
8,2,3,0.
9,1,1,0
9,2,3,0.
10,1,1,0
10,2,3,0.
11,1,1,0
11,2,3,0.
12,1,1,0
12,2,3,0.
13,1,1,0
13,2,3,0.
14,1,1,0
14,2,3,0.
15,1,1,0
15,2,3,0.
16,1,1,0
16,2,3,0.
17,1,1,0
17,2,3,0.
18,1,1,-9.9999999999999995e-08
18,2,3,0.
19,1,1,0
19,2,3,0.
20,1,1,0
20,2,3,0.
21,1,1,0
21,2,3,0.
22,1,1,0
22,2,3,0.
23,1,1,0
23,2,3,0.
24,1,1,0
24,2,3,0.
25,1,1,0
25,2,3,0.
26,1,1,0
26,2,3,0.
27,1,1,0
27,2,3,0.
28,1,1,0
28,2,3,0.
29,1,1,0
29,2,3,0.
30,1,1,0
30,2,3,0.
31,1,1,0
31,2,3,0.
32,1,1,0
32,2,3,0.
33,1,1,0
33,2,3,0.
34,1,1,0
34,2,3,0.
35,1,1,0
35,2,3,0.
36,1,1,0
36,2,3,0.
37,1,1,0
37,2,3,0.
38,1,1,0
38,2,3,0.
39,1,1,0
39,2,3,0.
40,1,1,0
40,2,3,0.
41,1,1,0
41,2,3,0.
42,1,1,0
42,2,3,0.
43,1,1,0
43,2,3,0.
44,1,1,0
44,2,3,0.
45,1,1,0
45,2,3,0.
46,1,1,0
46,2,3,0.
47,1,1,0
47,2,3,0.
48,1,1,0
48,2,3,0.
49,1,1,0
49,2,3,0.
50,1,1,0
50,2,3,0.
51,1,1,0
51,2,3,0.
52,1,1,0
52,2,3,0.
53,1,1,0
53,2,3,0.
54,1,1,0
54,2,3,0.
55,1,1,0
55,2,3,0.
56,1,1,0
56,2,3,0.
57,1,1,-1.0000000000000001e-05
57,2,3,0.
58,1,1,-1.0000000000000001e-05
58,2,3,0.
59,1,1,-1.0000000000000001e-05
59,2,3,0.
60,1,1,-1.0000000000000001e-05
60,2,3,0.
61,1,1,-1.0000000000000001e-05
61,2,3,0.
62,1,1,-1.0000000000000001e-05
62,2,3,0.
63,1,1,-1.0000000000000001e-05
63,2,3,0.
64,1,1,-1.0000000000000001e-05
64,2,3,0.
65,1,1,-1.0000000000000001e-05
65,2,3,0.
66,1,1,-1.0000000000000001e-05
66,2,3,0.
67,1,1,-1.0000000000000001e-05
67,2,3,0.
68,1,1,-1.0000000000000001e-05
68,2,3,0.
69,1,1,-1.0000000000000001e-05
69,2,3,0.
70,1,1,-1.0000000000000001e-05
70,2,3,0.
71,1,1,-1.0000000000000001e-05
71,2,3,0.
72,1,1,-1.0000000000000001e-05
72,2,3,0.
73,1,1,-1.0000000000000001e-05
73,2,3,0.
74,1,1,-1.0000000000000001e-05
74,2,3,0.
75,1,1,-1.0000000000000001e-05
75,2,3,0.
76,1,1,-1.0000000000000001e-05
76,2,3,0.
77,1,1,-1.0000000000000001e-05
77,2,3,0.
78,1,1,-1.0000000000000001e-05
78,2,3,0.
79,1,1,-1.0000000000000001e-05
79,2,3,0.
80,1,1,-1.0000000000000001e-05
80,2,3,0.
81,1,1,-1.0000000000000001e-05
81,2,3,0.
82,1,1,-1.0000000000000001e-05
82,2,3,0.
83,1,1,-1.0000000000000001e-05
83,2,3,0.
84,1,1,-1.0000000000000001e-05
84,2,3,0.
85,1,1,-1.0000000000000001e-05
85,2,3,0.
86,1,1,-1.0000000000000001e-05
86,2,3,0.
87,1,1,-1.0000000000000001e-05
87,2,3,0.
88,1,1,-1.0000000000000001e-05
88,2,3,0.
PRIMARY_X0,11,11,300.
SECONDARY_X2,11,11,400.
*Output, field, frequency=1
*Node Output
U,NT,RF,RFL
*Element Output, directions=YES
S
*Contact Output
CSTRESS,CDISP,CFORCE,HFLA,CTANDIR
*End Step
*Step, name=GAP_18, nlgeom=YES, unsymm=YES, extrapolation=NO
*Coupled Temperature-Displacement
0.025,0.025
*Boundary
1,1,1,0
1,2,3,0.
2,1,1,0
2,2,3,0.
3,1,1,0
3,2,3,0.
4,1,1,0
4,2,3,0.
5,1,1,0
5,2,3,0.
6,1,1,0
6,2,3,0.
7,1,1,0
7,2,3,0.
8,1,1,0
8,2,3,0.
9,1,1,0
9,2,3,0.
10,1,1,0
10,2,3,0.
11,1,1,0
11,2,3,0.
12,1,1,0
12,2,3,0.
13,1,1,0
13,2,3,0.
14,1,1,0
14,2,3,0.
15,1,1,0
15,2,3,0.
16,1,1,0
16,2,3,0.
17,1,1,0
17,2,3,0.
18,1,1,0
18,2,3,0.
19,1,1,0
19,2,3,0.
20,1,1,0
20,2,3,0.
21,1,1,9.9999999999999995e-08
21,2,3,0.
22,1,1,0
22,2,3,0.
23,1,1,0
23,2,3,0.
24,1,1,0
24,2,3,0.
25,1,1,0
25,2,3,0.
26,1,1,0
26,2,3,0.
27,1,1,0
27,2,3,0.
28,1,1,0
28,2,3,0.
29,1,1,0
29,2,3,0.
30,1,1,0
30,2,3,0.
31,1,1,0
31,2,3,0.
32,1,1,0
32,2,3,0.
33,1,1,0
33,2,3,0.
34,1,1,0
34,2,3,0.
35,1,1,0
35,2,3,0.
36,1,1,0
36,2,3,0.
37,1,1,0
37,2,3,0.
38,1,1,0
38,2,3,0.
39,1,1,0
39,2,3,0.
40,1,1,0
40,2,3,0.
41,1,1,0
41,2,3,0.
42,1,1,0
42,2,3,0.
43,1,1,0
43,2,3,0.
44,1,1,0
44,2,3,0.
45,1,1,0
45,2,3,0.
46,1,1,0
46,2,3,0.
47,1,1,0
47,2,3,0.
48,1,1,0
48,2,3,0.
49,1,1,0
49,2,3,0.
50,1,1,0
50,2,3,0.
51,1,1,0
51,2,3,0.
52,1,1,0
52,2,3,0.
53,1,1,0
53,2,3,0.
54,1,1,0
54,2,3,0.
55,1,1,0
55,2,3,0.
56,1,1,0
56,2,3,0.
57,1,1,-1.0000000000000001e-05
57,2,3,0.
58,1,1,-1.0000000000000001e-05
58,2,3,0.
59,1,1,-1.0000000000000001e-05
59,2,3,0.
60,1,1,-1.0000000000000001e-05
60,2,3,0.
61,1,1,-1.0000000000000001e-05
61,2,3,0.
62,1,1,-1.0000000000000001e-05
62,2,3,0.
63,1,1,-1.0000000000000001e-05
63,2,3,0.
64,1,1,-1.0000000000000001e-05
64,2,3,0.
65,1,1,-1.0000000000000001e-05
65,2,3,0.
66,1,1,-1.0000000000000001e-05
66,2,3,0.
67,1,1,-1.0000000000000001e-05
67,2,3,0.
68,1,1,-1.0000000000000001e-05
68,2,3,0.
69,1,1,-1.0000000000000001e-05
69,2,3,0.
70,1,1,-1.0000000000000001e-05
70,2,3,0.
71,1,1,-1.0000000000000001e-05
71,2,3,0.
72,1,1,-1.0000000000000001e-05
72,2,3,0.
73,1,1,-1.0000000000000001e-05
73,2,3,0.
74,1,1,-1.0000000000000001e-05
74,2,3,0.
75,1,1,-1.0000000000000001e-05
75,2,3,0.
76,1,1,-1.0000000000000001e-05
76,2,3,0.
77,1,1,-1.0000000000000001e-05
77,2,3,0.
78,1,1,-1.0000000000000001e-05
78,2,3,0.
79,1,1,-1.0000000000000001e-05
79,2,3,0.
80,1,1,-1.0000000000000001e-05
80,2,3,0.
81,1,1,-1.0000000000000001e-05
81,2,3,0.
82,1,1,-1.0000000000000001e-05
82,2,3,0.
83,1,1,-1.0000000000000001e-05
83,2,3,0.
84,1,1,-1.0000000000000001e-05
84,2,3,0.
85,1,1,-1.0000000000000001e-05
85,2,3,0.
86,1,1,-1.0000000000000001e-05
86,2,3,0.
87,1,1,-1.0000000000000001e-05
87,2,3,0.
88,1,1,-1.0000000000000001e-05
88,2,3,0.
PRIMARY_X0,11,11,300.
SECONDARY_X2,11,11,400.
*Output, field, frequency=1
*Node Output
U,NT,RF,RFL
*Element Output, directions=YES
S
*Contact Output
CSTRESS,CDISP,CFORCE,HFLA,CTANDIR
*End Step
*Step, name=GAP_19, nlgeom=YES, unsymm=YES, extrapolation=NO
*Coupled Temperature-Displacement
0.025,0.025
*Boundary
1,1,1,0
1,2,3,0.
2,1,1,0
2,2,3,0.
3,1,1,0
3,2,3,0.
4,1,1,0
4,2,3,0.
5,1,1,0
5,2,3,0.
6,1,1,0
6,2,3,0.
7,1,1,0
7,2,3,0.
8,1,1,0
8,2,3,0.
9,1,1,0
9,2,3,0.
10,1,1,0
10,2,3,0.
11,1,1,0
11,2,3,0.
12,1,1,0
12,2,3,0.
13,1,1,0
13,2,3,0.
14,1,1,0
14,2,3,0.
15,1,1,0
15,2,3,0.
16,1,1,0
16,2,3,0.
17,1,1,0
17,2,3,0.
18,1,1,0
18,2,3,0.
19,1,1,0
19,2,3,0.
20,1,1,0
20,2,3,0.
21,1,1,-9.9999999999999995e-08
21,2,3,0.
22,1,1,0
22,2,3,0.
23,1,1,0
23,2,3,0.
24,1,1,0
24,2,3,0.
25,1,1,0
25,2,3,0.
26,1,1,0
26,2,3,0.
27,1,1,0
27,2,3,0.
28,1,1,0
28,2,3,0.
29,1,1,0
29,2,3,0.
30,1,1,0
30,2,3,0.
31,1,1,0
31,2,3,0.
32,1,1,0
32,2,3,0.
33,1,1,0
33,2,3,0.
34,1,1,0
34,2,3,0.
35,1,1,0
35,2,3,0.
36,1,1,0
36,2,3,0.
37,1,1,0
37,2,3,0.
38,1,1,0
38,2,3,0.
39,1,1,0
39,2,3,0.
40,1,1,0
40,2,3,0.
41,1,1,0
41,2,3,0.
42,1,1,0
42,2,3,0.
43,1,1,0
43,2,3,0.
44,1,1,0
44,2,3,0.
45,1,1,0
45,2,3,0.
46,1,1,0
46,2,3,0.
47,1,1,0
47,2,3,0.
48,1,1,0
48,2,3,0.
49,1,1,0
49,2,3,0.
50,1,1,0
50,2,3,0.
51,1,1,0
51,2,3,0.
52,1,1,0
52,2,3,0.
53,1,1,0
53,2,3,0.
54,1,1,0
54,2,3,0.
55,1,1,0
55,2,3,0.
56,1,1,0
56,2,3,0.
57,1,1,-1.0000000000000001e-05
57,2,3,0.
58,1,1,-1.0000000000000001e-05
58,2,3,0.
59,1,1,-1.0000000000000001e-05
59,2,3,0.
60,1,1,-1.0000000000000001e-05
60,2,3,0.
61,1,1,-1.0000000000000001e-05
61,2,3,0.
62,1,1,-1.0000000000000001e-05
62,2,3,0.
63,1,1,-1.0000000000000001e-05
63,2,3,0.
64,1,1,-1.0000000000000001e-05
64,2,3,0.
65,1,1,-1.0000000000000001e-05
65,2,3,0.
66,1,1,-1.0000000000000001e-05
66,2,3,0.
67,1,1,-1.0000000000000001e-05
67,2,3,0.
68,1,1,-1.0000000000000001e-05
68,2,3,0.
69,1,1,-1.0000000000000001e-05
69,2,3,0.
70,1,1,-1.0000000000000001e-05
70,2,3,0.
71,1,1,-1.0000000000000001e-05
71,2,3,0.
72,1,1,-1.0000000000000001e-05
72,2,3,0.
73,1,1,-1.0000000000000001e-05
73,2,3,0.
74,1,1,-1.0000000000000001e-05
74,2,3,0.
75,1,1,-1.0000000000000001e-05
75,2,3,0.
76,1,1,-1.0000000000000001e-05
76,2,3,0.
77,1,1,-1.0000000000000001e-05
77,2,3,0.
78,1,1,-1.0000000000000001e-05
78,2,3,0.
79,1,1,-1.0000000000000001e-05
79,2,3,0.
80,1,1,-1.0000000000000001e-05
80,2,3,0.
81,1,1,-1.0000000000000001e-05
81,2,3,0.
82,1,1,-1.0000000000000001e-05
82,2,3,0.
83,1,1,-1.0000000000000001e-05
83,2,3,0.
84,1,1,-1.0000000000000001e-05
84,2,3,0.
85,1,1,-1.0000000000000001e-05
85,2,3,0.
86,1,1,-1.0000000000000001e-05
86,2,3,0.
87,1,1,-1.0000000000000001e-05
87,2,3,0.
88,1,1,-1.0000000000000001e-05
88,2,3,0.
PRIMARY_X0,11,11,300.
SECONDARY_X2,11,11,400.
*Output, field, frequency=1
*Node Output
U,NT,RF,RFL
*Element Output, directions=YES
S
*Contact Output
CSTRESS,CDISP,CFORCE,HFLA,CTANDIR
*End Step
*Step, name=GAP_20, nlgeom=YES, unsymm=YES, extrapolation=NO
*Coupled Temperature-Displacement
0.025,0.025
*Boundary
1,1,1,0
1,2,3,0.
2,1,1,0
2,2,3,0.
3,1,1,0
3,2,3,0.
4,1,1,0
4,2,3,0.
5,1,1,0
5,2,3,0.
6,1,1,0
6,2,3,0.
7,1,1,0
7,2,3,0.
8,1,1,0
8,2,3,0.
9,1,1,0
9,2,3,0.
10,1,1,0
10,2,3,0.
11,1,1,0
11,2,3,0.
12,1,1,0
12,2,3,0.
13,1,1,0
13,2,3,0.
14,1,1,0
14,2,3,0.
15,1,1,0
15,2,3,0.
16,1,1,0
16,2,3,0.
17,1,1,0
17,2,3,0.
18,1,1,0
18,2,3,0.
19,1,1,0
19,2,3,0.
20,1,1,0
20,2,3,0.
21,1,1,0
21,2,3,0.
22,1,1,0
22,2,3,0.
23,1,1,9.9999999999999995e-08
23,2,3,0.
24,1,1,0
24,2,3,0.
25,1,1,0
25,2,3,0.
26,1,1,0
26,2,3,0.
27,1,1,0
27,2,3,0.
28,1,1,0
28,2,3,0.
29,1,1,0
29,2,3,0.
30,1,1,0
30,2,3,0.
31,1,1,0
31,2,3,0.
32,1,1,0
32,2,3,0.
33,1,1,0
33,2,3,0.
34,1,1,0
34,2,3,0.
35,1,1,0
35,2,3,0.
36,1,1,0
36,2,3,0.
37,1,1,0
37,2,3,0.
38,1,1,0
38,2,3,0.
39,1,1,0
39,2,3,0.
40,1,1,0
40,2,3,0.
41,1,1,0
41,2,3,0.
42,1,1,0
42,2,3,0.
43,1,1,0
43,2,3,0.
44,1,1,0
44,2,3,0.
45,1,1,0
45,2,3,0.
46,1,1,0
46,2,3,0.
47,1,1,0
47,2,3,0.
48,1,1,0
48,2,3,0.
49,1,1,0
49,2,3,0.
50,1,1,0
50,2,3,0.
51,1,1,0
51,2,3,0.
52,1,1,0
52,2,3,0.
53,1,1,0
53,2,3,0.
54,1,1,0
54,2,3,0.
55,1,1,0
55,2,3,0.
56,1,1,0
56,2,3,0.
57,1,1,-1.0000000000000001e-05
57,2,3,0.
58,1,1,-1.0000000000000001e-05
58,2,3,0.
59,1,1,-1.0000000000000001e-05
59,2,3,0.
60,1,1,-1.0000000000000001e-05
60,2,3,0.
61,1,1,-1.0000000000000001e-05
61,2,3,0.
62,1,1,-1.0000000000000001e-05
62,2,3,0.
63,1,1,-1.0000000000000001e-05
63,2,3,0.
64,1,1,-1.0000000000000001e-05
64,2,3,0.
65,1,1,-1.0000000000000001e-05
65,2,3,0.
66,1,1,-1.0000000000000001e-05
66,2,3,0.
67,1,1,-1.0000000000000001e-05
67,2,3,0.
68,1,1,-1.0000000000000001e-05
68,2,3,0.
69,1,1,-1.0000000000000001e-05
69,2,3,0.
70,1,1,-1.0000000000000001e-05
70,2,3,0.
71,1,1,-1.0000000000000001e-05
71,2,3,0.
72,1,1,-1.0000000000000001e-05
72,2,3,0.
73,1,1,-1.0000000000000001e-05
73,2,3,0.
74,1,1,-1.0000000000000001e-05
74,2,3,0.
75,1,1,-1.0000000000000001e-05
75,2,3,0.
76,1,1,-1.0000000000000001e-05
76,2,3,0.
77,1,1,-1.0000000000000001e-05
77,2,3,0.
78,1,1,-1.0000000000000001e-05
78,2,3,0.
79,1,1,-1.0000000000000001e-05
79,2,3,0.
80,1,1,-1.0000000000000001e-05
80,2,3,0.
81,1,1,-1.0000000000000001e-05
81,2,3,0.
82,1,1,-1.0000000000000001e-05
82,2,3,0.
83,1,1,-1.0000000000000001e-05
83,2,3,0.
84,1,1,-1.0000000000000001e-05
84,2,3,0.
85,1,1,-1.0000000000000001e-05
85,2,3,0.
86,1,1,-1.0000000000000001e-05
86,2,3,0.
87,1,1,-1.0000000000000001e-05
87,2,3,0.
88,1,1,-1.0000000000000001e-05
88,2,3,0.
PRIMARY_X0,11,11,300.
SECONDARY_X2,11,11,400.
*Output, field, frequency=1
*Node Output
U,NT,RF,RFL
*Element Output, directions=YES
S
*Contact Output
CSTRESS,CDISP,CFORCE,HFLA,CTANDIR
*End Step
*Step, name=GAP_21, nlgeom=YES, unsymm=YES, extrapolation=NO
*Coupled Temperature-Displacement
0.025,0.025
*Boundary
1,1,1,0
1,2,3,0.
2,1,1,0
2,2,3,0.
3,1,1,0
3,2,3,0.
4,1,1,0
4,2,3,0.
5,1,1,0
5,2,3,0.
6,1,1,0
6,2,3,0.
7,1,1,0
7,2,3,0.
8,1,1,0
8,2,3,0.
9,1,1,0
9,2,3,0.
10,1,1,0
10,2,3,0.
11,1,1,0
11,2,3,0.
12,1,1,0
12,2,3,0.
13,1,1,0
13,2,3,0.
14,1,1,0
14,2,3,0.
15,1,1,0
15,2,3,0.
16,1,1,0
16,2,3,0.
17,1,1,0
17,2,3,0.
18,1,1,0
18,2,3,0.
19,1,1,0
19,2,3,0.
20,1,1,0
20,2,3,0.
21,1,1,0
21,2,3,0.
22,1,1,0
22,2,3,0.
23,1,1,-9.9999999999999995e-08
23,2,3,0.
24,1,1,0
24,2,3,0.
25,1,1,0
25,2,3,0.
26,1,1,0
26,2,3,0.
27,1,1,0
27,2,3,0.
28,1,1,0
28,2,3,0.
29,1,1,0
29,2,3,0.
30,1,1,0
30,2,3,0.
31,1,1,0
31,2,3,0.
32,1,1,0
32,2,3,0.
33,1,1,0
33,2,3,0.
34,1,1,0
34,2,3,0.
35,1,1,0
35,2,3,0.
36,1,1,0
36,2,3,0.
37,1,1,0
37,2,3,0.
38,1,1,0
38,2,3,0.
39,1,1,0
39,2,3,0.
40,1,1,0
40,2,3,0.
41,1,1,0
41,2,3,0.
42,1,1,0
42,2,3,0.
43,1,1,0
43,2,3,0.
44,1,1,0
44,2,3,0.
45,1,1,0
45,2,3,0.
46,1,1,0
46,2,3,0.
47,1,1,0
47,2,3,0.
48,1,1,0
48,2,3,0.
49,1,1,0
49,2,3,0.
50,1,1,0
50,2,3,0.
51,1,1,0
51,2,3,0.
52,1,1,0
52,2,3,0.
53,1,1,0
53,2,3,0.
54,1,1,0
54,2,3,0.
55,1,1,0
55,2,3,0.
56,1,1,0
56,2,3,0.
57,1,1,-1.0000000000000001e-05
57,2,3,0.
58,1,1,-1.0000000000000001e-05
58,2,3,0.
59,1,1,-1.0000000000000001e-05
59,2,3,0.
60,1,1,-1.0000000000000001e-05
60,2,3,0.
61,1,1,-1.0000000000000001e-05
61,2,3,0.
62,1,1,-1.0000000000000001e-05
62,2,3,0.
63,1,1,-1.0000000000000001e-05
63,2,3,0.
64,1,1,-1.0000000000000001e-05
64,2,3,0.
65,1,1,-1.0000000000000001e-05
65,2,3,0.
66,1,1,-1.0000000000000001e-05
66,2,3,0.
67,1,1,-1.0000000000000001e-05
67,2,3,0.
68,1,1,-1.0000000000000001e-05
68,2,3,0.
69,1,1,-1.0000000000000001e-05
69,2,3,0.
70,1,1,-1.0000000000000001e-05
70,2,3,0.
71,1,1,-1.0000000000000001e-05
71,2,3,0.
72,1,1,-1.0000000000000001e-05
72,2,3,0.
73,1,1,-1.0000000000000001e-05
73,2,3,0.
74,1,1,-1.0000000000000001e-05
74,2,3,0.
75,1,1,-1.0000000000000001e-05
75,2,3,0.
76,1,1,-1.0000000000000001e-05
76,2,3,0.
77,1,1,-1.0000000000000001e-05
77,2,3,0.
78,1,1,-1.0000000000000001e-05
78,2,3,0.
79,1,1,-1.0000000000000001e-05
79,2,3,0.
80,1,1,-1.0000000000000001e-05
80,2,3,0.
81,1,1,-1.0000000000000001e-05
81,2,3,0.
82,1,1,-1.0000000000000001e-05
82,2,3,0.
83,1,1,-1.0000000000000001e-05
83,2,3,0.
84,1,1,-1.0000000000000001e-05
84,2,3,0.
85,1,1,-1.0000000000000001e-05
85,2,3,0.
86,1,1,-1.0000000000000001e-05
86,2,3,0.
87,1,1,-1.0000000000000001e-05
87,2,3,0.
88,1,1,-1.0000000000000001e-05
88,2,3,0.
PRIMARY_X0,11,11,300.
SECONDARY_X2,11,11,400.
*Output, field, frequency=1
*Node Output
U,NT,RF,RFL
*Element Output, directions=YES
S
*Contact Output
CSTRESS,CDISP,CFORCE,HFLA,CTANDIR
*End Step
*Step, name=GAP_22, nlgeom=YES, unsymm=YES, extrapolation=NO
*Coupled Temperature-Displacement
0.025,0.025
*Boundary
1,1,1,0
1,2,3,0.
2,1,1,0
2,2,3,0.
3,1,1,0
3,2,3,0.
4,1,1,0
4,2,3,0.
5,1,1,0
5,2,3,0.
6,1,1,0
6,2,3,0.
7,1,1,0
7,2,3,0.
8,1,1,0
8,2,3,0.
9,1,1,0
9,2,3,0.
10,1,1,0
10,2,3,0.
11,1,1,0
11,2,3,0.
12,1,1,0
12,2,3,0.
13,1,1,0
13,2,3,0.
14,1,1,0
14,2,3,0.
15,1,1,0
15,2,3,0.
16,1,1,0
16,2,3,0.
17,1,1,0
17,2,3,0.
18,1,1,0
18,2,3,0.
19,1,1,0
19,2,3,0.
20,1,1,0
20,2,3,0.
21,1,1,0
21,2,3,0.
22,1,1,0
22,2,3,0.
23,1,1,0
23,2,3,0.
24,1,1,0
24,2,3,0.
25,1,1,9.9999999999999995e-08
25,2,3,0.
26,1,1,0
26,2,3,0.
27,1,1,0
27,2,3,0.
28,1,1,0
28,2,3,0.
29,1,1,0
29,2,3,0.
30,1,1,0
30,2,3,0.
31,1,1,0
31,2,3,0.
32,1,1,0
32,2,3,0.
33,1,1,0
33,2,3,0.
34,1,1,0
34,2,3,0.
35,1,1,0
35,2,3,0.
36,1,1,0
36,2,3,0.
37,1,1,0
37,2,3,0.
38,1,1,0
38,2,3,0.
39,1,1,0
39,2,3,0.
40,1,1,0
40,2,3,0.
41,1,1,0
41,2,3,0.
42,1,1,0
42,2,3,0.
43,1,1,0
43,2,3,0.
44,1,1,0
44,2,3,0.
45,1,1,0
45,2,3,0.
46,1,1,0
46,2,3,0.
47,1,1,0
47,2,3,0.
48,1,1,0
48,2,3,0.
49,1,1,0
49,2,3,0.
50,1,1,0
50,2,3,0.
51,1,1,0
51,2,3,0.
52,1,1,0
52,2,3,0.
53,1,1,0
53,2,3,0.
54,1,1,0
54,2,3,0.
55,1,1,0
55,2,3,0.
56,1,1,0
56,2,3,0.
57,1,1,-1.0000000000000001e-05
57,2,3,0.
58,1,1,-1.0000000000000001e-05
58,2,3,0.
59,1,1,-1.0000000000000001e-05
59,2,3,0.
60,1,1,-1.0000000000000001e-05
60,2,3,0.
61,1,1,-1.0000000000000001e-05
61,2,3,0.
62,1,1,-1.0000000000000001e-05
62,2,3,0.
63,1,1,-1.0000000000000001e-05
63,2,3,0.
64,1,1,-1.0000000000000001e-05
64,2,3,0.
65,1,1,-1.0000000000000001e-05
65,2,3,0.
66,1,1,-1.0000000000000001e-05
66,2,3,0.
67,1,1,-1.0000000000000001e-05
67,2,3,0.
68,1,1,-1.0000000000000001e-05
68,2,3,0.
69,1,1,-1.0000000000000001e-05
69,2,3,0.
70,1,1,-1.0000000000000001e-05
70,2,3,0.
71,1,1,-1.0000000000000001e-05
71,2,3,0.
72,1,1,-1.0000000000000001e-05
72,2,3,0.
73,1,1,-1.0000000000000001e-05
73,2,3,0.
74,1,1,-1.0000000000000001e-05
74,2,3,0.
75,1,1,-1.0000000000000001e-05
75,2,3,0.
76,1,1,-1.0000000000000001e-05
76,2,3,0.
77,1,1,-1.0000000000000001e-05
77,2,3,0.
78,1,1,-1.0000000000000001e-05
78,2,3,0.
79,1,1,-1.0000000000000001e-05
79,2,3,0.
80,1,1,-1.0000000000000001e-05
80,2,3,0.
81,1,1,-1.0000000000000001e-05
81,2,3,0.
82,1,1,-1.0000000000000001e-05
82,2,3,0.
83,1,1,-1.0000000000000001e-05
83,2,3,0.
84,1,1,-1.0000000000000001e-05
84,2,3,0.
85,1,1,-1.0000000000000001e-05
85,2,3,0.
86,1,1,-1.0000000000000001e-05
86,2,3,0.
87,1,1,-1.0000000000000001e-05
87,2,3,0.
88,1,1,-1.0000000000000001e-05
88,2,3,0.
PRIMARY_X0,11,11,300.
SECONDARY_X2,11,11,400.
*Output, field, frequency=1
*Node Output
U,NT,RF,RFL
*Element Output, directions=YES
S
*Contact Output
CSTRESS,CDISP,CFORCE,HFLA,CTANDIR
*End Step
*Step, name=GAP_23, nlgeom=YES, unsymm=YES, extrapolation=NO
*Coupled Temperature-Displacement
0.025,0.025
*Boundary
1,1,1,0
1,2,3,0.
2,1,1,0
2,2,3,0.
3,1,1,0
3,2,3,0.
4,1,1,0
4,2,3,0.
5,1,1,0
5,2,3,0.
6,1,1,0
6,2,3,0.
7,1,1,0
7,2,3,0.
8,1,1,0
8,2,3,0.
9,1,1,0
9,2,3,0.
10,1,1,0
10,2,3,0.
11,1,1,0
11,2,3,0.
12,1,1,0
12,2,3,0.
13,1,1,0
13,2,3,0.
14,1,1,0
14,2,3,0.
15,1,1,0
15,2,3,0.
16,1,1,0
16,2,3,0.
17,1,1,0
17,2,3,0.
18,1,1,0
18,2,3,0.
19,1,1,0
19,2,3,0.
20,1,1,0
20,2,3,0.
21,1,1,0
21,2,3,0.
22,1,1,0
22,2,3,0.
23,1,1,0
23,2,3,0.
24,1,1,0
24,2,3,0.
25,1,1,-9.9999999999999995e-08
25,2,3,0.
26,1,1,0
26,2,3,0.
27,1,1,0
27,2,3,0.
28,1,1,0
28,2,3,0.
29,1,1,0
29,2,3,0.
30,1,1,0
30,2,3,0.
31,1,1,0
31,2,3,0.
32,1,1,0
32,2,3,0.
33,1,1,0
33,2,3,0.
34,1,1,0
34,2,3,0.
35,1,1,0
35,2,3,0.
36,1,1,0
36,2,3,0.
37,1,1,0
37,2,3,0.
38,1,1,0
38,2,3,0.
39,1,1,0
39,2,3,0.
40,1,1,0
40,2,3,0.
41,1,1,0
41,2,3,0.
42,1,1,0
42,2,3,0.
43,1,1,0
43,2,3,0.
44,1,1,0
44,2,3,0.
45,1,1,0
45,2,3,0.
46,1,1,0
46,2,3,0.
47,1,1,0
47,2,3,0.
48,1,1,0
48,2,3,0.
49,1,1,0
49,2,3,0.
50,1,1,0
50,2,3,0.
51,1,1,0
51,2,3,0.
52,1,1,0
52,2,3,0.
53,1,1,0
53,2,3,0.
54,1,1,0
54,2,3,0.
55,1,1,0
55,2,3,0.
56,1,1,0
56,2,3,0.
57,1,1,-1.0000000000000001e-05
57,2,3,0.
58,1,1,-1.0000000000000001e-05
58,2,3,0.
59,1,1,-1.0000000000000001e-05
59,2,3,0.
60,1,1,-1.0000000000000001e-05
60,2,3,0.
61,1,1,-1.0000000000000001e-05
61,2,3,0.
62,1,1,-1.0000000000000001e-05
62,2,3,0.
63,1,1,-1.0000000000000001e-05
63,2,3,0.
64,1,1,-1.0000000000000001e-05
64,2,3,0.
65,1,1,-1.0000000000000001e-05
65,2,3,0.
66,1,1,-1.0000000000000001e-05
66,2,3,0.
67,1,1,-1.0000000000000001e-05
67,2,3,0.
68,1,1,-1.0000000000000001e-05
68,2,3,0.
69,1,1,-1.0000000000000001e-05
69,2,3,0.
70,1,1,-1.0000000000000001e-05
70,2,3,0.
71,1,1,-1.0000000000000001e-05
71,2,3,0.
72,1,1,-1.0000000000000001e-05
72,2,3,0.
73,1,1,-1.0000000000000001e-05
73,2,3,0.
74,1,1,-1.0000000000000001e-05
74,2,3,0.
75,1,1,-1.0000000000000001e-05
75,2,3,0.
76,1,1,-1.0000000000000001e-05
76,2,3,0.
77,1,1,-1.0000000000000001e-05
77,2,3,0.
78,1,1,-1.0000000000000001e-05
78,2,3,0.
79,1,1,-1.0000000000000001e-05
79,2,3,0.
80,1,1,-1.0000000000000001e-05
80,2,3,0.
81,1,1,-1.0000000000000001e-05
81,2,3,0.
82,1,1,-1.0000000000000001e-05
82,2,3,0.
83,1,1,-1.0000000000000001e-05
83,2,3,0.
84,1,1,-1.0000000000000001e-05
84,2,3,0.
85,1,1,-1.0000000000000001e-05
85,2,3,0.
86,1,1,-1.0000000000000001e-05
86,2,3,0.
87,1,1,-1.0000000000000001e-05
87,2,3,0.
88,1,1,-1.0000000000000001e-05
88,2,3,0.
PRIMARY_X0,11,11,300.
SECONDARY_X2,11,11,400.
*Output, field, frequency=1
*Node Output
U,NT,RF,RFL
*Element Output, directions=YES
S
*Contact Output
CSTRESS,CDISP,CFORCE,HFLA,CTANDIR
*End Step
*Step, name=GAP_24, nlgeom=YES, unsymm=YES, extrapolation=NO
*Coupled Temperature-Displacement
0.025,0.025
*Boundary
1,1,1,0
1,2,3,0.
2,1,1,0
2,2,3,0.
3,1,1,0
3,2,3,0.
4,1,1,0
4,2,3,0.
5,1,1,0
5,2,3,0.
6,1,1,0
6,2,3,0.
7,1,1,0
7,2,3,0.
8,1,1,0
8,2,3,0.
9,1,1,0
9,2,3,0.
10,1,1,0
10,2,3,0.
11,1,1,0
11,2,3,0.
12,1,1,0
12,2,3,0.
13,1,1,0
13,2,3,0.
14,1,1,0
14,2,3,0.
15,1,1,0
15,2,3,0.
16,1,1,0
16,2,3,0.
17,1,1,0
17,2,3,0.
18,1,1,0
18,2,3,0.
19,1,1,0
19,2,3,0.
20,1,1,0
20,2,3,0.
21,1,1,0
21,2,3,0.
22,1,1,0
22,2,3,0.
23,1,1,0
23,2,3,0.
24,1,1,0
24,2,3,0.
25,1,1,0
25,2,3,0.
26,1,1,0
26,2,3,0.
27,1,1,0
27,2,3,0.
28,1,1,9.9999999999999995e-08
28,2,3,0.
29,1,1,0
29,2,3,0.
30,1,1,0
30,2,3,0.
31,1,1,0
31,2,3,0.
32,1,1,0
32,2,3,0.
33,1,1,0
33,2,3,0.
34,1,1,0
34,2,3,0.
35,1,1,0
35,2,3,0.
36,1,1,0
36,2,3,0.
37,1,1,0
37,2,3,0.
38,1,1,0
38,2,3,0.
39,1,1,0
39,2,3,0.
40,1,1,0
40,2,3,0.
41,1,1,0
41,2,3,0.
42,1,1,0
42,2,3,0.
43,1,1,0
43,2,3,0.
44,1,1,0
44,2,3,0.
45,1,1,0
45,2,3,0.
46,1,1,0
46,2,3,0.
47,1,1,0
47,2,3,0.
48,1,1,0
48,2,3,0.
49,1,1,0
49,2,3,0.
50,1,1,0
50,2,3,0.
51,1,1,0
51,2,3,0.
52,1,1,0
52,2,3,0.
53,1,1,0
53,2,3,0.
54,1,1,0
54,2,3,0.
55,1,1,0
55,2,3,0.
56,1,1,0
56,2,3,0.
57,1,1,-1.0000000000000001e-05
57,2,3,0.
58,1,1,-1.0000000000000001e-05
58,2,3,0.
59,1,1,-1.0000000000000001e-05
59,2,3,0.
60,1,1,-1.0000000000000001e-05
60,2,3,0.
61,1,1,-1.0000000000000001e-05
61,2,3,0.
62,1,1,-1.0000000000000001e-05
62,2,3,0.
63,1,1,-1.0000000000000001e-05
63,2,3,0.
64,1,1,-1.0000000000000001e-05
64,2,3,0.
65,1,1,-1.0000000000000001e-05
65,2,3,0.
66,1,1,-1.0000000000000001e-05
66,2,3,0.
67,1,1,-1.0000000000000001e-05
67,2,3,0.
68,1,1,-1.0000000000000001e-05
68,2,3,0.
69,1,1,-1.0000000000000001e-05
69,2,3,0.
70,1,1,-1.0000000000000001e-05
70,2,3,0.
71,1,1,-1.0000000000000001e-05
71,2,3,0.
72,1,1,-1.0000000000000001e-05
72,2,3,0.
73,1,1,-1.0000000000000001e-05
73,2,3,0.
74,1,1,-1.0000000000000001e-05
74,2,3,0.
75,1,1,-1.0000000000000001e-05
75,2,3,0.
76,1,1,-1.0000000000000001e-05
76,2,3,0.
77,1,1,-1.0000000000000001e-05
77,2,3,0.
78,1,1,-1.0000000000000001e-05
78,2,3,0.
79,1,1,-1.0000000000000001e-05
79,2,3,0.
80,1,1,-1.0000000000000001e-05
80,2,3,0.
81,1,1,-1.0000000000000001e-05
81,2,3,0.
82,1,1,-1.0000000000000001e-05
82,2,3,0.
83,1,1,-1.0000000000000001e-05
83,2,3,0.
84,1,1,-1.0000000000000001e-05
84,2,3,0.
85,1,1,-1.0000000000000001e-05
85,2,3,0.
86,1,1,-1.0000000000000001e-05
86,2,3,0.
87,1,1,-1.0000000000000001e-05
87,2,3,0.
88,1,1,-1.0000000000000001e-05
88,2,3,0.
PRIMARY_X0,11,11,300.
SECONDARY_X2,11,11,400.
*Output, field, frequency=1
*Node Output
U,NT,RF,RFL
*Element Output, directions=YES
S
*Contact Output
CSTRESS,CDISP,CFORCE,HFLA,CTANDIR
*End Step
*Step, name=GAP_25, nlgeom=YES, unsymm=YES, extrapolation=NO
*Coupled Temperature-Displacement
0.025,0.025
*Boundary
1,1,1,0
1,2,3,0.
2,1,1,0
2,2,3,0.
3,1,1,0
3,2,3,0.
4,1,1,0
4,2,3,0.
5,1,1,0
5,2,3,0.
6,1,1,0
6,2,3,0.
7,1,1,0
7,2,3,0.
8,1,1,0
8,2,3,0.
9,1,1,0
9,2,3,0.
10,1,1,0
10,2,3,0.
11,1,1,0
11,2,3,0.
12,1,1,0
12,2,3,0.
13,1,1,0
13,2,3,0.
14,1,1,0
14,2,3,0.
15,1,1,0
15,2,3,0.
16,1,1,0
16,2,3,0.
17,1,1,0
17,2,3,0.
18,1,1,0
18,2,3,0.
19,1,1,0
19,2,3,0.
20,1,1,0
20,2,3,0.
21,1,1,0
21,2,3,0.
22,1,1,0
22,2,3,0.
23,1,1,0
23,2,3,0.
24,1,1,0
24,2,3,0.
25,1,1,0
25,2,3,0.
26,1,1,0
26,2,3,0.
27,1,1,0
27,2,3,0.
28,1,1,-9.9999999999999995e-08
28,2,3,0.
29,1,1,0
29,2,3,0.
30,1,1,0
30,2,3,0.
31,1,1,0
31,2,3,0.
32,1,1,0
32,2,3,0.
33,1,1,0
33,2,3,0.
34,1,1,0
34,2,3,0.
35,1,1,0
35,2,3,0.
36,1,1,0
36,2,3,0.
37,1,1,0
37,2,3,0.
38,1,1,0
38,2,3,0.
39,1,1,0
39,2,3,0.
40,1,1,0
40,2,3,0.
41,1,1,0
41,2,3,0.
42,1,1,0
42,2,3,0.
43,1,1,0
43,2,3,0.
44,1,1,0
44,2,3,0.
45,1,1,0
45,2,3,0.
46,1,1,0
46,2,3,0.
47,1,1,0
47,2,3,0.
48,1,1,0
48,2,3,0.
49,1,1,0
49,2,3,0.
50,1,1,0
50,2,3,0.
51,1,1,0
51,2,3,0.
52,1,1,0
52,2,3,0.
53,1,1,0
53,2,3,0.
54,1,1,0
54,2,3,0.
55,1,1,0
55,2,3,0.
56,1,1,0
56,2,3,0.
57,1,1,-1.0000000000000001e-05
57,2,3,0.
58,1,1,-1.0000000000000001e-05
58,2,3,0.
59,1,1,-1.0000000000000001e-05
59,2,3,0.
60,1,1,-1.0000000000000001e-05
60,2,3,0.
61,1,1,-1.0000000000000001e-05
61,2,3,0.
62,1,1,-1.0000000000000001e-05
62,2,3,0.
63,1,1,-1.0000000000000001e-05
63,2,3,0.
64,1,1,-1.0000000000000001e-05
64,2,3,0.
65,1,1,-1.0000000000000001e-05
65,2,3,0.
66,1,1,-1.0000000000000001e-05
66,2,3,0.
67,1,1,-1.0000000000000001e-05
67,2,3,0.
68,1,1,-1.0000000000000001e-05
68,2,3,0.
69,1,1,-1.0000000000000001e-05
69,2,3,0.
70,1,1,-1.0000000000000001e-05
70,2,3,0.
71,1,1,-1.0000000000000001e-05
71,2,3,0.
72,1,1,-1.0000000000000001e-05
72,2,3,0.
73,1,1,-1.0000000000000001e-05
73,2,3,0.
74,1,1,-1.0000000000000001e-05
74,2,3,0.
75,1,1,-1.0000000000000001e-05
75,2,3,0.
76,1,1,-1.0000000000000001e-05
76,2,3,0.
77,1,1,-1.0000000000000001e-05
77,2,3,0.
78,1,1,-1.0000000000000001e-05
78,2,3,0.
79,1,1,-1.0000000000000001e-05
79,2,3,0.
80,1,1,-1.0000000000000001e-05
80,2,3,0.
81,1,1,-1.0000000000000001e-05
81,2,3,0.
82,1,1,-1.0000000000000001e-05
82,2,3,0.
83,1,1,-1.0000000000000001e-05
83,2,3,0.
84,1,1,-1.0000000000000001e-05
84,2,3,0.
85,1,1,-1.0000000000000001e-05
85,2,3,0.
86,1,1,-1.0000000000000001e-05
86,2,3,0.
87,1,1,-1.0000000000000001e-05
87,2,3,0.
88,1,1,-1.0000000000000001e-05
88,2,3,0.
PRIMARY_X0,11,11,300.
SECONDARY_X2,11,11,400.
*Output, field, frequency=1
*Node Output
U,NT,RF,RFL
*Element Output, directions=YES
S
*Contact Output
CSTRESS,CDISP,CFORCE,HFLA,CTANDIR
*End Step
*Step, name=GAP_26, nlgeom=YES, unsymm=YES, extrapolation=NO
*Coupled Temperature-Displacement
0.025,0.025
*Boundary
1,1,1,0
1,2,3,0.
2,1,1,0
2,2,3,0.
3,1,1,0
3,2,3,0.
4,1,1,0
4,2,3,0.
5,1,1,0
5,2,3,0.
6,1,1,0
6,2,3,0.
7,1,1,0
7,2,3,0.
8,1,1,0
8,2,3,0.
9,1,1,0
9,2,3,0.
10,1,1,0
10,2,3,0.
11,1,1,0
11,2,3,0.
12,1,1,0
12,2,3,0.
13,1,1,0
13,2,3,0.
14,1,1,0
14,2,3,0.
15,1,1,0
15,2,3,0.
16,1,1,0
16,2,3,0.
17,1,1,0
17,2,3,0.
18,1,1,0
18,2,3,0.
19,1,1,0
19,2,3,0.
20,1,1,0
20,2,3,0.
21,1,1,0
21,2,3,0.
22,1,1,0
22,2,3,0.
23,1,1,0
23,2,3,0.
24,1,1,0
24,2,3,0.
25,1,1,0
25,2,3,0.
26,1,1,0
26,2,3,0.
27,1,1,0
27,2,3,0.
28,1,1,0
28,2,3,0.
29,1,1,0
29,2,3,0.
30,1,1,9.9999999999999995e-08
30,2,3,0.
31,1,1,0
31,2,3,0.
32,1,1,0
32,2,3,0.
33,1,1,0
33,2,3,0.
34,1,1,0
34,2,3,0.
35,1,1,0
35,2,3,0.
36,1,1,0
36,2,3,0.
37,1,1,0
37,2,3,0.
38,1,1,0
38,2,3,0.
39,1,1,0
39,2,3,0.
40,1,1,0
40,2,3,0.
41,1,1,0
41,2,3,0.
42,1,1,0
42,2,3,0.
43,1,1,0
43,2,3,0.
44,1,1,0
44,2,3,0.
45,1,1,0
45,2,3,0.
46,1,1,0
46,2,3,0.
47,1,1,0
47,2,3,0.
48,1,1,0
48,2,3,0.
49,1,1,0
49,2,3,0.
50,1,1,0
50,2,3,0.
51,1,1,0
51,2,3,0.
52,1,1,0
52,2,3,0.
53,1,1,0
53,2,3,0.
54,1,1,0
54,2,3,0.
55,1,1,0
55,2,3,0.
56,1,1,0
56,2,3,0.
57,1,1,-1.0000000000000001e-05
57,2,3,0.
58,1,1,-1.0000000000000001e-05
58,2,3,0.
59,1,1,-1.0000000000000001e-05
59,2,3,0.
60,1,1,-1.0000000000000001e-05
60,2,3,0.
61,1,1,-1.0000000000000001e-05
61,2,3,0.
62,1,1,-1.0000000000000001e-05
62,2,3,0.
63,1,1,-1.0000000000000001e-05
63,2,3,0.
64,1,1,-1.0000000000000001e-05
64,2,3,0.
65,1,1,-1.0000000000000001e-05
65,2,3,0.
66,1,1,-1.0000000000000001e-05
66,2,3,0.
67,1,1,-1.0000000000000001e-05
67,2,3,0.
68,1,1,-1.0000000000000001e-05
68,2,3,0.
69,1,1,-1.0000000000000001e-05
69,2,3,0.
70,1,1,-1.0000000000000001e-05
70,2,3,0.
71,1,1,-1.0000000000000001e-05
71,2,3,0.
72,1,1,-1.0000000000000001e-05
72,2,3,0.
73,1,1,-1.0000000000000001e-05
73,2,3,0.
74,1,1,-1.0000000000000001e-05
74,2,3,0.
75,1,1,-1.0000000000000001e-05
75,2,3,0.
76,1,1,-1.0000000000000001e-05
76,2,3,0.
77,1,1,-1.0000000000000001e-05
77,2,3,0.
78,1,1,-1.0000000000000001e-05
78,2,3,0.
79,1,1,-1.0000000000000001e-05
79,2,3,0.
80,1,1,-1.0000000000000001e-05
80,2,3,0.
81,1,1,-1.0000000000000001e-05
81,2,3,0.
82,1,1,-1.0000000000000001e-05
82,2,3,0.
83,1,1,-1.0000000000000001e-05
83,2,3,0.
84,1,1,-1.0000000000000001e-05
84,2,3,0.
85,1,1,-1.0000000000000001e-05
85,2,3,0.
86,1,1,-1.0000000000000001e-05
86,2,3,0.
87,1,1,-1.0000000000000001e-05
87,2,3,0.
88,1,1,-1.0000000000000001e-05
88,2,3,0.
PRIMARY_X0,11,11,300.
SECONDARY_X2,11,11,400.
*Output, field, frequency=1
*Node Output
U,NT,RF,RFL
*Element Output, directions=YES
S
*Contact Output
CSTRESS,CDISP,CFORCE,HFLA,CTANDIR
*End Step
*Step, name=GAP_27, nlgeom=YES, unsymm=YES, extrapolation=NO
*Coupled Temperature-Displacement
0.025,0.025
*Boundary
1,1,1,0
1,2,3,0.
2,1,1,0
2,2,3,0.
3,1,1,0
3,2,3,0.
4,1,1,0
4,2,3,0.
5,1,1,0
5,2,3,0.
6,1,1,0
6,2,3,0.
7,1,1,0
7,2,3,0.
8,1,1,0
8,2,3,0.
9,1,1,0
9,2,3,0.
10,1,1,0
10,2,3,0.
11,1,1,0
11,2,3,0.
12,1,1,0
12,2,3,0.
13,1,1,0
13,2,3,0.
14,1,1,0
14,2,3,0.
15,1,1,0
15,2,3,0.
16,1,1,0
16,2,3,0.
17,1,1,0
17,2,3,0.
18,1,1,0
18,2,3,0.
19,1,1,0
19,2,3,0.
20,1,1,0
20,2,3,0.
21,1,1,0
21,2,3,0.
22,1,1,0
22,2,3,0.
23,1,1,0
23,2,3,0.
24,1,1,0
24,2,3,0.
25,1,1,0
25,2,3,0.
26,1,1,0
26,2,3,0.
27,1,1,0
27,2,3,0.
28,1,1,0
28,2,3,0.
29,1,1,0
29,2,3,0.
30,1,1,-9.9999999999999995e-08
30,2,3,0.
31,1,1,0
31,2,3,0.
32,1,1,0
32,2,3,0.
33,1,1,0
33,2,3,0.
34,1,1,0
34,2,3,0.
35,1,1,0
35,2,3,0.
36,1,1,0
36,2,3,0.
37,1,1,0
37,2,3,0.
38,1,1,0
38,2,3,0.
39,1,1,0
39,2,3,0.
40,1,1,0
40,2,3,0.
41,1,1,0
41,2,3,0.
42,1,1,0
42,2,3,0.
43,1,1,0
43,2,3,0.
44,1,1,0
44,2,3,0.
45,1,1,0
45,2,3,0.
46,1,1,0
46,2,3,0.
47,1,1,0
47,2,3,0.
48,1,1,0
48,2,3,0.
49,1,1,0
49,2,3,0.
50,1,1,0
50,2,3,0.
51,1,1,0
51,2,3,0.
52,1,1,0
52,2,3,0.
53,1,1,0
53,2,3,0.
54,1,1,0
54,2,3,0.
55,1,1,0
55,2,3,0.
56,1,1,0
56,2,3,0.
57,1,1,-1.0000000000000001e-05
57,2,3,0.
58,1,1,-1.0000000000000001e-05
58,2,3,0.
59,1,1,-1.0000000000000001e-05
59,2,3,0.
60,1,1,-1.0000000000000001e-05
60,2,3,0.
61,1,1,-1.0000000000000001e-05
61,2,3,0.
62,1,1,-1.0000000000000001e-05
62,2,3,0.
63,1,1,-1.0000000000000001e-05
63,2,3,0.
64,1,1,-1.0000000000000001e-05
64,2,3,0.
65,1,1,-1.0000000000000001e-05
65,2,3,0.
66,1,1,-1.0000000000000001e-05
66,2,3,0.
67,1,1,-1.0000000000000001e-05
67,2,3,0.
68,1,1,-1.0000000000000001e-05
68,2,3,0.
69,1,1,-1.0000000000000001e-05
69,2,3,0.
70,1,1,-1.0000000000000001e-05
70,2,3,0.
71,1,1,-1.0000000000000001e-05
71,2,3,0.
72,1,1,-1.0000000000000001e-05
72,2,3,0.
73,1,1,-1.0000000000000001e-05
73,2,3,0.
74,1,1,-1.0000000000000001e-05
74,2,3,0.
75,1,1,-1.0000000000000001e-05
75,2,3,0.
76,1,1,-1.0000000000000001e-05
76,2,3,0.
77,1,1,-1.0000000000000001e-05
77,2,3,0.
78,1,1,-1.0000000000000001e-05
78,2,3,0.
79,1,1,-1.0000000000000001e-05
79,2,3,0.
80,1,1,-1.0000000000000001e-05
80,2,3,0.
81,1,1,-1.0000000000000001e-05
81,2,3,0.
82,1,1,-1.0000000000000001e-05
82,2,3,0.
83,1,1,-1.0000000000000001e-05
83,2,3,0.
84,1,1,-1.0000000000000001e-05
84,2,3,0.
85,1,1,-1.0000000000000001e-05
85,2,3,0.
86,1,1,-1.0000000000000001e-05
86,2,3,0.
87,1,1,-1.0000000000000001e-05
87,2,3,0.
88,1,1,-1.0000000000000001e-05
88,2,3,0.
PRIMARY_X0,11,11,300.
SECONDARY_X2,11,11,400.
*Output, field, frequency=1
*Node Output
U,NT,RF,RFL
*Element Output, directions=YES
S
*Contact Output
CSTRESS,CDISP,CFORCE,HFLA,CTANDIR
*End Step
*Step, name=GAP_28, nlgeom=YES, unsymm=YES, extrapolation=NO
*Coupled Temperature-Displacement
0.025,0.025
*Boundary
1,1,1,0
1,2,3,0.
2,1,1,0
2,2,3,0.
3,1,1,0
3,2,3,0.
4,1,1,0
4,2,3,0.
5,1,1,0
5,2,3,0.
6,1,1,0
6,2,3,0.
7,1,1,0
7,2,3,0.
8,1,1,0
8,2,3,0.
9,1,1,0
9,2,3,0.
10,1,1,0
10,2,3,0.
11,1,1,0
11,2,3,0.
12,1,1,0
12,2,3,0.
13,1,1,0
13,2,3,0.
14,1,1,0
14,2,3,0.
15,1,1,0
15,2,3,0.
16,1,1,0
16,2,3,0.
17,1,1,0
17,2,3,0.
18,1,1,0
18,2,3,0.
19,1,1,0
19,2,3,0.
20,1,1,0
20,2,3,0.
21,1,1,0
21,2,3,0.
22,1,1,0
22,2,3,0.
23,1,1,0
23,2,3,0.
24,1,1,0
24,2,3,0.
25,1,1,0
25,2,3,0.
26,1,1,0
26,2,3,0.
27,1,1,0
27,2,3,0.
28,1,1,0
28,2,3,0.
29,1,1,0
29,2,3,0.
30,1,1,0
30,2,3,0.
31,1,1,0
31,2,3,0.
32,1,1,0
32,2,3,0.
33,1,1,9.9999999999999995e-08
33,2,3,0.
34,1,1,0
34,2,3,0.
35,1,1,0
35,2,3,0.
36,1,1,0
36,2,3,0.
37,1,1,0
37,2,3,0.
38,1,1,0
38,2,3,0.
39,1,1,0
39,2,3,0.
40,1,1,0
40,2,3,0.
41,1,1,0
41,2,3,0.
42,1,1,0
42,2,3,0.
43,1,1,0
43,2,3,0.
44,1,1,0
44,2,3,0.
45,1,1,0
45,2,3,0.
46,1,1,0
46,2,3,0.
47,1,1,0
47,2,3,0.
48,1,1,0
48,2,3,0.
49,1,1,0
49,2,3,0.
50,1,1,0
50,2,3,0.
51,1,1,0
51,2,3,0.
52,1,1,0
52,2,3,0.
53,1,1,0
53,2,3,0.
54,1,1,0
54,2,3,0.
55,1,1,0
55,2,3,0.
56,1,1,0
56,2,3,0.
57,1,1,-1.0000000000000001e-05
57,2,3,0.
58,1,1,-1.0000000000000001e-05
58,2,3,0.
59,1,1,-1.0000000000000001e-05
59,2,3,0.
60,1,1,-1.0000000000000001e-05
60,2,3,0.
61,1,1,-1.0000000000000001e-05
61,2,3,0.
62,1,1,-1.0000000000000001e-05
62,2,3,0.
63,1,1,-1.0000000000000001e-05
63,2,3,0.
64,1,1,-1.0000000000000001e-05
64,2,3,0.
65,1,1,-1.0000000000000001e-05
65,2,3,0.
66,1,1,-1.0000000000000001e-05
66,2,3,0.
67,1,1,-1.0000000000000001e-05
67,2,3,0.
68,1,1,-1.0000000000000001e-05
68,2,3,0.
69,1,1,-1.0000000000000001e-05
69,2,3,0.
70,1,1,-1.0000000000000001e-05
70,2,3,0.
71,1,1,-1.0000000000000001e-05
71,2,3,0.
72,1,1,-1.0000000000000001e-05
72,2,3,0.
73,1,1,-1.0000000000000001e-05
73,2,3,0.
74,1,1,-1.0000000000000001e-05
74,2,3,0.
75,1,1,-1.0000000000000001e-05
75,2,3,0.
76,1,1,-1.0000000000000001e-05
76,2,3,0.
77,1,1,-1.0000000000000001e-05
77,2,3,0.
78,1,1,-1.0000000000000001e-05
78,2,3,0.
79,1,1,-1.0000000000000001e-05
79,2,3,0.
80,1,1,-1.0000000000000001e-05
80,2,3,0.
81,1,1,-1.0000000000000001e-05
81,2,3,0.
82,1,1,-1.0000000000000001e-05
82,2,3,0.
83,1,1,-1.0000000000000001e-05
83,2,3,0.
84,1,1,-1.0000000000000001e-05
84,2,3,0.
85,1,1,-1.0000000000000001e-05
85,2,3,0.
86,1,1,-1.0000000000000001e-05
86,2,3,0.
87,1,1,-1.0000000000000001e-05
87,2,3,0.
88,1,1,-1.0000000000000001e-05
88,2,3,0.
PRIMARY_X0,11,11,300.
SECONDARY_X2,11,11,400.
*Output, field, frequency=1
*Node Output
U,NT,RF,RFL
*Element Output, directions=YES
S
*Contact Output
CSTRESS,CDISP,CFORCE,HFLA,CTANDIR
*End Step
*Step, name=GAP_29, nlgeom=YES, unsymm=YES, extrapolation=NO
*Coupled Temperature-Displacement
0.025,0.025
*Boundary
1,1,1,0
1,2,3,0.
2,1,1,0
2,2,3,0.
3,1,1,0
3,2,3,0.
4,1,1,0
4,2,3,0.
5,1,1,0
5,2,3,0.
6,1,1,0
6,2,3,0.
7,1,1,0
7,2,3,0.
8,1,1,0
8,2,3,0.
9,1,1,0
9,2,3,0.
10,1,1,0
10,2,3,0.
11,1,1,0
11,2,3,0.
12,1,1,0
12,2,3,0.
13,1,1,0
13,2,3,0.
14,1,1,0
14,2,3,0.
15,1,1,0
15,2,3,0.
16,1,1,0
16,2,3,0.
17,1,1,0
17,2,3,0.
18,1,1,0
18,2,3,0.
19,1,1,0
19,2,3,0.
20,1,1,0
20,2,3,0.
21,1,1,0
21,2,3,0.
22,1,1,0
22,2,3,0.
23,1,1,0
23,2,3,0.
24,1,1,0
24,2,3,0.
25,1,1,0
25,2,3,0.
26,1,1,0
26,2,3,0.
27,1,1,0
27,2,3,0.
28,1,1,0
28,2,3,0.
29,1,1,0
29,2,3,0.
30,1,1,0
30,2,3,0.
31,1,1,0
31,2,3,0.
32,1,1,0
32,2,3,0.
33,1,1,-9.9999999999999995e-08
33,2,3,0.
34,1,1,0
34,2,3,0.
35,1,1,0
35,2,3,0.
36,1,1,0
36,2,3,0.
37,1,1,0
37,2,3,0.
38,1,1,0
38,2,3,0.
39,1,1,0
39,2,3,0.
40,1,1,0
40,2,3,0.
41,1,1,0
41,2,3,0.
42,1,1,0
42,2,3,0.
43,1,1,0
43,2,3,0.
44,1,1,0
44,2,3,0.
45,1,1,0
45,2,3,0.
46,1,1,0
46,2,3,0.
47,1,1,0
47,2,3,0.
48,1,1,0
48,2,3,0.
49,1,1,0
49,2,3,0.
50,1,1,0
50,2,3,0.
51,1,1,0
51,2,3,0.
52,1,1,0
52,2,3,0.
53,1,1,0
53,2,3,0.
54,1,1,0
54,2,3,0.
55,1,1,0
55,2,3,0.
56,1,1,0
56,2,3,0.
57,1,1,-1.0000000000000001e-05
57,2,3,0.
58,1,1,-1.0000000000000001e-05
58,2,3,0.
59,1,1,-1.0000000000000001e-05
59,2,3,0.
60,1,1,-1.0000000000000001e-05
60,2,3,0.
61,1,1,-1.0000000000000001e-05
61,2,3,0.
62,1,1,-1.0000000000000001e-05
62,2,3,0.
63,1,1,-1.0000000000000001e-05
63,2,3,0.
64,1,1,-1.0000000000000001e-05
64,2,3,0.
65,1,1,-1.0000000000000001e-05
65,2,3,0.
66,1,1,-1.0000000000000001e-05
66,2,3,0.
67,1,1,-1.0000000000000001e-05
67,2,3,0.
68,1,1,-1.0000000000000001e-05
68,2,3,0.
69,1,1,-1.0000000000000001e-05
69,2,3,0.
70,1,1,-1.0000000000000001e-05
70,2,3,0.
71,1,1,-1.0000000000000001e-05
71,2,3,0.
72,1,1,-1.0000000000000001e-05
72,2,3,0.
73,1,1,-1.0000000000000001e-05
73,2,3,0.
74,1,1,-1.0000000000000001e-05
74,2,3,0.
75,1,1,-1.0000000000000001e-05
75,2,3,0.
76,1,1,-1.0000000000000001e-05
76,2,3,0.
77,1,1,-1.0000000000000001e-05
77,2,3,0.
78,1,1,-1.0000000000000001e-05
78,2,3,0.
79,1,1,-1.0000000000000001e-05
79,2,3,0.
80,1,1,-1.0000000000000001e-05
80,2,3,0.
81,1,1,-1.0000000000000001e-05
81,2,3,0.
82,1,1,-1.0000000000000001e-05
82,2,3,0.
83,1,1,-1.0000000000000001e-05
83,2,3,0.
84,1,1,-1.0000000000000001e-05
84,2,3,0.
85,1,1,-1.0000000000000001e-05
85,2,3,0.
86,1,1,-1.0000000000000001e-05
86,2,3,0.
87,1,1,-1.0000000000000001e-05
87,2,3,0.
88,1,1,-1.0000000000000001e-05
88,2,3,0.
PRIMARY_X0,11,11,300.
SECONDARY_X2,11,11,400.
*Output, field, frequency=1
*Node Output
U,NT,RF,RFL
*Element Output, directions=YES
S
*Contact Output
CSTRESS,CDISP,CFORCE,HFLA,CTANDIR
*End Step
*Step, name=GAP_30, nlgeom=YES, unsymm=YES, extrapolation=NO
*Coupled Temperature-Displacement
0.025,0.025
*Boundary
1,1,1,0
1,2,3,0.
2,1,1,0
2,2,3,0.
3,1,1,0
3,2,3,0.
4,1,1,0
4,2,3,0.
5,1,1,0
5,2,3,0.
6,1,1,0
6,2,3,0.
7,1,1,0
7,2,3,0.
8,1,1,0
8,2,3,0.
9,1,1,0
9,2,3,0.
10,1,1,0
10,2,3,0.
11,1,1,0
11,2,3,0.
12,1,1,0
12,2,3,0.
13,1,1,0
13,2,3,0.
14,1,1,0
14,2,3,0.
15,1,1,0
15,2,3,0.
16,1,1,0
16,2,3,0.
17,1,1,0
17,2,3,0.
18,1,1,0
18,2,3,0.
19,1,1,0
19,2,3,0.
20,1,1,0
20,2,3,0.
21,1,1,0
21,2,3,0.
22,1,1,0
22,2,3,0.
23,1,1,0
23,2,3,0.
24,1,1,0
24,2,3,0.
25,1,1,0
25,2,3,0.
26,1,1,0
26,2,3,0.
27,1,1,0
27,2,3,0.
28,1,1,0
28,2,3,0.
29,1,1,0
29,2,3,0.
30,1,1,0
30,2,3,0.
31,1,1,0
31,2,3,0.
32,1,1,0
32,2,3,0.
33,1,1,0
33,2,3,0.
34,1,1,0
34,2,3,0.
35,1,1,9.9999999999999995e-08
35,2,3,0.
36,1,1,0
36,2,3,0.
37,1,1,0
37,2,3,0.
38,1,1,0
38,2,3,0.
39,1,1,0
39,2,3,0.
40,1,1,0
40,2,3,0.
41,1,1,0
41,2,3,0.
42,1,1,0
42,2,3,0.
43,1,1,0
43,2,3,0.
44,1,1,0
44,2,3,0.
45,1,1,0
45,2,3,0.
46,1,1,0
46,2,3,0.
47,1,1,0
47,2,3,0.
48,1,1,0
48,2,3,0.
49,1,1,0
49,2,3,0.
50,1,1,0
50,2,3,0.
51,1,1,0
51,2,3,0.
52,1,1,0
52,2,3,0.
53,1,1,0
53,2,3,0.
54,1,1,0
54,2,3,0.
55,1,1,0
55,2,3,0.
56,1,1,0
56,2,3,0.
57,1,1,-1.0000000000000001e-05
57,2,3,0.
58,1,1,-1.0000000000000001e-05
58,2,3,0.
59,1,1,-1.0000000000000001e-05
59,2,3,0.
60,1,1,-1.0000000000000001e-05
60,2,3,0.
61,1,1,-1.0000000000000001e-05
61,2,3,0.
62,1,1,-1.0000000000000001e-05
62,2,3,0.
63,1,1,-1.0000000000000001e-05
63,2,3,0.
64,1,1,-1.0000000000000001e-05
64,2,3,0.
65,1,1,-1.0000000000000001e-05
65,2,3,0.
66,1,1,-1.0000000000000001e-05
66,2,3,0.
67,1,1,-1.0000000000000001e-05
67,2,3,0.
68,1,1,-1.0000000000000001e-05
68,2,3,0.
69,1,1,-1.0000000000000001e-05
69,2,3,0.
70,1,1,-1.0000000000000001e-05
70,2,3,0.
71,1,1,-1.0000000000000001e-05
71,2,3,0.
72,1,1,-1.0000000000000001e-05
72,2,3,0.
73,1,1,-1.0000000000000001e-05
73,2,3,0.
74,1,1,-1.0000000000000001e-05
74,2,3,0.
75,1,1,-1.0000000000000001e-05
75,2,3,0.
76,1,1,-1.0000000000000001e-05
76,2,3,0.
77,1,1,-1.0000000000000001e-05
77,2,3,0.
78,1,1,-1.0000000000000001e-05
78,2,3,0.
79,1,1,-1.0000000000000001e-05
79,2,3,0.
80,1,1,-1.0000000000000001e-05
80,2,3,0.
81,1,1,-1.0000000000000001e-05
81,2,3,0.
82,1,1,-1.0000000000000001e-05
82,2,3,0.
83,1,1,-1.0000000000000001e-05
83,2,3,0.
84,1,1,-1.0000000000000001e-05
84,2,3,0.
85,1,1,-1.0000000000000001e-05
85,2,3,0.
86,1,1,-1.0000000000000001e-05
86,2,3,0.
87,1,1,-1.0000000000000001e-05
87,2,3,0.
88,1,1,-1.0000000000000001e-05
88,2,3,0.
PRIMARY_X0,11,11,300.
SECONDARY_X2,11,11,400.
*Output, field, frequency=1
*Node Output
U,NT,RF,RFL
*Element Output, directions=YES
S
*Contact Output
CSTRESS,CDISP,CFORCE,HFLA,CTANDIR
*End Step
*Step, name=GAP_31, nlgeom=YES, unsymm=YES, extrapolation=NO
*Coupled Temperature-Displacement
0.025,0.025
*Boundary
1,1,1,0
1,2,3,0.
2,1,1,0
2,2,3,0.
3,1,1,0
3,2,3,0.
4,1,1,0
4,2,3,0.
5,1,1,0
5,2,3,0.
6,1,1,0
6,2,3,0.
7,1,1,0
7,2,3,0.
8,1,1,0
8,2,3,0.
9,1,1,0
9,2,3,0.
10,1,1,0
10,2,3,0.
11,1,1,0
11,2,3,0.
12,1,1,0
12,2,3,0.
13,1,1,0
13,2,3,0.
14,1,1,0
14,2,3,0.
15,1,1,0
15,2,3,0.
16,1,1,0
16,2,3,0.
17,1,1,0
17,2,3,0.
18,1,1,0
18,2,3,0.
19,1,1,0
19,2,3,0.
20,1,1,0
20,2,3,0.
21,1,1,0
21,2,3,0.
22,1,1,0
22,2,3,0.
23,1,1,0
23,2,3,0.
24,1,1,0
24,2,3,0.
25,1,1,0
25,2,3,0.
26,1,1,0
26,2,3,0.
27,1,1,0
27,2,3,0.
28,1,1,0
28,2,3,0.
29,1,1,0
29,2,3,0.
30,1,1,0
30,2,3,0.
31,1,1,0
31,2,3,0.
32,1,1,0
32,2,3,0.
33,1,1,0
33,2,3,0.
34,1,1,0
34,2,3,0.
35,1,1,-9.9999999999999995e-08
35,2,3,0.
36,1,1,0
36,2,3,0.
37,1,1,0
37,2,3,0.
38,1,1,0
38,2,3,0.
39,1,1,0
39,2,3,0.
40,1,1,0
40,2,3,0.
41,1,1,0
41,2,3,0.
42,1,1,0
42,2,3,0.
43,1,1,0
43,2,3,0.
44,1,1,0
44,2,3,0.
45,1,1,0
45,2,3,0.
46,1,1,0
46,2,3,0.
47,1,1,0
47,2,3,0.
48,1,1,0
48,2,3,0.
49,1,1,0
49,2,3,0.
50,1,1,0
50,2,3,0.
51,1,1,0
51,2,3,0.
52,1,1,0
52,2,3,0.
53,1,1,0
53,2,3,0.
54,1,1,0
54,2,3,0.
55,1,1,0
55,2,3,0.
56,1,1,0
56,2,3,0.
57,1,1,-1.0000000000000001e-05
57,2,3,0.
58,1,1,-1.0000000000000001e-05
58,2,3,0.
59,1,1,-1.0000000000000001e-05
59,2,3,0.
60,1,1,-1.0000000000000001e-05
60,2,3,0.
61,1,1,-1.0000000000000001e-05
61,2,3,0.
62,1,1,-1.0000000000000001e-05
62,2,3,0.
63,1,1,-1.0000000000000001e-05
63,2,3,0.
64,1,1,-1.0000000000000001e-05
64,2,3,0.
65,1,1,-1.0000000000000001e-05
65,2,3,0.
66,1,1,-1.0000000000000001e-05
66,2,3,0.
67,1,1,-1.0000000000000001e-05
67,2,3,0.
68,1,1,-1.0000000000000001e-05
68,2,3,0.
69,1,1,-1.0000000000000001e-05
69,2,3,0.
70,1,1,-1.0000000000000001e-05
70,2,3,0.
71,1,1,-1.0000000000000001e-05
71,2,3,0.
72,1,1,-1.0000000000000001e-05
72,2,3,0.
73,1,1,-1.0000000000000001e-05
73,2,3,0.
74,1,1,-1.0000000000000001e-05
74,2,3,0.
75,1,1,-1.0000000000000001e-05
75,2,3,0.
76,1,1,-1.0000000000000001e-05
76,2,3,0.
77,1,1,-1.0000000000000001e-05
77,2,3,0.
78,1,1,-1.0000000000000001e-05
78,2,3,0.
79,1,1,-1.0000000000000001e-05
79,2,3,0.
80,1,1,-1.0000000000000001e-05
80,2,3,0.
81,1,1,-1.0000000000000001e-05
81,2,3,0.
82,1,1,-1.0000000000000001e-05
82,2,3,0.
83,1,1,-1.0000000000000001e-05
83,2,3,0.
84,1,1,-1.0000000000000001e-05
84,2,3,0.
85,1,1,-1.0000000000000001e-05
85,2,3,0.
86,1,1,-1.0000000000000001e-05
86,2,3,0.
87,1,1,-1.0000000000000001e-05
87,2,3,0.
88,1,1,-1.0000000000000001e-05
88,2,3,0.
PRIMARY_X0,11,11,300.
SECONDARY_X2,11,11,400.
*Output, field, frequency=1
*Node Output
U,NT,RF,RFL
*Element Output, directions=YES
S
*Contact Output
CSTRESS,CDISP,CFORCE,HFLA,CTANDIR
*End Step
*Step, name=GAP_32, nlgeom=YES, unsymm=YES, extrapolation=NO
*Coupled Temperature-Displacement
0.025,0.025
*Boundary
1,1,1,0
1,2,3,0.
2,1,1,0
2,2,3,0.
3,1,1,0
3,2,3,0.
4,1,1,0
4,2,3,0.
5,1,1,0
5,2,3,0.
6,1,1,0
6,2,3,0.
7,1,1,0
7,2,3,0.
8,1,1,0
8,2,3,0.
9,1,1,0
9,2,3,0.
10,1,1,0
10,2,3,0.
11,1,1,0
11,2,3,0.
12,1,1,0
12,2,3,0.
13,1,1,0
13,2,3,0.
14,1,1,0
14,2,3,0.
15,1,1,0
15,2,3,0.
16,1,1,0
16,2,3,0.
17,1,1,0
17,2,3,0.
18,1,1,0
18,2,3,0.
19,1,1,0
19,2,3,0.
20,1,1,0
20,2,3,0.
21,1,1,0
21,2,3,0.
22,1,1,0
22,2,3,0.
23,1,1,0
23,2,3,0.
24,1,1,0
24,2,3,0.
25,1,1,0
25,2,3,0.
26,1,1,0
26,2,3,0.
27,1,1,0
27,2,3,0.
28,1,1,0
28,2,3,0.
29,1,1,0
29,2,3,0.
30,1,1,0
30,2,3,0.
31,1,1,0
31,2,3,0.
32,1,1,0
32,2,3,0.
33,1,1,0
33,2,3,0.
34,1,1,0
34,2,3,0.
35,1,1,0
35,2,3,0.
36,1,1,0
36,2,3,0.
37,1,1,9.9999999999999995e-08
37,2,3,0.
38,1,1,0
38,2,3,0.
39,1,1,0
39,2,3,0.
40,1,1,0
40,2,3,0.
41,1,1,0
41,2,3,0.
42,1,1,0
42,2,3,0.
43,1,1,0
43,2,3,0.
44,1,1,0
44,2,3,0.
45,1,1,0
45,2,3,0.
46,1,1,0
46,2,3,0.
47,1,1,0
47,2,3,0.
48,1,1,0
48,2,3,0.
49,1,1,0
49,2,3,0.
50,1,1,0
50,2,3,0.
51,1,1,0
51,2,3,0.
52,1,1,0
52,2,3,0.
53,1,1,0
53,2,3,0.
54,1,1,0
54,2,3,0.
55,1,1,0
55,2,3,0.
56,1,1,0
56,2,3,0.
57,1,1,-1.0000000000000001e-05
57,2,3,0.
58,1,1,-1.0000000000000001e-05
58,2,3,0.
59,1,1,-1.0000000000000001e-05
59,2,3,0.
60,1,1,-1.0000000000000001e-05
60,2,3,0.
61,1,1,-1.0000000000000001e-05
61,2,3,0.
62,1,1,-1.0000000000000001e-05
62,2,3,0.
63,1,1,-1.0000000000000001e-05
63,2,3,0.
64,1,1,-1.0000000000000001e-05
64,2,3,0.
65,1,1,-1.0000000000000001e-05
65,2,3,0.
66,1,1,-1.0000000000000001e-05
66,2,3,0.
67,1,1,-1.0000000000000001e-05
67,2,3,0.
68,1,1,-1.0000000000000001e-05
68,2,3,0.
69,1,1,-1.0000000000000001e-05
69,2,3,0.
70,1,1,-1.0000000000000001e-05
70,2,3,0.
71,1,1,-1.0000000000000001e-05
71,2,3,0.
72,1,1,-1.0000000000000001e-05
72,2,3,0.
73,1,1,-1.0000000000000001e-05
73,2,3,0.
74,1,1,-1.0000000000000001e-05
74,2,3,0.
75,1,1,-1.0000000000000001e-05
75,2,3,0.
76,1,1,-1.0000000000000001e-05
76,2,3,0.
77,1,1,-1.0000000000000001e-05
77,2,3,0.
78,1,1,-1.0000000000000001e-05
78,2,3,0.
79,1,1,-1.0000000000000001e-05
79,2,3,0.
80,1,1,-1.0000000000000001e-05
80,2,3,0.
81,1,1,-1.0000000000000001e-05
81,2,3,0.
82,1,1,-1.0000000000000001e-05
82,2,3,0.
83,1,1,-1.0000000000000001e-05
83,2,3,0.
84,1,1,-1.0000000000000001e-05
84,2,3,0.
85,1,1,-1.0000000000000001e-05
85,2,3,0.
86,1,1,-1.0000000000000001e-05
86,2,3,0.
87,1,1,-1.0000000000000001e-05
87,2,3,0.
88,1,1,-1.0000000000000001e-05
88,2,3,0.
PRIMARY_X0,11,11,300.
SECONDARY_X2,11,11,400.
*Output, field, frequency=1
*Node Output
U,NT,RF,RFL
*Element Output, directions=YES
S
*Contact Output
CSTRESS,CDISP,CFORCE,HFLA,CTANDIR
*End Step
*Step, name=GAP_33, nlgeom=YES, unsymm=YES, extrapolation=NO
*Coupled Temperature-Displacement
0.025,0.025
*Boundary
1,1,1,0
1,2,3,0.
2,1,1,0
2,2,3,0.
3,1,1,0
3,2,3,0.
4,1,1,0
4,2,3,0.
5,1,1,0
5,2,3,0.
6,1,1,0
6,2,3,0.
7,1,1,0
7,2,3,0.
8,1,1,0
8,2,3,0.
9,1,1,0
9,2,3,0.
10,1,1,0
10,2,3,0.
11,1,1,0
11,2,3,0.
12,1,1,0
12,2,3,0.
13,1,1,0
13,2,3,0.
14,1,1,0
14,2,3,0.
15,1,1,0
15,2,3,0.
16,1,1,0
16,2,3,0.
17,1,1,0
17,2,3,0.
18,1,1,0
18,2,3,0.
19,1,1,0
19,2,3,0.
20,1,1,0
20,2,3,0.
21,1,1,0
21,2,3,0.
22,1,1,0
22,2,3,0.
23,1,1,0
23,2,3,0.
24,1,1,0
24,2,3,0.
25,1,1,0
25,2,3,0.
26,1,1,0
26,2,3,0.
27,1,1,0
27,2,3,0.
28,1,1,0
28,2,3,0.
29,1,1,0
29,2,3,0.
30,1,1,0
30,2,3,0.
31,1,1,0
31,2,3,0.
32,1,1,0
32,2,3,0.
33,1,1,0
33,2,3,0.
34,1,1,0
34,2,3,0.
35,1,1,0
35,2,3,0.
36,1,1,0
36,2,3,0.
37,1,1,-9.9999999999999995e-08
37,2,3,0.
38,1,1,0
38,2,3,0.
39,1,1,0
39,2,3,0.
40,1,1,0
40,2,3,0.
41,1,1,0
41,2,3,0.
42,1,1,0
42,2,3,0.
43,1,1,0
43,2,3,0.
44,1,1,0
44,2,3,0.
45,1,1,0
45,2,3,0.
46,1,1,0
46,2,3,0.
47,1,1,0
47,2,3,0.
48,1,1,0
48,2,3,0.
49,1,1,0
49,2,3,0.
50,1,1,0
50,2,3,0.
51,1,1,0
51,2,3,0.
52,1,1,0
52,2,3,0.
53,1,1,0
53,2,3,0.
54,1,1,0
54,2,3,0.
55,1,1,0
55,2,3,0.
56,1,1,0
56,2,3,0.
57,1,1,-1.0000000000000001e-05
57,2,3,0.
58,1,1,-1.0000000000000001e-05
58,2,3,0.
59,1,1,-1.0000000000000001e-05
59,2,3,0.
60,1,1,-1.0000000000000001e-05
60,2,3,0.
61,1,1,-1.0000000000000001e-05
61,2,3,0.
62,1,1,-1.0000000000000001e-05
62,2,3,0.
63,1,1,-1.0000000000000001e-05
63,2,3,0.
64,1,1,-1.0000000000000001e-05
64,2,3,0.
65,1,1,-1.0000000000000001e-05
65,2,3,0.
66,1,1,-1.0000000000000001e-05
66,2,3,0.
67,1,1,-1.0000000000000001e-05
67,2,3,0.
68,1,1,-1.0000000000000001e-05
68,2,3,0.
69,1,1,-1.0000000000000001e-05
69,2,3,0.
70,1,1,-1.0000000000000001e-05
70,2,3,0.
71,1,1,-1.0000000000000001e-05
71,2,3,0.
72,1,1,-1.0000000000000001e-05
72,2,3,0.
73,1,1,-1.0000000000000001e-05
73,2,3,0.
74,1,1,-1.0000000000000001e-05
74,2,3,0.
75,1,1,-1.0000000000000001e-05
75,2,3,0.
76,1,1,-1.0000000000000001e-05
76,2,3,0.
77,1,1,-1.0000000000000001e-05
77,2,3,0.
78,1,1,-1.0000000000000001e-05
78,2,3,0.
79,1,1,-1.0000000000000001e-05
79,2,3,0.
80,1,1,-1.0000000000000001e-05
80,2,3,0.
81,1,1,-1.0000000000000001e-05
81,2,3,0.
82,1,1,-1.0000000000000001e-05
82,2,3,0.
83,1,1,-1.0000000000000001e-05
83,2,3,0.
84,1,1,-1.0000000000000001e-05
84,2,3,0.
85,1,1,-1.0000000000000001e-05
85,2,3,0.
86,1,1,-1.0000000000000001e-05
86,2,3,0.
87,1,1,-1.0000000000000001e-05
87,2,3,0.
88,1,1,-1.0000000000000001e-05
88,2,3,0.
PRIMARY_X0,11,11,300.
SECONDARY_X2,11,11,400.
*Output, field, frequency=1
*Node Output
U,NT,RF,RFL
*Element Output, directions=YES
S
*Contact Output
CSTRESS,CDISP,CFORCE,HFLA,CTANDIR
*End Step
*Step, name=GAP_34, nlgeom=YES, unsymm=YES, extrapolation=NO
*Coupled Temperature-Displacement
0.025,0.025
*Boundary
1,1,1,0
1,2,3,0.
2,1,1,0
2,2,3,0.
3,1,1,0
3,2,3,0.
4,1,1,0
4,2,3,0.
5,1,1,0
5,2,3,0.
6,1,1,0
6,2,3,0.
7,1,1,0
7,2,3,0.
8,1,1,0
8,2,3,0.
9,1,1,0
9,2,3,0.
10,1,1,0
10,2,3,0.
11,1,1,0
11,2,3,0.
12,1,1,0
12,2,3,0.
13,1,1,0
13,2,3,0.
14,1,1,0
14,2,3,0.
15,1,1,0
15,2,3,0.
16,1,1,0
16,2,3,0.
17,1,1,0
17,2,3,0.
18,1,1,0
18,2,3,0.
19,1,1,0
19,2,3,0.
20,1,1,0
20,2,3,0.
21,1,1,0
21,2,3,0.
22,1,1,0
22,2,3,0.
23,1,1,0
23,2,3,0.
24,1,1,0
24,2,3,0.
25,1,1,0
25,2,3,0.
26,1,1,0
26,2,3,0.
27,1,1,0
27,2,3,0.
28,1,1,0
28,2,3,0.
29,1,1,0
29,2,3,0.
30,1,1,0
30,2,3,0.
31,1,1,0
31,2,3,0.
32,1,1,0
32,2,3,0.
33,1,1,0
33,2,3,0.
34,1,1,0
34,2,3,0.
35,1,1,0
35,2,3,0.
36,1,1,0
36,2,3,0.
37,1,1,0
37,2,3,0.
38,1,1,0
38,2,3,0.
39,1,1,0
39,2,3,0.
40,1,1,9.9999999999999995e-08
40,2,3,0.
41,1,1,0
41,2,3,0.
42,1,1,0
42,2,3,0.
43,1,1,0
43,2,3,0.
44,1,1,0
44,2,3,0.
45,1,1,0
45,2,3,0.
46,1,1,0
46,2,3,0.
47,1,1,0
47,2,3,0.
48,1,1,0
48,2,3,0.
49,1,1,0
49,2,3,0.
50,1,1,0
50,2,3,0.
51,1,1,0
51,2,3,0.
52,1,1,0
52,2,3,0.
53,1,1,0
53,2,3,0.
54,1,1,0
54,2,3,0.
55,1,1,0
55,2,3,0.
56,1,1,0
56,2,3,0.
57,1,1,-1.0000000000000001e-05
57,2,3,0.
58,1,1,-1.0000000000000001e-05
58,2,3,0.
59,1,1,-1.0000000000000001e-05
59,2,3,0.
60,1,1,-1.0000000000000001e-05
60,2,3,0.
61,1,1,-1.0000000000000001e-05
61,2,3,0.
62,1,1,-1.0000000000000001e-05
62,2,3,0.
63,1,1,-1.0000000000000001e-05
63,2,3,0.
64,1,1,-1.0000000000000001e-05
64,2,3,0.
65,1,1,-1.0000000000000001e-05
65,2,3,0.
66,1,1,-1.0000000000000001e-05
66,2,3,0.
67,1,1,-1.0000000000000001e-05
67,2,3,0.
68,1,1,-1.0000000000000001e-05
68,2,3,0.
69,1,1,-1.0000000000000001e-05
69,2,3,0.
70,1,1,-1.0000000000000001e-05
70,2,3,0.
71,1,1,-1.0000000000000001e-05
71,2,3,0.
72,1,1,-1.0000000000000001e-05
72,2,3,0.
73,1,1,-1.0000000000000001e-05
73,2,3,0.
74,1,1,-1.0000000000000001e-05
74,2,3,0.
75,1,1,-1.0000000000000001e-05
75,2,3,0.
76,1,1,-1.0000000000000001e-05
76,2,3,0.
77,1,1,-1.0000000000000001e-05
77,2,3,0.
78,1,1,-1.0000000000000001e-05
78,2,3,0.
79,1,1,-1.0000000000000001e-05
79,2,3,0.
80,1,1,-1.0000000000000001e-05
80,2,3,0.
81,1,1,-1.0000000000000001e-05
81,2,3,0.
82,1,1,-1.0000000000000001e-05
82,2,3,0.
83,1,1,-1.0000000000000001e-05
83,2,3,0.
84,1,1,-1.0000000000000001e-05
84,2,3,0.
85,1,1,-1.0000000000000001e-05
85,2,3,0.
86,1,1,-1.0000000000000001e-05
86,2,3,0.
87,1,1,-1.0000000000000001e-05
87,2,3,0.
88,1,1,-1.0000000000000001e-05
88,2,3,0.
PRIMARY_X0,11,11,300.
SECONDARY_X2,11,11,400.
*Output, field, frequency=1
*Node Output
U,NT,RF,RFL
*Element Output, directions=YES
S
*Contact Output
CSTRESS,CDISP,CFORCE,HFLA,CTANDIR
*End Step
*Step, name=GAP_35, nlgeom=YES, unsymm=YES, extrapolation=NO
*Coupled Temperature-Displacement
0.025,0.025
*Boundary
1,1,1,0
1,2,3,0.
2,1,1,0
2,2,3,0.
3,1,1,0
3,2,3,0.
4,1,1,0
4,2,3,0.
5,1,1,0
5,2,3,0.
6,1,1,0
6,2,3,0.
7,1,1,0
7,2,3,0.
8,1,1,0
8,2,3,0.
9,1,1,0
9,2,3,0.
10,1,1,0
10,2,3,0.
11,1,1,0
11,2,3,0.
12,1,1,0
12,2,3,0.
13,1,1,0
13,2,3,0.
14,1,1,0
14,2,3,0.
15,1,1,0
15,2,3,0.
16,1,1,0
16,2,3,0.
17,1,1,0
17,2,3,0.
18,1,1,0
18,2,3,0.
19,1,1,0
19,2,3,0.
20,1,1,0
20,2,3,0.
21,1,1,0
21,2,3,0.
22,1,1,0
22,2,3,0.
23,1,1,0
23,2,3,0.
24,1,1,0
24,2,3,0.
25,1,1,0
25,2,3,0.
26,1,1,0
26,2,3,0.
27,1,1,0
27,2,3,0.
28,1,1,0
28,2,3,0.
29,1,1,0
29,2,3,0.
30,1,1,0
30,2,3,0.
31,1,1,0
31,2,3,0.
32,1,1,0
32,2,3,0.
33,1,1,0
33,2,3,0.
34,1,1,0
34,2,3,0.
35,1,1,0
35,2,3,0.
36,1,1,0
36,2,3,0.
37,1,1,0
37,2,3,0.
38,1,1,0
38,2,3,0.
39,1,1,0
39,2,3,0.
40,1,1,-9.9999999999999995e-08
40,2,3,0.
41,1,1,0
41,2,3,0.
42,1,1,0
42,2,3,0.
43,1,1,0
43,2,3,0.
44,1,1,0
44,2,3,0.
45,1,1,0
45,2,3,0.
46,1,1,0
46,2,3,0.
47,1,1,0
47,2,3,0.
48,1,1,0
48,2,3,0.
49,1,1,0
49,2,3,0.
50,1,1,0
50,2,3,0.
51,1,1,0
51,2,3,0.
52,1,1,0
52,2,3,0.
53,1,1,0
53,2,3,0.
54,1,1,0
54,2,3,0.
55,1,1,0
55,2,3,0.
56,1,1,0
56,2,3,0.
57,1,1,-1.0000000000000001e-05
57,2,3,0.
58,1,1,-1.0000000000000001e-05
58,2,3,0.
59,1,1,-1.0000000000000001e-05
59,2,3,0.
60,1,1,-1.0000000000000001e-05
60,2,3,0.
61,1,1,-1.0000000000000001e-05
61,2,3,0.
62,1,1,-1.0000000000000001e-05
62,2,3,0.
63,1,1,-1.0000000000000001e-05
63,2,3,0.
64,1,1,-1.0000000000000001e-05
64,2,3,0.
65,1,1,-1.0000000000000001e-05
65,2,3,0.
66,1,1,-1.0000000000000001e-05
66,2,3,0.
67,1,1,-1.0000000000000001e-05
67,2,3,0.
68,1,1,-1.0000000000000001e-05
68,2,3,0.
69,1,1,-1.0000000000000001e-05
69,2,3,0.
70,1,1,-1.0000000000000001e-05
70,2,3,0.
71,1,1,-1.0000000000000001e-05
71,2,3,0.
72,1,1,-1.0000000000000001e-05
72,2,3,0.
73,1,1,-1.0000000000000001e-05
73,2,3,0.
74,1,1,-1.0000000000000001e-05
74,2,3,0.
75,1,1,-1.0000000000000001e-05
75,2,3,0.
76,1,1,-1.0000000000000001e-05
76,2,3,0.
77,1,1,-1.0000000000000001e-05
77,2,3,0.
78,1,1,-1.0000000000000001e-05
78,2,3,0.
79,1,1,-1.0000000000000001e-05
79,2,3,0.
80,1,1,-1.0000000000000001e-05
80,2,3,0.
81,1,1,-1.0000000000000001e-05
81,2,3,0.
82,1,1,-1.0000000000000001e-05
82,2,3,0.
83,1,1,-1.0000000000000001e-05
83,2,3,0.
84,1,1,-1.0000000000000001e-05
84,2,3,0.
85,1,1,-1.0000000000000001e-05
85,2,3,0.
86,1,1,-1.0000000000000001e-05
86,2,3,0.
87,1,1,-1.0000000000000001e-05
87,2,3,0.
88,1,1,-1.0000000000000001e-05
88,2,3,0.
PRIMARY_X0,11,11,300.
SECONDARY_X2,11,11,400.
*Output, field, frequency=1
*Node Output
U,NT,RF,RFL
*Element Output, directions=YES
S
*Contact Output
CSTRESS,CDISP,CFORCE,HFLA,CTANDIR
*End Step
*Step, name=GAP_36, nlgeom=YES, unsymm=YES, extrapolation=NO
*Coupled Temperature-Displacement
0.025,0.025
*Boundary
1,1,1,0
1,2,3,0.
2,1,1,0
2,2,3,0.
3,1,1,0
3,2,3,0.
4,1,1,0
4,2,3,0.
5,1,1,0
5,2,3,0.
6,1,1,0
6,2,3,0.
7,1,1,0
7,2,3,0.
8,1,1,0
8,2,3,0.
9,1,1,0
9,2,3,0.
10,1,1,0
10,2,3,0.
11,1,1,0
11,2,3,0.
12,1,1,0
12,2,3,0.
13,1,1,0
13,2,3,0.
14,1,1,0
14,2,3,0.
15,1,1,0
15,2,3,0.
16,1,1,0
16,2,3,0.
17,1,1,0
17,2,3,0.
18,1,1,0
18,2,3,0.
19,1,1,0
19,2,3,0.
20,1,1,0
20,2,3,0.
21,1,1,0
21,2,3,0.
22,1,1,0
22,2,3,0.
23,1,1,0
23,2,3,0.
24,1,1,0
24,2,3,0.
25,1,1,0
25,2,3,0.
26,1,1,0
26,2,3,0.
27,1,1,0
27,2,3,0.
28,1,1,0
28,2,3,0.
29,1,1,0
29,2,3,0.
30,1,1,0
30,2,3,0.
31,1,1,0
31,2,3,0.
32,1,1,0
32,2,3,0.
33,1,1,0
33,2,3,0.
34,1,1,0
34,2,3,0.
35,1,1,0
35,2,3,0.
36,1,1,0
36,2,3,0.
37,1,1,0
37,2,3,0.
38,1,1,0
38,2,3,0.
39,1,1,0
39,2,3,0.
40,1,1,0
40,2,3,0.
41,1,1,0
41,2,3,0.
42,1,1,9.9999999999999995e-08
42,2,3,0.
43,1,1,0
43,2,3,0.
44,1,1,0
44,2,3,0.
45,1,1,0
45,2,3,0.
46,1,1,0
46,2,3,0.
47,1,1,0
47,2,3,0.
48,1,1,0
48,2,3,0.
49,1,1,0
49,2,3,0.
50,1,1,0
50,2,3,0.
51,1,1,0
51,2,3,0.
52,1,1,0
52,2,3,0.
53,1,1,0
53,2,3,0.
54,1,1,0
54,2,3,0.
55,1,1,0
55,2,3,0.
56,1,1,0
56,2,3,0.
57,1,1,-1.0000000000000001e-05
57,2,3,0.
58,1,1,-1.0000000000000001e-05
58,2,3,0.
59,1,1,-1.0000000000000001e-05
59,2,3,0.
60,1,1,-1.0000000000000001e-05
60,2,3,0.
61,1,1,-1.0000000000000001e-05
61,2,3,0.
62,1,1,-1.0000000000000001e-05
62,2,3,0.
63,1,1,-1.0000000000000001e-05
63,2,3,0.
64,1,1,-1.0000000000000001e-05
64,2,3,0.
65,1,1,-1.0000000000000001e-05
65,2,3,0.
66,1,1,-1.0000000000000001e-05
66,2,3,0.
67,1,1,-1.0000000000000001e-05
67,2,3,0.
68,1,1,-1.0000000000000001e-05
68,2,3,0.
69,1,1,-1.0000000000000001e-05
69,2,3,0.
70,1,1,-1.0000000000000001e-05
70,2,3,0.
71,1,1,-1.0000000000000001e-05
71,2,3,0.
72,1,1,-1.0000000000000001e-05
72,2,3,0.
73,1,1,-1.0000000000000001e-05
73,2,3,0.
74,1,1,-1.0000000000000001e-05
74,2,3,0.
75,1,1,-1.0000000000000001e-05
75,2,3,0.
76,1,1,-1.0000000000000001e-05
76,2,3,0.
77,1,1,-1.0000000000000001e-05
77,2,3,0.
78,1,1,-1.0000000000000001e-05
78,2,3,0.
79,1,1,-1.0000000000000001e-05
79,2,3,0.
80,1,1,-1.0000000000000001e-05
80,2,3,0.
81,1,1,-1.0000000000000001e-05
81,2,3,0.
82,1,1,-1.0000000000000001e-05
82,2,3,0.
83,1,1,-1.0000000000000001e-05
83,2,3,0.
84,1,1,-1.0000000000000001e-05
84,2,3,0.
85,1,1,-1.0000000000000001e-05
85,2,3,0.
86,1,1,-1.0000000000000001e-05
86,2,3,0.
87,1,1,-1.0000000000000001e-05
87,2,3,0.
88,1,1,-1.0000000000000001e-05
88,2,3,0.
PRIMARY_X0,11,11,300.
SECONDARY_X2,11,11,400.
*Output, field, frequency=1
*Node Output
U,NT,RF,RFL
*Element Output, directions=YES
S
*Contact Output
CSTRESS,CDISP,CFORCE,HFLA,CTANDIR
*End Step
*Step, name=GAP_37, nlgeom=YES, unsymm=YES, extrapolation=NO
*Coupled Temperature-Displacement
0.025,0.025
*Boundary
1,1,1,0
1,2,3,0.
2,1,1,0
2,2,3,0.
3,1,1,0
3,2,3,0.
4,1,1,0
4,2,3,0.
5,1,1,0
5,2,3,0.
6,1,1,0
6,2,3,0.
7,1,1,0
7,2,3,0.
8,1,1,0
8,2,3,0.
9,1,1,0
9,2,3,0.
10,1,1,0
10,2,3,0.
11,1,1,0
11,2,3,0.
12,1,1,0
12,2,3,0.
13,1,1,0
13,2,3,0.
14,1,1,0
14,2,3,0.
15,1,1,0
15,2,3,0.
16,1,1,0
16,2,3,0.
17,1,1,0
17,2,3,0.
18,1,1,0
18,2,3,0.
19,1,1,0
19,2,3,0.
20,1,1,0
20,2,3,0.
21,1,1,0
21,2,3,0.
22,1,1,0
22,2,3,0.
23,1,1,0
23,2,3,0.
24,1,1,0
24,2,3,0.
25,1,1,0
25,2,3,0.
26,1,1,0
26,2,3,0.
27,1,1,0
27,2,3,0.
28,1,1,0
28,2,3,0.
29,1,1,0
29,2,3,0.
30,1,1,0
30,2,3,0.
31,1,1,0
31,2,3,0.
32,1,1,0
32,2,3,0.
33,1,1,0
33,2,3,0.
34,1,1,0
34,2,3,0.
35,1,1,0
35,2,3,0.
36,1,1,0
36,2,3,0.
37,1,1,0
37,2,3,0.
38,1,1,0
38,2,3,0.
39,1,1,0
39,2,3,0.
40,1,1,0
40,2,3,0.
41,1,1,0
41,2,3,0.
42,1,1,-9.9999999999999995e-08
42,2,3,0.
43,1,1,0
43,2,3,0.
44,1,1,0
44,2,3,0.
45,1,1,0
45,2,3,0.
46,1,1,0
46,2,3,0.
47,1,1,0
47,2,3,0.
48,1,1,0
48,2,3,0.
49,1,1,0
49,2,3,0.
50,1,1,0
50,2,3,0.
51,1,1,0
51,2,3,0.
52,1,1,0
52,2,3,0.
53,1,1,0
53,2,3,0.
54,1,1,0
54,2,3,0.
55,1,1,0
55,2,3,0.
56,1,1,0
56,2,3,0.
57,1,1,-1.0000000000000001e-05
57,2,3,0.
58,1,1,-1.0000000000000001e-05
58,2,3,0.
59,1,1,-1.0000000000000001e-05
59,2,3,0.
60,1,1,-1.0000000000000001e-05
60,2,3,0.
61,1,1,-1.0000000000000001e-05
61,2,3,0.
62,1,1,-1.0000000000000001e-05
62,2,3,0.
63,1,1,-1.0000000000000001e-05
63,2,3,0.
64,1,1,-1.0000000000000001e-05
64,2,3,0.
65,1,1,-1.0000000000000001e-05
65,2,3,0.
66,1,1,-1.0000000000000001e-05
66,2,3,0.
67,1,1,-1.0000000000000001e-05
67,2,3,0.
68,1,1,-1.0000000000000001e-05
68,2,3,0.
69,1,1,-1.0000000000000001e-05
69,2,3,0.
70,1,1,-1.0000000000000001e-05
70,2,3,0.
71,1,1,-1.0000000000000001e-05
71,2,3,0.
72,1,1,-1.0000000000000001e-05
72,2,3,0.
73,1,1,-1.0000000000000001e-05
73,2,3,0.
74,1,1,-1.0000000000000001e-05
74,2,3,0.
75,1,1,-1.0000000000000001e-05
75,2,3,0.
76,1,1,-1.0000000000000001e-05
76,2,3,0.
77,1,1,-1.0000000000000001e-05
77,2,3,0.
78,1,1,-1.0000000000000001e-05
78,2,3,0.
79,1,1,-1.0000000000000001e-05
79,2,3,0.
80,1,1,-1.0000000000000001e-05
80,2,3,0.
81,1,1,-1.0000000000000001e-05
81,2,3,0.
82,1,1,-1.0000000000000001e-05
82,2,3,0.
83,1,1,-1.0000000000000001e-05
83,2,3,0.
84,1,1,-1.0000000000000001e-05
84,2,3,0.
85,1,1,-1.0000000000000001e-05
85,2,3,0.
86,1,1,-1.0000000000000001e-05
86,2,3,0.
87,1,1,-1.0000000000000001e-05
87,2,3,0.
88,1,1,-1.0000000000000001e-05
88,2,3,0.
PRIMARY_X0,11,11,300.
SECONDARY_X2,11,11,400.
*Output, field, frequency=1
*Node Output
U,NT,RF,RFL
*Element Output, directions=YES
S
*Contact Output
CSTRESS,CDISP,CFORCE,HFLA,CTANDIR
*End Step
*Step, name=GAP_38, nlgeom=YES, unsymm=YES, extrapolation=NO
*Coupled Temperature-Displacement
0.025,0.025
*Boundary
1,1,1,0
1,2,3,0.
2,1,1,0
2,2,3,0.
3,1,1,0
3,2,3,0.
4,1,1,0
4,2,3,0.
5,1,1,0
5,2,3,0.
6,1,1,0
6,2,3,0.
7,1,1,0
7,2,3,0.
8,1,1,0
8,2,3,0.
9,1,1,0
9,2,3,0.
10,1,1,0
10,2,3,0.
11,1,1,0
11,2,3,0.
12,1,1,0
12,2,3,0.
13,1,1,0
13,2,3,0.
14,1,1,0
14,2,3,0.
15,1,1,0
15,2,3,0.
16,1,1,0
16,2,3,0.
17,1,1,0
17,2,3,0.
18,1,1,0
18,2,3,0.
19,1,1,0
19,2,3,0.
20,1,1,0
20,2,3,0.
21,1,1,0
21,2,3,0.
22,1,1,0
22,2,3,0.
23,1,1,0
23,2,3,0.
24,1,1,0
24,2,3,0.
25,1,1,0
25,2,3,0.
26,1,1,0
26,2,3,0.
27,1,1,0
27,2,3,0.
28,1,1,0
28,2,3,0.
29,1,1,0
29,2,3,0.
30,1,1,0
30,2,3,0.
31,1,1,0
31,2,3,0.
32,1,1,0
32,2,3,0.
33,1,1,0
33,2,3,0.
34,1,1,0
34,2,3,0.
35,1,1,0
35,2,3,0.
36,1,1,0
36,2,3,0.
37,1,1,0
37,2,3,0.
38,1,1,0
38,2,3,0.
39,1,1,0
39,2,3,0.
40,1,1,0
40,2,3,0.
41,1,1,0
41,2,3,0.
42,1,1,0
42,2,3,0.
43,1,1,0
43,2,3,0.
44,1,1,0
44,2,3,0.
45,1,1,9.9999999999999995e-08
45,2,3,0.
46,1,1,0
46,2,3,0.
47,1,1,0
47,2,3,0.
48,1,1,0
48,2,3,0.
49,1,1,0
49,2,3,0.
50,1,1,0
50,2,3,0.
51,1,1,0
51,2,3,0.
52,1,1,0
52,2,3,0.
53,1,1,0
53,2,3,0.
54,1,1,0
54,2,3,0.
55,1,1,0
55,2,3,0.
56,1,1,0
56,2,3,0.
57,1,1,-1.0000000000000001e-05
57,2,3,0.
58,1,1,-1.0000000000000001e-05
58,2,3,0.
59,1,1,-1.0000000000000001e-05
59,2,3,0.
60,1,1,-1.0000000000000001e-05
60,2,3,0.
61,1,1,-1.0000000000000001e-05
61,2,3,0.
62,1,1,-1.0000000000000001e-05
62,2,3,0.
63,1,1,-1.0000000000000001e-05
63,2,3,0.
64,1,1,-1.0000000000000001e-05
64,2,3,0.
65,1,1,-1.0000000000000001e-05
65,2,3,0.
66,1,1,-1.0000000000000001e-05
66,2,3,0.
67,1,1,-1.0000000000000001e-05
67,2,3,0.
68,1,1,-1.0000000000000001e-05
68,2,3,0.
69,1,1,-1.0000000000000001e-05
69,2,3,0.
70,1,1,-1.0000000000000001e-05
70,2,3,0.
71,1,1,-1.0000000000000001e-05
71,2,3,0.
72,1,1,-1.0000000000000001e-05
72,2,3,0.
73,1,1,-1.0000000000000001e-05
73,2,3,0.
74,1,1,-1.0000000000000001e-05
74,2,3,0.
75,1,1,-1.0000000000000001e-05
75,2,3,0.
76,1,1,-1.0000000000000001e-05
76,2,3,0.
77,1,1,-1.0000000000000001e-05
77,2,3,0.
78,1,1,-1.0000000000000001e-05
78,2,3,0.
79,1,1,-1.0000000000000001e-05
79,2,3,0.
80,1,1,-1.0000000000000001e-05
80,2,3,0.
81,1,1,-1.0000000000000001e-05
81,2,3,0.
82,1,1,-1.0000000000000001e-05
82,2,3,0.
83,1,1,-1.0000000000000001e-05
83,2,3,0.
84,1,1,-1.0000000000000001e-05
84,2,3,0.
85,1,1,-1.0000000000000001e-05
85,2,3,0.
86,1,1,-1.0000000000000001e-05
86,2,3,0.
87,1,1,-1.0000000000000001e-05
87,2,3,0.
88,1,1,-1.0000000000000001e-05
88,2,3,0.
PRIMARY_X0,11,11,300.
SECONDARY_X2,11,11,400.
*Output, field, frequency=1
*Node Output
U,NT,RF,RFL
*Element Output, directions=YES
S
*Contact Output
CSTRESS,CDISP,CFORCE,HFLA,CTANDIR
*End Step
*Step, name=GAP_39, nlgeom=YES, unsymm=YES, extrapolation=NO
*Coupled Temperature-Displacement
0.025,0.025
*Boundary
1,1,1,0
1,2,3,0.
2,1,1,0
2,2,3,0.
3,1,1,0
3,2,3,0.
4,1,1,0
4,2,3,0.
5,1,1,0
5,2,3,0.
6,1,1,0
6,2,3,0.
7,1,1,0
7,2,3,0.
8,1,1,0
8,2,3,0.
9,1,1,0
9,2,3,0.
10,1,1,0
10,2,3,0.
11,1,1,0
11,2,3,0.
12,1,1,0
12,2,3,0.
13,1,1,0
13,2,3,0.
14,1,1,0
14,2,3,0.
15,1,1,0
15,2,3,0.
16,1,1,0
16,2,3,0.
17,1,1,0
17,2,3,0.
18,1,1,0
18,2,3,0.
19,1,1,0
19,2,3,0.
20,1,1,0
20,2,3,0.
21,1,1,0
21,2,3,0.
22,1,1,0
22,2,3,0.
23,1,1,0
23,2,3,0.
24,1,1,0
24,2,3,0.
25,1,1,0
25,2,3,0.
26,1,1,0
26,2,3,0.
27,1,1,0
27,2,3,0.
28,1,1,0
28,2,3,0.
29,1,1,0
29,2,3,0.
30,1,1,0
30,2,3,0.
31,1,1,0
31,2,3,0.
32,1,1,0
32,2,3,0.
33,1,1,0
33,2,3,0.
34,1,1,0
34,2,3,0.
35,1,1,0
35,2,3,0.
36,1,1,0
36,2,3,0.
37,1,1,0
37,2,3,0.
38,1,1,0
38,2,3,0.
39,1,1,0
39,2,3,0.
40,1,1,0
40,2,3,0.
41,1,1,0
41,2,3,0.
42,1,1,0
42,2,3,0.
43,1,1,0
43,2,3,0.
44,1,1,0
44,2,3,0.
45,1,1,-9.9999999999999995e-08
45,2,3,0.
46,1,1,0
46,2,3,0.
47,1,1,0
47,2,3,0.
48,1,1,0
48,2,3,0.
49,1,1,0
49,2,3,0.
50,1,1,0
50,2,3,0.
51,1,1,0
51,2,3,0.
52,1,1,0
52,2,3,0.
53,1,1,0
53,2,3,0.
54,1,1,0
54,2,3,0.
55,1,1,0
55,2,3,0.
56,1,1,0
56,2,3,0.
57,1,1,-1.0000000000000001e-05
57,2,3,0.
58,1,1,-1.0000000000000001e-05
58,2,3,0.
59,1,1,-1.0000000000000001e-05
59,2,3,0.
60,1,1,-1.0000000000000001e-05
60,2,3,0.
61,1,1,-1.0000000000000001e-05
61,2,3,0.
62,1,1,-1.0000000000000001e-05
62,2,3,0.
63,1,1,-1.0000000000000001e-05
63,2,3,0.
64,1,1,-1.0000000000000001e-05
64,2,3,0.
65,1,1,-1.0000000000000001e-05
65,2,3,0.
66,1,1,-1.0000000000000001e-05
66,2,3,0.
67,1,1,-1.0000000000000001e-05
67,2,3,0.
68,1,1,-1.0000000000000001e-05
68,2,3,0.
69,1,1,-1.0000000000000001e-05
69,2,3,0.
70,1,1,-1.0000000000000001e-05
70,2,3,0.
71,1,1,-1.0000000000000001e-05
71,2,3,0.
72,1,1,-1.0000000000000001e-05
72,2,3,0.
73,1,1,-1.0000000000000001e-05
73,2,3,0.
74,1,1,-1.0000000000000001e-05
74,2,3,0.
75,1,1,-1.0000000000000001e-05
75,2,3,0.
76,1,1,-1.0000000000000001e-05
76,2,3,0.
77,1,1,-1.0000000000000001e-05
77,2,3,0.
78,1,1,-1.0000000000000001e-05
78,2,3,0.
79,1,1,-1.0000000000000001e-05
79,2,3,0.
80,1,1,-1.0000000000000001e-05
80,2,3,0.
81,1,1,-1.0000000000000001e-05
81,2,3,0.
82,1,1,-1.0000000000000001e-05
82,2,3,0.
83,1,1,-1.0000000000000001e-05
83,2,3,0.
84,1,1,-1.0000000000000001e-05
84,2,3,0.
85,1,1,-1.0000000000000001e-05
85,2,3,0.
86,1,1,-1.0000000000000001e-05
86,2,3,0.
87,1,1,-1.0000000000000001e-05
87,2,3,0.
88,1,1,-1.0000000000000001e-05
88,2,3,0.
PRIMARY_X0,11,11,300.
SECONDARY_X2,11,11,400.
*Output, field, frequency=1
*Node Output
U,NT,RF,RFL
*Element Output, directions=YES
S
*Contact Output
CSTRESS,CDISP,CFORCE,HFLA,CTANDIR
*End Step
*Step, name=GAP_40, nlgeom=YES, unsymm=YES, extrapolation=NO
*Coupled Temperature-Displacement
0.025,0.025
*Boundary
1,1,1,0
1,2,3,0.
2,1,1,0
2,2,3,0.
3,1,1,0
3,2,3,0.
4,1,1,0
4,2,3,0.
5,1,1,0
5,2,3,0.
6,1,1,0
6,2,3,0.
7,1,1,0
7,2,3,0.
8,1,1,0
8,2,3,0.
9,1,1,0
9,2,3,0.
10,1,1,0
10,2,3,0.
11,1,1,0
11,2,3,0.
12,1,1,0
12,2,3,0.
13,1,1,0
13,2,3,0.
14,1,1,0
14,2,3,0.
15,1,1,0
15,2,3,0.
16,1,1,0
16,2,3,0.
17,1,1,0
17,2,3,0.
18,1,1,0
18,2,3,0.
19,1,1,0
19,2,3,0.
20,1,1,0
20,2,3,0.
21,1,1,0
21,2,3,0.
22,1,1,0
22,2,3,0.
23,1,1,0
23,2,3,0.
24,1,1,0
24,2,3,0.
25,1,1,0
25,2,3,0.
26,1,1,0
26,2,3,0.
27,1,1,0
27,2,3,0.
28,1,1,0
28,2,3,0.
29,1,1,0
29,2,3,0.
30,1,1,0
30,2,3,0.
31,1,1,0
31,2,3,0.
32,1,1,0
32,2,3,0.
33,1,1,0
33,2,3,0.
34,1,1,0
34,2,3,0.
35,1,1,0
35,2,3,0.
36,1,1,0
36,2,3,0.
37,1,1,0
37,2,3,0.
38,1,1,0
38,2,3,0.
39,1,1,0
39,2,3,0.
40,1,1,0
40,2,3,0.
41,1,1,0
41,2,3,0.
42,1,1,0
42,2,3,0.
43,1,1,0
43,2,3,0.
44,1,1,0
44,2,3,0.
45,1,1,0
45,2,3,0.
46,1,1,0
46,2,3,0.
47,1,1,9.9999999999999995e-08
47,2,3,0.
48,1,1,0
48,2,3,0.
49,1,1,0
49,2,3,0.
50,1,1,0
50,2,3,0.
51,1,1,0
51,2,3,0.
52,1,1,0
52,2,3,0.
53,1,1,0
53,2,3,0.
54,1,1,0
54,2,3,0.
55,1,1,0
55,2,3,0.
56,1,1,0
56,2,3,0.
57,1,1,-1.0000000000000001e-05
57,2,3,0.
58,1,1,-1.0000000000000001e-05
58,2,3,0.
59,1,1,-1.0000000000000001e-05
59,2,3,0.
60,1,1,-1.0000000000000001e-05
60,2,3,0.
61,1,1,-1.0000000000000001e-05
61,2,3,0.
62,1,1,-1.0000000000000001e-05
62,2,3,0.
63,1,1,-1.0000000000000001e-05
63,2,3,0.
64,1,1,-1.0000000000000001e-05
64,2,3,0.
65,1,1,-1.0000000000000001e-05
65,2,3,0.
66,1,1,-1.0000000000000001e-05
66,2,3,0.
67,1,1,-1.0000000000000001e-05
67,2,3,0.
68,1,1,-1.0000000000000001e-05
68,2,3,0.
69,1,1,-1.0000000000000001e-05
69,2,3,0.
70,1,1,-1.0000000000000001e-05
70,2,3,0.
71,1,1,-1.0000000000000001e-05
71,2,3,0.
72,1,1,-1.0000000000000001e-05
72,2,3,0.
73,1,1,-1.0000000000000001e-05
73,2,3,0.
74,1,1,-1.0000000000000001e-05
74,2,3,0.
75,1,1,-1.0000000000000001e-05
75,2,3,0.
76,1,1,-1.0000000000000001e-05
76,2,3,0.
77,1,1,-1.0000000000000001e-05
77,2,3,0.
78,1,1,-1.0000000000000001e-05
78,2,3,0.
79,1,1,-1.0000000000000001e-05
79,2,3,0.
80,1,1,-1.0000000000000001e-05
80,2,3,0.
81,1,1,-1.0000000000000001e-05
81,2,3,0.
82,1,1,-1.0000000000000001e-05
82,2,3,0.
83,1,1,-1.0000000000000001e-05
83,2,3,0.
84,1,1,-1.0000000000000001e-05
84,2,3,0.
85,1,1,-1.0000000000000001e-05
85,2,3,0.
86,1,1,-1.0000000000000001e-05
86,2,3,0.
87,1,1,-1.0000000000000001e-05
87,2,3,0.
88,1,1,-1.0000000000000001e-05
88,2,3,0.
PRIMARY_X0,11,11,300.
SECONDARY_X2,11,11,400.
*Output, field, frequency=1
*Node Output
U,NT,RF,RFL
*Element Output, directions=YES
S
*Contact Output
CSTRESS,CDISP,CFORCE,HFLA,CTANDIR
*End Step
*Step, name=GAP_41, nlgeom=YES, unsymm=YES, extrapolation=NO
*Coupled Temperature-Displacement
0.025,0.025
*Boundary
1,1,1,0
1,2,3,0.
2,1,1,0
2,2,3,0.
3,1,1,0
3,2,3,0.
4,1,1,0
4,2,3,0.
5,1,1,0
5,2,3,0.
6,1,1,0
6,2,3,0.
7,1,1,0
7,2,3,0.
8,1,1,0
8,2,3,0.
9,1,1,0
9,2,3,0.
10,1,1,0
10,2,3,0.
11,1,1,0
11,2,3,0.
12,1,1,0
12,2,3,0.
13,1,1,0
13,2,3,0.
14,1,1,0
14,2,3,0.
15,1,1,0
15,2,3,0.
16,1,1,0
16,2,3,0.
17,1,1,0
17,2,3,0.
18,1,1,0
18,2,3,0.
19,1,1,0
19,2,3,0.
20,1,1,0
20,2,3,0.
21,1,1,0
21,2,3,0.
22,1,1,0
22,2,3,0.
23,1,1,0
23,2,3,0.
24,1,1,0
24,2,3,0.
25,1,1,0
25,2,3,0.
26,1,1,0
26,2,3,0.
27,1,1,0
27,2,3,0.
28,1,1,0
28,2,3,0.
29,1,1,0
29,2,3,0.
30,1,1,0
30,2,3,0.
31,1,1,0
31,2,3,0.
32,1,1,0
32,2,3,0.
33,1,1,0
33,2,3,0.
34,1,1,0
34,2,3,0.
35,1,1,0
35,2,3,0.
36,1,1,0
36,2,3,0.
37,1,1,0
37,2,3,0.
38,1,1,0
38,2,3,0.
39,1,1,0
39,2,3,0.
40,1,1,0
40,2,3,0.
41,1,1,0
41,2,3,0.
42,1,1,0
42,2,3,0.
43,1,1,0
43,2,3,0.
44,1,1,0
44,2,3,0.
45,1,1,0
45,2,3,0.
46,1,1,0
46,2,3,0.
47,1,1,-9.9999999999999995e-08
47,2,3,0.
48,1,1,0
48,2,3,0.
49,1,1,0
49,2,3,0.
50,1,1,0
50,2,3,0.
51,1,1,0
51,2,3,0.
52,1,1,0
52,2,3,0.
53,1,1,0
53,2,3,0.
54,1,1,0
54,2,3,0.
55,1,1,0
55,2,3,0.
56,1,1,0
56,2,3,0.
57,1,1,-1.0000000000000001e-05
57,2,3,0.
58,1,1,-1.0000000000000001e-05
58,2,3,0.
59,1,1,-1.0000000000000001e-05
59,2,3,0.
60,1,1,-1.0000000000000001e-05
60,2,3,0.
61,1,1,-1.0000000000000001e-05
61,2,3,0.
62,1,1,-1.0000000000000001e-05
62,2,3,0.
63,1,1,-1.0000000000000001e-05
63,2,3,0.
64,1,1,-1.0000000000000001e-05
64,2,3,0.
65,1,1,-1.0000000000000001e-05
65,2,3,0.
66,1,1,-1.0000000000000001e-05
66,2,3,0.
67,1,1,-1.0000000000000001e-05
67,2,3,0.
68,1,1,-1.0000000000000001e-05
68,2,3,0.
69,1,1,-1.0000000000000001e-05
69,2,3,0.
70,1,1,-1.0000000000000001e-05
70,2,3,0.
71,1,1,-1.0000000000000001e-05
71,2,3,0.
72,1,1,-1.0000000000000001e-05
72,2,3,0.
73,1,1,-1.0000000000000001e-05
73,2,3,0.
74,1,1,-1.0000000000000001e-05
74,2,3,0.
75,1,1,-1.0000000000000001e-05
75,2,3,0.
76,1,1,-1.0000000000000001e-05
76,2,3,0.
77,1,1,-1.0000000000000001e-05
77,2,3,0.
78,1,1,-1.0000000000000001e-05
78,2,3,0.
79,1,1,-1.0000000000000001e-05
79,2,3,0.
80,1,1,-1.0000000000000001e-05
80,2,3,0.
81,1,1,-1.0000000000000001e-05
81,2,3,0.
82,1,1,-1.0000000000000001e-05
82,2,3,0.
83,1,1,-1.0000000000000001e-05
83,2,3,0.
84,1,1,-1.0000000000000001e-05
84,2,3,0.
85,1,1,-1.0000000000000001e-05
85,2,3,0.
86,1,1,-1.0000000000000001e-05
86,2,3,0.
87,1,1,-1.0000000000000001e-05
87,2,3,0.
88,1,1,-1.0000000000000001e-05
88,2,3,0.
PRIMARY_X0,11,11,300.
SECONDARY_X2,11,11,400.
*Output, field, frequency=1
*Node Output
U,NT,RF,RFL
*Element Output, directions=YES
S
*Contact Output
CSTRESS,CDISP,CFORCE,HFLA,CTANDIR
*End Step
*Step, name=GAP_42, nlgeom=YES, unsymm=YES, extrapolation=NO
*Coupled Temperature-Displacement
0.025,0.025
*Boundary
1,1,1,0
1,2,3,0.
2,1,1,0
2,2,3,0.
3,1,1,0
3,2,3,0.
4,1,1,0
4,2,3,0.
5,1,1,0
5,2,3,0.
6,1,1,0
6,2,3,0.
7,1,1,0
7,2,3,0.
8,1,1,0
8,2,3,0.
9,1,1,0
9,2,3,0.
10,1,1,0
10,2,3,0.
11,1,1,0
11,2,3,0.
12,1,1,0
12,2,3,0.
13,1,1,0
13,2,3,0.
14,1,1,0
14,2,3,0.
15,1,1,0
15,2,3,0.
16,1,1,0
16,2,3,0.
17,1,1,0
17,2,3,0.
18,1,1,0
18,2,3,0.
19,1,1,0
19,2,3,0.
20,1,1,0
20,2,3,0.
21,1,1,0
21,2,3,0.
22,1,1,0
22,2,3,0.
23,1,1,0
23,2,3,0.
24,1,1,0
24,2,3,0.
25,1,1,0
25,2,3,0.
26,1,1,0
26,2,3,0.
27,1,1,0
27,2,3,0.
28,1,1,0
28,2,3,0.
29,1,1,0
29,2,3,0.
30,1,1,0
30,2,3,0.
31,1,1,0
31,2,3,0.
32,1,1,0
32,2,3,0.
33,1,1,0
33,2,3,0.
34,1,1,0
34,2,3,0.
35,1,1,0
35,2,3,0.
36,1,1,0
36,2,3,0.
37,1,1,0
37,2,3,0.
38,1,1,0
38,2,3,0.
39,1,1,0
39,2,3,0.
40,1,1,0
40,2,3,0.
41,1,1,0
41,2,3,0.
42,1,1,0
42,2,3,0.
43,1,1,0
43,2,3,0.
44,1,1,0
44,2,3,0.
45,1,1,0
45,2,3,0.
46,1,1,0
46,2,3,0.
47,1,1,0
47,2,3,0.
48,1,1,0
48,2,3,0.
49,1,1,9.9999999999999995e-08
49,2,3,0.
50,1,1,0
50,2,3,0.
51,1,1,0
51,2,3,0.
52,1,1,0
52,2,3,0.
53,1,1,0
53,2,3,0.
54,1,1,0
54,2,3,0.
55,1,1,0
55,2,3,0.
56,1,1,0
56,2,3,0.
57,1,1,-1.0000000000000001e-05
57,2,3,0.
58,1,1,-1.0000000000000001e-05
58,2,3,0.
59,1,1,-1.0000000000000001e-05
59,2,3,0.
60,1,1,-1.0000000000000001e-05
60,2,3,0.
61,1,1,-1.0000000000000001e-05
61,2,3,0.
62,1,1,-1.0000000000000001e-05
62,2,3,0.
63,1,1,-1.0000000000000001e-05
63,2,3,0.
64,1,1,-1.0000000000000001e-05
64,2,3,0.
65,1,1,-1.0000000000000001e-05
65,2,3,0.
66,1,1,-1.0000000000000001e-05
66,2,3,0.
67,1,1,-1.0000000000000001e-05
67,2,3,0.
68,1,1,-1.0000000000000001e-05
68,2,3,0.
69,1,1,-1.0000000000000001e-05
69,2,3,0.
70,1,1,-1.0000000000000001e-05
70,2,3,0.
71,1,1,-1.0000000000000001e-05
71,2,3,0.
72,1,1,-1.0000000000000001e-05
72,2,3,0.
73,1,1,-1.0000000000000001e-05
73,2,3,0.
74,1,1,-1.0000000000000001e-05
74,2,3,0.
75,1,1,-1.0000000000000001e-05
75,2,3,0.
76,1,1,-1.0000000000000001e-05
76,2,3,0.
77,1,1,-1.0000000000000001e-05
77,2,3,0.
78,1,1,-1.0000000000000001e-05
78,2,3,0.
79,1,1,-1.0000000000000001e-05
79,2,3,0.
80,1,1,-1.0000000000000001e-05
80,2,3,0.
81,1,1,-1.0000000000000001e-05
81,2,3,0.
82,1,1,-1.0000000000000001e-05
82,2,3,0.
83,1,1,-1.0000000000000001e-05
83,2,3,0.
84,1,1,-1.0000000000000001e-05
84,2,3,0.
85,1,1,-1.0000000000000001e-05
85,2,3,0.
86,1,1,-1.0000000000000001e-05
86,2,3,0.
87,1,1,-1.0000000000000001e-05
87,2,3,0.
88,1,1,-1.0000000000000001e-05
88,2,3,0.
PRIMARY_X0,11,11,300.
SECONDARY_X2,11,11,400.
*Output, field, frequency=1
*Node Output
U,NT,RF,RFL
*Element Output, directions=YES
S
*Contact Output
CSTRESS,CDISP,CFORCE,HFLA,CTANDIR
*End Step
*Step, name=GAP_43, nlgeom=YES, unsymm=YES, extrapolation=NO
*Coupled Temperature-Displacement
0.025,0.025
*Boundary
1,1,1,0
1,2,3,0.
2,1,1,0
2,2,3,0.
3,1,1,0
3,2,3,0.
4,1,1,0
4,2,3,0.
5,1,1,0
5,2,3,0.
6,1,1,0
6,2,3,0.
7,1,1,0
7,2,3,0.
8,1,1,0
8,2,3,0.
9,1,1,0
9,2,3,0.
10,1,1,0
10,2,3,0.
11,1,1,0
11,2,3,0.
12,1,1,0
12,2,3,0.
13,1,1,0
13,2,3,0.
14,1,1,0
14,2,3,0.
15,1,1,0
15,2,3,0.
16,1,1,0
16,2,3,0.
17,1,1,0
17,2,3,0.
18,1,1,0
18,2,3,0.
19,1,1,0
19,2,3,0.
20,1,1,0
20,2,3,0.
21,1,1,0
21,2,3,0.
22,1,1,0
22,2,3,0.
23,1,1,0
23,2,3,0.
24,1,1,0
24,2,3,0.
25,1,1,0
25,2,3,0.
26,1,1,0
26,2,3,0.
27,1,1,0
27,2,3,0.
28,1,1,0
28,2,3,0.
29,1,1,0
29,2,3,0.
30,1,1,0
30,2,3,0.
31,1,1,0
31,2,3,0.
32,1,1,0
32,2,3,0.
33,1,1,0
33,2,3,0.
34,1,1,0
34,2,3,0.
35,1,1,0
35,2,3,0.
36,1,1,0
36,2,3,0.
37,1,1,0
37,2,3,0.
38,1,1,0
38,2,3,0.
39,1,1,0
39,2,3,0.
40,1,1,0
40,2,3,0.
41,1,1,0
41,2,3,0.
42,1,1,0
42,2,3,0.
43,1,1,0
43,2,3,0.
44,1,1,0
44,2,3,0.
45,1,1,0
45,2,3,0.
46,1,1,0
46,2,3,0.
47,1,1,0
47,2,3,0.
48,1,1,0
48,2,3,0.
49,1,1,-9.9999999999999995e-08
49,2,3,0.
50,1,1,0
50,2,3,0.
51,1,1,0
51,2,3,0.
52,1,1,0
52,2,3,0.
53,1,1,0
53,2,3,0.
54,1,1,0
54,2,3,0.
55,1,1,0
55,2,3,0.
56,1,1,0
56,2,3,0.
57,1,1,-1.0000000000000001e-05
57,2,3,0.
58,1,1,-1.0000000000000001e-05
58,2,3,0.
59,1,1,-1.0000000000000001e-05
59,2,3,0.
60,1,1,-1.0000000000000001e-05
60,2,3,0.
61,1,1,-1.0000000000000001e-05
61,2,3,0.
62,1,1,-1.0000000000000001e-05
62,2,3,0.
63,1,1,-1.0000000000000001e-05
63,2,3,0.
64,1,1,-1.0000000000000001e-05
64,2,3,0.
65,1,1,-1.0000000000000001e-05
65,2,3,0.
66,1,1,-1.0000000000000001e-05
66,2,3,0.
67,1,1,-1.0000000000000001e-05
67,2,3,0.
68,1,1,-1.0000000000000001e-05
68,2,3,0.
69,1,1,-1.0000000000000001e-05
69,2,3,0.
70,1,1,-1.0000000000000001e-05
70,2,3,0.
71,1,1,-1.0000000000000001e-05
71,2,3,0.
72,1,1,-1.0000000000000001e-05
72,2,3,0.
73,1,1,-1.0000000000000001e-05
73,2,3,0.
74,1,1,-1.0000000000000001e-05
74,2,3,0.
75,1,1,-1.0000000000000001e-05
75,2,3,0.
76,1,1,-1.0000000000000001e-05
76,2,3,0.
77,1,1,-1.0000000000000001e-05
77,2,3,0.
78,1,1,-1.0000000000000001e-05
78,2,3,0.
79,1,1,-1.0000000000000001e-05
79,2,3,0.
80,1,1,-1.0000000000000001e-05
80,2,3,0.
81,1,1,-1.0000000000000001e-05
81,2,3,0.
82,1,1,-1.0000000000000001e-05
82,2,3,0.
83,1,1,-1.0000000000000001e-05
83,2,3,0.
84,1,1,-1.0000000000000001e-05
84,2,3,0.
85,1,1,-1.0000000000000001e-05
85,2,3,0.
86,1,1,-1.0000000000000001e-05
86,2,3,0.
87,1,1,-1.0000000000000001e-05
87,2,3,0.
88,1,1,-1.0000000000000001e-05
88,2,3,0.
PRIMARY_X0,11,11,300.
SECONDARY_X2,11,11,400.
*Output, field, frequency=1
*Node Output
U,NT,RF,RFL
*Element Output, directions=YES
S
*Contact Output
CSTRESS,CDISP,CFORCE,HFLA,CTANDIR
*End Step
*Step, name=GAP_44, nlgeom=YES, unsymm=YES, extrapolation=NO
*Coupled Temperature-Displacement
0.025,0.025
*Boundary
1,1,1,0
1,2,3,0.
2,1,1,0
2,2,3,0.
3,1,1,0
3,2,3,0.
4,1,1,0
4,2,3,0.
5,1,1,0
5,2,3,0.
6,1,1,0
6,2,3,0.
7,1,1,0
7,2,3,0.
8,1,1,0
8,2,3,0.
9,1,1,0
9,2,3,0.
10,1,1,0
10,2,3,0.
11,1,1,0
11,2,3,0.
12,1,1,0
12,2,3,0.
13,1,1,0
13,2,3,0.
14,1,1,0
14,2,3,0.
15,1,1,0
15,2,3,0.
16,1,1,0
16,2,3,0.
17,1,1,0
17,2,3,0.
18,1,1,0
18,2,3,0.
19,1,1,0
19,2,3,0.
20,1,1,0
20,2,3,0.
21,1,1,0
21,2,3,0.
22,1,1,0
22,2,3,0.
23,1,1,0
23,2,3,0.
24,1,1,0
24,2,3,0.
25,1,1,0
25,2,3,0.
26,1,1,0
26,2,3,0.
27,1,1,0
27,2,3,0.
28,1,1,0
28,2,3,0.
29,1,1,0
29,2,3,0.
30,1,1,0
30,2,3,0.
31,1,1,0
31,2,3,0.
32,1,1,0
32,2,3,0.
33,1,1,0
33,2,3,0.
34,1,1,0
34,2,3,0.
35,1,1,0
35,2,3,0.
36,1,1,0
36,2,3,0.
37,1,1,0
37,2,3,0.
38,1,1,0
38,2,3,0.
39,1,1,0
39,2,3,0.
40,1,1,0
40,2,3,0.
41,1,1,0
41,2,3,0.
42,1,1,0
42,2,3,0.
43,1,1,0
43,2,3,0.
44,1,1,0
44,2,3,0.
45,1,1,0
45,2,3,0.
46,1,1,0
46,2,3,0.
47,1,1,0
47,2,3,0.
48,1,1,0
48,2,3,0.
49,1,1,0
49,2,3,0.
50,1,1,0
50,2,3,0.
51,1,1,0
51,2,3,0.
52,1,1,9.9999999999999995e-08
52,2,3,0.
53,1,1,0
53,2,3,0.
54,1,1,0
54,2,3,0.
55,1,1,0
55,2,3,0.
56,1,1,0
56,2,3,0.
57,1,1,-1.0000000000000001e-05
57,2,3,0.
58,1,1,-1.0000000000000001e-05
58,2,3,0.
59,1,1,-1.0000000000000001e-05
59,2,3,0.
60,1,1,-1.0000000000000001e-05
60,2,3,0.
61,1,1,-1.0000000000000001e-05
61,2,3,0.
62,1,1,-1.0000000000000001e-05
62,2,3,0.
63,1,1,-1.0000000000000001e-05
63,2,3,0.
64,1,1,-1.0000000000000001e-05
64,2,3,0.
65,1,1,-1.0000000000000001e-05
65,2,3,0.
66,1,1,-1.0000000000000001e-05
66,2,3,0.
67,1,1,-1.0000000000000001e-05
67,2,3,0.
68,1,1,-1.0000000000000001e-05
68,2,3,0.
69,1,1,-1.0000000000000001e-05
69,2,3,0.
70,1,1,-1.0000000000000001e-05
70,2,3,0.
71,1,1,-1.0000000000000001e-05
71,2,3,0.
72,1,1,-1.0000000000000001e-05
72,2,3,0.
73,1,1,-1.0000000000000001e-05
73,2,3,0.
74,1,1,-1.0000000000000001e-05
74,2,3,0.
75,1,1,-1.0000000000000001e-05
75,2,3,0.
76,1,1,-1.0000000000000001e-05
76,2,3,0.
77,1,1,-1.0000000000000001e-05
77,2,3,0.
78,1,1,-1.0000000000000001e-05
78,2,3,0.
79,1,1,-1.0000000000000001e-05
79,2,3,0.
80,1,1,-1.0000000000000001e-05
80,2,3,0.
81,1,1,-1.0000000000000001e-05
81,2,3,0.
82,1,1,-1.0000000000000001e-05
82,2,3,0.
83,1,1,-1.0000000000000001e-05
83,2,3,0.
84,1,1,-1.0000000000000001e-05
84,2,3,0.
85,1,1,-1.0000000000000001e-05
85,2,3,0.
86,1,1,-1.0000000000000001e-05
86,2,3,0.
87,1,1,-1.0000000000000001e-05
87,2,3,0.
88,1,1,-1.0000000000000001e-05
88,2,3,0.
PRIMARY_X0,11,11,300.
SECONDARY_X2,11,11,400.
*Output, field, frequency=1
*Node Output
U,NT,RF,RFL
*Element Output, directions=YES
S
*Contact Output
CSTRESS,CDISP,CFORCE,HFLA,CTANDIR
*End Step
*Step, name=GAP_45, nlgeom=YES, unsymm=YES, extrapolation=NO
*Coupled Temperature-Displacement
0.025,0.025
*Boundary
1,1,1,0
1,2,3,0.
2,1,1,0
2,2,3,0.
3,1,1,0
3,2,3,0.
4,1,1,0
4,2,3,0.
5,1,1,0
5,2,3,0.
6,1,1,0
6,2,3,0.
7,1,1,0
7,2,3,0.
8,1,1,0
8,2,3,0.
9,1,1,0
9,2,3,0.
10,1,1,0
10,2,3,0.
11,1,1,0
11,2,3,0.
12,1,1,0
12,2,3,0.
13,1,1,0
13,2,3,0.
14,1,1,0
14,2,3,0.
15,1,1,0
15,2,3,0.
16,1,1,0
16,2,3,0.
17,1,1,0
17,2,3,0.
18,1,1,0
18,2,3,0.
19,1,1,0
19,2,3,0.
20,1,1,0
20,2,3,0.
21,1,1,0
21,2,3,0.
22,1,1,0
22,2,3,0.
23,1,1,0
23,2,3,0.
24,1,1,0
24,2,3,0.
25,1,1,0
25,2,3,0.
26,1,1,0
26,2,3,0.
27,1,1,0
27,2,3,0.
28,1,1,0
28,2,3,0.
29,1,1,0
29,2,3,0.
30,1,1,0
30,2,3,0.
31,1,1,0
31,2,3,0.
32,1,1,0
32,2,3,0.
33,1,1,0
33,2,3,0.
34,1,1,0
34,2,3,0.
35,1,1,0
35,2,3,0.
36,1,1,0
36,2,3,0.
37,1,1,0
37,2,3,0.
38,1,1,0
38,2,3,0.
39,1,1,0
39,2,3,0.
40,1,1,0
40,2,3,0.
41,1,1,0
41,2,3,0.
42,1,1,0
42,2,3,0.
43,1,1,0
43,2,3,0.
44,1,1,0
44,2,3,0.
45,1,1,0
45,2,3,0.
46,1,1,0
46,2,3,0.
47,1,1,0
47,2,3,0.
48,1,1,0
48,2,3,0.
49,1,1,0
49,2,3,0.
50,1,1,0
50,2,3,0.
51,1,1,0
51,2,3,0.
52,1,1,-9.9999999999999995e-08
52,2,3,0.
53,1,1,0
53,2,3,0.
54,1,1,0
54,2,3,0.
55,1,1,0
55,2,3,0.
56,1,1,0
56,2,3,0.
57,1,1,-1.0000000000000001e-05
57,2,3,0.
58,1,1,-1.0000000000000001e-05
58,2,3,0.
59,1,1,-1.0000000000000001e-05
59,2,3,0.
60,1,1,-1.0000000000000001e-05
60,2,3,0.
61,1,1,-1.0000000000000001e-05
61,2,3,0.
62,1,1,-1.0000000000000001e-05
62,2,3,0.
63,1,1,-1.0000000000000001e-05
63,2,3,0.
64,1,1,-1.0000000000000001e-05
64,2,3,0.
65,1,1,-1.0000000000000001e-05
65,2,3,0.
66,1,1,-1.0000000000000001e-05
66,2,3,0.
67,1,1,-1.0000000000000001e-05
67,2,3,0.
68,1,1,-1.0000000000000001e-05
68,2,3,0.
69,1,1,-1.0000000000000001e-05
69,2,3,0.
70,1,1,-1.0000000000000001e-05
70,2,3,0.
71,1,1,-1.0000000000000001e-05
71,2,3,0.
72,1,1,-1.0000000000000001e-05
72,2,3,0.
73,1,1,-1.0000000000000001e-05
73,2,3,0.
74,1,1,-1.0000000000000001e-05
74,2,3,0.
75,1,1,-1.0000000000000001e-05
75,2,3,0.
76,1,1,-1.0000000000000001e-05
76,2,3,0.
77,1,1,-1.0000000000000001e-05
77,2,3,0.
78,1,1,-1.0000000000000001e-05
78,2,3,0.
79,1,1,-1.0000000000000001e-05
79,2,3,0.
80,1,1,-1.0000000000000001e-05
80,2,3,0.
81,1,1,-1.0000000000000001e-05
81,2,3,0.
82,1,1,-1.0000000000000001e-05
82,2,3,0.
83,1,1,-1.0000000000000001e-05
83,2,3,0.
84,1,1,-1.0000000000000001e-05
84,2,3,0.
85,1,1,-1.0000000000000001e-05
85,2,3,0.
86,1,1,-1.0000000000000001e-05
86,2,3,0.
87,1,1,-1.0000000000000001e-05
87,2,3,0.
88,1,1,-1.0000000000000001e-05
88,2,3,0.
PRIMARY_X0,11,11,300.
SECONDARY_X2,11,11,400.
*Output, field, frequency=1
*Node Output
U,NT,RF,RFL
*Element Output, directions=YES
S
*Contact Output
CSTRESS,CDISP,CFORCE,HFLA,CTANDIR
*End Step
*Step, name=GAP_46, nlgeom=YES, unsymm=YES, extrapolation=NO
*Coupled Temperature-Displacement
0.025,0.025
*Boundary
1,1,1,0
1,2,3,0.
2,1,1,0
2,2,3,0.
3,1,1,0
3,2,3,0.
4,1,1,0
4,2,3,0.
5,1,1,0
5,2,3,0.
6,1,1,0
6,2,3,0.
7,1,1,0
7,2,3,0.
8,1,1,0
8,2,3,0.
9,1,1,0
9,2,3,0.
10,1,1,0
10,2,3,0.
11,1,1,0
11,2,3,0.
12,1,1,0
12,2,3,0.
13,1,1,0
13,2,3,0.
14,1,1,0
14,2,3,0.
15,1,1,0
15,2,3,0.
16,1,1,0
16,2,3,0.
17,1,1,0
17,2,3,0.
18,1,1,0
18,2,3,0.
19,1,1,0
19,2,3,0.
20,1,1,0
20,2,3,0.
21,1,1,0
21,2,3,0.
22,1,1,0
22,2,3,0.
23,1,1,0
23,2,3,0.
24,1,1,0
24,2,3,0.
25,1,1,0
25,2,3,0.
26,1,1,0
26,2,3,0.
27,1,1,0
27,2,3,0.
28,1,1,0
28,2,3,0.
29,1,1,0
29,2,3,0.
30,1,1,0
30,2,3,0.
31,1,1,0
31,2,3,0.
32,1,1,0
32,2,3,0.
33,1,1,0
33,2,3,0.
34,1,1,0
34,2,3,0.
35,1,1,0
35,2,3,0.
36,1,1,0
36,2,3,0.
37,1,1,0
37,2,3,0.
38,1,1,0
38,2,3,0.
39,1,1,0
39,2,3,0.
40,1,1,0
40,2,3,0.
41,1,1,0
41,2,3,0.
42,1,1,0
42,2,3,0.
43,1,1,0
43,2,3,0.
44,1,1,0
44,2,3,0.
45,1,1,0
45,2,3,0.
46,1,1,0
46,2,3,0.
47,1,1,0
47,2,3,0.
48,1,1,0
48,2,3,0.
49,1,1,0
49,2,3,0.
50,1,1,0
50,2,3,0.
51,1,1,0
51,2,3,0.
52,1,1,0
52,2,3,0.
53,1,1,0
53,2,3,0.
54,1,1,9.9999999999999995e-08
54,2,3,0.
55,1,1,0
55,2,3,0.
56,1,1,0
56,2,3,0.
57,1,1,-1.0000000000000001e-05
57,2,3,0.
58,1,1,-1.0000000000000001e-05
58,2,3,0.
59,1,1,-1.0000000000000001e-05
59,2,3,0.
60,1,1,-1.0000000000000001e-05
60,2,3,0.
61,1,1,-1.0000000000000001e-05
61,2,3,0.
62,1,1,-1.0000000000000001e-05
62,2,3,0.
63,1,1,-1.0000000000000001e-05
63,2,3,0.
64,1,1,-1.0000000000000001e-05
64,2,3,0.
65,1,1,-1.0000000000000001e-05
65,2,3,0.
66,1,1,-1.0000000000000001e-05
66,2,3,0.
67,1,1,-1.0000000000000001e-05
67,2,3,0.
68,1,1,-1.0000000000000001e-05
68,2,3,0.
69,1,1,-1.0000000000000001e-05
69,2,3,0.
70,1,1,-1.0000000000000001e-05
70,2,3,0.
71,1,1,-1.0000000000000001e-05
71,2,3,0.
72,1,1,-1.0000000000000001e-05
72,2,3,0.
73,1,1,-1.0000000000000001e-05
73,2,3,0.
74,1,1,-1.0000000000000001e-05
74,2,3,0.
75,1,1,-1.0000000000000001e-05
75,2,3,0.
76,1,1,-1.0000000000000001e-05
76,2,3,0.
77,1,1,-1.0000000000000001e-05
77,2,3,0.
78,1,1,-1.0000000000000001e-05
78,2,3,0.
79,1,1,-1.0000000000000001e-05
79,2,3,0.
80,1,1,-1.0000000000000001e-05
80,2,3,0.
81,1,1,-1.0000000000000001e-05
81,2,3,0.
82,1,1,-1.0000000000000001e-05
82,2,3,0.
83,1,1,-1.0000000000000001e-05
83,2,3,0.
84,1,1,-1.0000000000000001e-05
84,2,3,0.
85,1,1,-1.0000000000000001e-05
85,2,3,0.
86,1,1,-1.0000000000000001e-05
86,2,3,0.
87,1,1,-1.0000000000000001e-05
87,2,3,0.
88,1,1,-1.0000000000000001e-05
88,2,3,0.
PRIMARY_X0,11,11,300.
SECONDARY_X2,11,11,400.
*Output, field, frequency=1
*Node Output
U,NT,RF,RFL
*Element Output, directions=YES
S
*Contact Output
CSTRESS,CDISP,CFORCE,HFLA,CTANDIR
*End Step
*Step, name=GAP_47, nlgeom=YES, unsymm=YES, extrapolation=NO
*Coupled Temperature-Displacement
0.025,0.025
*Boundary
1,1,1,0
1,2,3,0.
2,1,1,0
2,2,3,0.
3,1,1,0
3,2,3,0.
4,1,1,0
4,2,3,0.
5,1,1,0
5,2,3,0.
6,1,1,0
6,2,3,0.
7,1,1,0
7,2,3,0.
8,1,1,0
8,2,3,0.
9,1,1,0
9,2,3,0.
10,1,1,0
10,2,3,0.
11,1,1,0
11,2,3,0.
12,1,1,0
12,2,3,0.
13,1,1,0
13,2,3,0.
14,1,1,0
14,2,3,0.
15,1,1,0
15,2,3,0.
16,1,1,0
16,2,3,0.
17,1,1,0
17,2,3,0.
18,1,1,0
18,2,3,0.
19,1,1,0
19,2,3,0.
20,1,1,0
20,2,3,0.
21,1,1,0
21,2,3,0.
22,1,1,0
22,2,3,0.
23,1,1,0
23,2,3,0.
24,1,1,0
24,2,3,0.
25,1,1,0
25,2,3,0.
26,1,1,0
26,2,3,0.
27,1,1,0
27,2,3,0.
28,1,1,0
28,2,3,0.
29,1,1,0
29,2,3,0.
30,1,1,0
30,2,3,0.
31,1,1,0
31,2,3,0.
32,1,1,0
32,2,3,0.
33,1,1,0
33,2,3,0.
34,1,1,0
34,2,3,0.
35,1,1,0
35,2,3,0.
36,1,1,0
36,2,3,0.
37,1,1,0
37,2,3,0.
38,1,1,0
38,2,3,0.
39,1,1,0
39,2,3,0.
40,1,1,0
40,2,3,0.
41,1,1,0
41,2,3,0.
42,1,1,0
42,2,3,0.
43,1,1,0
43,2,3,0.
44,1,1,0
44,2,3,0.
45,1,1,0
45,2,3,0.
46,1,1,0
46,2,3,0.
47,1,1,0
47,2,3,0.
48,1,1,0
48,2,3,0.
49,1,1,0
49,2,3,0.
50,1,1,0
50,2,3,0.
51,1,1,0
51,2,3,0.
52,1,1,0
52,2,3,0.
53,1,1,0
53,2,3,0.
54,1,1,-9.9999999999999995e-08
54,2,3,0.
55,1,1,0
55,2,3,0.
56,1,1,0
56,2,3,0.
57,1,1,-1.0000000000000001e-05
57,2,3,0.
58,1,1,-1.0000000000000001e-05
58,2,3,0.
59,1,1,-1.0000000000000001e-05
59,2,3,0.
60,1,1,-1.0000000000000001e-05
60,2,3,0.
61,1,1,-1.0000000000000001e-05
61,2,3,0.
62,1,1,-1.0000000000000001e-05
62,2,3,0.
63,1,1,-1.0000000000000001e-05
63,2,3,0.
64,1,1,-1.0000000000000001e-05
64,2,3,0.
65,1,1,-1.0000000000000001e-05
65,2,3,0.
66,1,1,-1.0000000000000001e-05
66,2,3,0.
67,1,1,-1.0000000000000001e-05
67,2,3,0.
68,1,1,-1.0000000000000001e-05
68,2,3,0.
69,1,1,-1.0000000000000001e-05
69,2,3,0.
70,1,1,-1.0000000000000001e-05
70,2,3,0.
71,1,1,-1.0000000000000001e-05
71,2,3,0.
72,1,1,-1.0000000000000001e-05
72,2,3,0.
73,1,1,-1.0000000000000001e-05
73,2,3,0.
74,1,1,-1.0000000000000001e-05
74,2,3,0.
75,1,1,-1.0000000000000001e-05
75,2,3,0.
76,1,1,-1.0000000000000001e-05
76,2,3,0.
77,1,1,-1.0000000000000001e-05
77,2,3,0.
78,1,1,-1.0000000000000001e-05
78,2,3,0.
79,1,1,-1.0000000000000001e-05
79,2,3,0.
80,1,1,-1.0000000000000001e-05
80,2,3,0.
81,1,1,-1.0000000000000001e-05
81,2,3,0.
82,1,1,-1.0000000000000001e-05
82,2,3,0.
83,1,1,-1.0000000000000001e-05
83,2,3,0.
84,1,1,-1.0000000000000001e-05
84,2,3,0.
85,1,1,-1.0000000000000001e-05
85,2,3,0.
86,1,1,-1.0000000000000001e-05
86,2,3,0.
87,1,1,-1.0000000000000001e-05
87,2,3,0.
88,1,1,-1.0000000000000001e-05
88,2,3,0.
PRIMARY_X0,11,11,300.
SECONDARY_X2,11,11,400.
*Output, field, frequency=1
*Node Output
U,NT,RF,RFL
*Element Output, directions=YES
S
*Contact Output
CSTRESS,CDISP,CFORCE,HFLA,CTANDIR
*End Step
*Step, name=GAP_48, nlgeom=YES, unsymm=YES, extrapolation=NO
*Coupled Temperature-Displacement
0.025,0.025
*Boundary
1,1,1,0
1,2,3,0.
2,1,1,0
2,2,3,0.
3,1,1,0
3,2,3,0.
4,1,1,0
4,2,3,0.
5,1,1,0
5,2,3,0.
6,1,1,0
6,2,3,0.
7,1,1,0
7,2,3,0.
8,1,1,0
8,2,3,0.
9,1,1,0
9,2,3,0.
10,1,1,0
10,2,3,0.
11,1,1,0
11,2,3,0.
12,1,1,0
12,2,3,0.
13,1,1,0
13,2,3,0.
14,1,1,0
14,2,3,0.
15,1,1,0
15,2,3,0.
16,1,1,0
16,2,3,0.
17,1,1,0
17,2,3,0.
18,1,1,0
18,2,3,0.
19,1,1,0
19,2,3,0.
20,1,1,0
20,2,3,0.
21,1,1,0
21,2,3,0.
22,1,1,0
22,2,3,0.
23,1,1,0
23,2,3,0.
24,1,1,0
24,2,3,0.
25,1,1,0
25,2,3,0.
26,1,1,0
26,2,3,0.
27,1,1,0
27,2,3,0.
28,1,1,0
28,2,3,0.
29,1,1,0
29,2,3,0.
30,1,1,0
30,2,3,0.
31,1,1,0
31,2,3,0.
32,1,1,0
32,2,3,0.
33,1,1,0
33,2,3,0.
34,1,1,0
34,2,3,0.
35,1,1,0
35,2,3,0.
36,1,1,0
36,2,3,0.
37,1,1,0
37,2,3,0.
38,1,1,0
38,2,3,0.
39,1,1,0
39,2,3,0.
40,1,1,0
40,2,3,0.
41,1,1,0
41,2,3,0.
42,1,1,0
42,2,3,0.
43,1,1,0
43,2,3,0.
44,1,1,0
44,2,3,0.
45,1,1,0
45,2,3,0.
46,1,1,0
46,2,3,0.
47,1,1,0
47,2,3,0.
48,1,1,0
48,2,3,0.
49,1,1,0
49,2,3,0.
50,1,1,0
50,2,3,0.
51,1,1,0
51,2,3,0.
52,1,1,0
52,2,3,0.
53,1,1,0
53,2,3,0.
54,1,1,0
54,2,3,0.
55,1,1,0
55,2,3,0.
56,1,1,0
56,2,3,0.
57,1,1,-9.9000000000000001e-06
57,2,3,0.
58,1,1,-1.0000000000000001e-05
58,2,3,0.
59,1,1,-1.0000000000000001e-05
59,2,3,0.
60,1,1,-1.0000000000000001e-05
60,2,3,0.
61,1,1,-1.0000000000000001e-05
61,2,3,0.
62,1,1,-1.0000000000000001e-05
62,2,3,0.
63,1,1,-1.0000000000000001e-05
63,2,3,0.
64,1,1,-1.0000000000000001e-05
64,2,3,0.
65,1,1,-1.0000000000000001e-05
65,2,3,0.
66,1,1,-1.0000000000000001e-05
66,2,3,0.
67,1,1,-1.0000000000000001e-05
67,2,3,0.
68,1,1,-1.0000000000000001e-05
68,2,3,0.
69,1,1,-1.0000000000000001e-05
69,2,3,0.
70,1,1,-1.0000000000000001e-05
70,2,3,0.
71,1,1,-1.0000000000000001e-05
71,2,3,0.
72,1,1,-1.0000000000000001e-05
72,2,3,0.
73,1,1,-1.0000000000000001e-05
73,2,3,0.
74,1,1,-1.0000000000000001e-05
74,2,3,0.
75,1,1,-1.0000000000000001e-05
75,2,3,0.
76,1,1,-1.0000000000000001e-05
76,2,3,0.
77,1,1,-1.0000000000000001e-05
77,2,3,0.
78,1,1,-1.0000000000000001e-05
78,2,3,0.
79,1,1,-1.0000000000000001e-05
79,2,3,0.
80,1,1,-1.0000000000000001e-05
80,2,3,0.
81,1,1,-1.0000000000000001e-05
81,2,3,0.
82,1,1,-1.0000000000000001e-05
82,2,3,0.
83,1,1,-1.0000000000000001e-05
83,2,3,0.
84,1,1,-1.0000000000000001e-05
84,2,3,0.
85,1,1,-1.0000000000000001e-05
85,2,3,0.
86,1,1,-1.0000000000000001e-05
86,2,3,0.
87,1,1,-1.0000000000000001e-05
87,2,3,0.
88,1,1,-1.0000000000000001e-05
88,2,3,0.
PRIMARY_X0,11,11,300.
SECONDARY_X2,11,11,400.
*Output, field, frequency=1
*Node Output
U,NT,RF,RFL
*Element Output, directions=YES
S
*Contact Output
CSTRESS,CDISP,CFORCE,HFLA,CTANDIR
*End Step
*Step, name=GAP_49, nlgeom=YES, unsymm=YES, extrapolation=NO
*Coupled Temperature-Displacement
0.025,0.025
*Boundary
1,1,1,0
1,2,3,0.
2,1,1,0
2,2,3,0.
3,1,1,0
3,2,3,0.
4,1,1,0
4,2,3,0.
5,1,1,0
5,2,3,0.
6,1,1,0
6,2,3,0.
7,1,1,0
7,2,3,0.
8,1,1,0
8,2,3,0.
9,1,1,0
9,2,3,0.
10,1,1,0
10,2,3,0.
11,1,1,0
11,2,3,0.
12,1,1,0
12,2,3,0.
13,1,1,0
13,2,3,0.
14,1,1,0
14,2,3,0.
15,1,1,0
15,2,3,0.
16,1,1,0
16,2,3,0.
17,1,1,0
17,2,3,0.
18,1,1,0
18,2,3,0.
19,1,1,0
19,2,3,0.
20,1,1,0
20,2,3,0.
21,1,1,0
21,2,3,0.
22,1,1,0
22,2,3,0.
23,1,1,0
23,2,3,0.
24,1,1,0
24,2,3,0.
25,1,1,0
25,2,3,0.
26,1,1,0
26,2,3,0.
27,1,1,0
27,2,3,0.
28,1,1,0
28,2,3,0.
29,1,1,0
29,2,3,0.
30,1,1,0
30,2,3,0.
31,1,1,0
31,2,3,0.
32,1,1,0
32,2,3,0.
33,1,1,0
33,2,3,0.
34,1,1,0
34,2,3,0.
35,1,1,0
35,2,3,0.
36,1,1,0
36,2,3,0.
37,1,1,0
37,2,3,0.
38,1,1,0
38,2,3,0.
39,1,1,0
39,2,3,0.
40,1,1,0
40,2,3,0.
41,1,1,0
41,2,3,0.
42,1,1,0
42,2,3,0.
43,1,1,0
43,2,3,0.
44,1,1,0
44,2,3,0.
45,1,1,0
45,2,3,0.
46,1,1,0
46,2,3,0.
47,1,1,0
47,2,3,0.
48,1,1,0
48,2,3,0.
49,1,1,0
49,2,3,0.
50,1,1,0
50,2,3,0.
51,1,1,0
51,2,3,0.
52,1,1,0
52,2,3,0.
53,1,1,0
53,2,3,0.
54,1,1,0
54,2,3,0.
55,1,1,0
55,2,3,0.
56,1,1,0
56,2,3,0.
57,1,1,-1.0100000000000002e-05
57,2,3,0.
58,1,1,-1.0000000000000001e-05
58,2,3,0.
59,1,1,-1.0000000000000001e-05
59,2,3,0.
60,1,1,-1.0000000000000001e-05
60,2,3,0.
61,1,1,-1.0000000000000001e-05
61,2,3,0.
62,1,1,-1.0000000000000001e-05
62,2,3,0.
63,1,1,-1.0000000000000001e-05
63,2,3,0.
64,1,1,-1.0000000000000001e-05
64,2,3,0.
65,1,1,-1.0000000000000001e-05
65,2,3,0.
66,1,1,-1.0000000000000001e-05
66,2,3,0.
67,1,1,-1.0000000000000001e-05
67,2,3,0.
68,1,1,-1.0000000000000001e-05
68,2,3,0.
69,1,1,-1.0000000000000001e-05
69,2,3,0.
70,1,1,-1.0000000000000001e-05
70,2,3,0.
71,1,1,-1.0000000000000001e-05
71,2,3,0.
72,1,1,-1.0000000000000001e-05
72,2,3,0.
73,1,1,-1.0000000000000001e-05
73,2,3,0.
74,1,1,-1.0000000000000001e-05
74,2,3,0.
75,1,1,-1.0000000000000001e-05
75,2,3,0.
76,1,1,-1.0000000000000001e-05
76,2,3,0.
77,1,1,-1.0000000000000001e-05
77,2,3,0.
78,1,1,-1.0000000000000001e-05
78,2,3,0.
79,1,1,-1.0000000000000001e-05
79,2,3,0.
80,1,1,-1.0000000000000001e-05
80,2,3,0.
81,1,1,-1.0000000000000001e-05
81,2,3,0.
82,1,1,-1.0000000000000001e-05
82,2,3,0.
83,1,1,-1.0000000000000001e-05
83,2,3,0.
84,1,1,-1.0000000000000001e-05
84,2,3,0.
85,1,1,-1.0000000000000001e-05
85,2,3,0.
86,1,1,-1.0000000000000001e-05
86,2,3,0.
87,1,1,-1.0000000000000001e-05
87,2,3,0.
88,1,1,-1.0000000000000001e-05
88,2,3,0.
PRIMARY_X0,11,11,300.
SECONDARY_X2,11,11,400.
*Output, field, frequency=1
*Node Output
U,NT,RF,RFL
*Element Output, directions=YES
S
*Contact Output
CSTRESS,CDISP,CFORCE,HFLA,CTANDIR
*End Step
*Step, name=GAP_50, nlgeom=YES, unsymm=YES, extrapolation=NO
*Coupled Temperature-Displacement
0.025,0.025
*Boundary
1,1,1,0
1,2,3,0.
2,1,1,0
2,2,3,0.
3,1,1,0
3,2,3,0.
4,1,1,0
4,2,3,0.
5,1,1,0
5,2,3,0.
6,1,1,0
6,2,3,0.
7,1,1,0
7,2,3,0.
8,1,1,0
8,2,3,0.
9,1,1,0
9,2,3,0.
10,1,1,0
10,2,3,0.
11,1,1,0
11,2,3,0.
12,1,1,0
12,2,3,0.
13,1,1,0
13,2,3,0.
14,1,1,0
14,2,3,0.
15,1,1,0
15,2,3,0.
16,1,1,0
16,2,3,0.
17,1,1,0
17,2,3,0.
18,1,1,0
18,2,3,0.
19,1,1,0
19,2,3,0.
20,1,1,0
20,2,3,0.
21,1,1,0
21,2,3,0.
22,1,1,0
22,2,3,0.
23,1,1,0
23,2,3,0.
24,1,1,0
24,2,3,0.
25,1,1,0
25,2,3,0.
26,1,1,0
26,2,3,0.
27,1,1,0
27,2,3,0.
28,1,1,0
28,2,3,0.
29,1,1,0
29,2,3,0.
30,1,1,0
30,2,3,0.
31,1,1,0
31,2,3,0.
32,1,1,0
32,2,3,0.
33,1,1,0
33,2,3,0.
34,1,1,0
34,2,3,0.
35,1,1,0
35,2,3,0.
36,1,1,0
36,2,3,0.
37,1,1,0
37,2,3,0.
38,1,1,0
38,2,3,0.
39,1,1,0
39,2,3,0.
40,1,1,0
40,2,3,0.
41,1,1,0
41,2,3,0.
42,1,1,0
42,2,3,0.
43,1,1,0
43,2,3,0.
44,1,1,0
44,2,3,0.
45,1,1,0
45,2,3,0.
46,1,1,0
46,2,3,0.
47,1,1,0
47,2,3,0.
48,1,1,0
48,2,3,0.
49,1,1,0
49,2,3,0.
50,1,1,0
50,2,3,0.
51,1,1,0
51,2,3,0.
52,1,1,0
52,2,3,0.
53,1,1,0
53,2,3,0.
54,1,1,0
54,2,3,0.
55,1,1,0
55,2,3,0.
56,1,1,0
56,2,3,0.
57,1,1,-1.0000000000000001e-05
57,2,3,0.
58,1,1,-1.0000000000000001e-05
58,2,3,0.
59,1,1,-1.0000000000000001e-05
59,2,3,0.
60,1,1,-9.9000000000000001e-06
60,2,3,0.
61,1,1,-1.0000000000000001e-05
61,2,3,0.
62,1,1,-1.0000000000000001e-05
62,2,3,0.
63,1,1,-1.0000000000000001e-05
63,2,3,0.
64,1,1,-1.0000000000000001e-05
64,2,3,0.
65,1,1,-1.0000000000000001e-05
65,2,3,0.
66,1,1,-1.0000000000000001e-05
66,2,3,0.
67,1,1,-1.0000000000000001e-05
67,2,3,0.
68,1,1,-1.0000000000000001e-05
68,2,3,0.
69,1,1,-1.0000000000000001e-05
69,2,3,0.
70,1,1,-1.0000000000000001e-05
70,2,3,0.
71,1,1,-1.0000000000000001e-05
71,2,3,0.
72,1,1,-1.0000000000000001e-05
72,2,3,0.
73,1,1,-1.0000000000000001e-05
73,2,3,0.
74,1,1,-1.0000000000000001e-05
74,2,3,0.
75,1,1,-1.0000000000000001e-05
75,2,3,0.
76,1,1,-1.0000000000000001e-05
76,2,3,0.
77,1,1,-1.0000000000000001e-05
77,2,3,0.
78,1,1,-1.0000000000000001e-05
78,2,3,0.
79,1,1,-1.0000000000000001e-05
79,2,3,0.
80,1,1,-1.0000000000000001e-05
80,2,3,0.
81,1,1,-1.0000000000000001e-05
81,2,3,0.
82,1,1,-1.0000000000000001e-05
82,2,3,0.
83,1,1,-1.0000000000000001e-05
83,2,3,0.
84,1,1,-1.0000000000000001e-05
84,2,3,0.
85,1,1,-1.0000000000000001e-05
85,2,3,0.
86,1,1,-1.0000000000000001e-05
86,2,3,0.
87,1,1,-1.0000000000000001e-05
87,2,3,0.
88,1,1,-1.0000000000000001e-05
88,2,3,0.
PRIMARY_X0,11,11,300.
SECONDARY_X2,11,11,400.
*Output, field, frequency=1
*Node Output
U,NT,RF,RFL
*Element Output, directions=YES
S
*Contact Output
CSTRESS,CDISP,CFORCE,HFLA,CTANDIR
*End Step
*Step, name=GAP_51, nlgeom=YES, unsymm=YES, extrapolation=NO
*Coupled Temperature-Displacement
0.025,0.025
*Boundary
1,1,1,0
1,2,3,0.
2,1,1,0
2,2,3,0.
3,1,1,0
3,2,3,0.
4,1,1,0
4,2,3,0.
5,1,1,0
5,2,3,0.
6,1,1,0
6,2,3,0.
7,1,1,0
7,2,3,0.
8,1,1,0
8,2,3,0.
9,1,1,0
9,2,3,0.
10,1,1,0
10,2,3,0.
11,1,1,0
11,2,3,0.
12,1,1,0
12,2,3,0.
13,1,1,0
13,2,3,0.
14,1,1,0
14,2,3,0.
15,1,1,0
15,2,3,0.
16,1,1,0
16,2,3,0.
17,1,1,0
17,2,3,0.
18,1,1,0
18,2,3,0.
19,1,1,0
19,2,3,0.
20,1,1,0
20,2,3,0.
21,1,1,0
21,2,3,0.
22,1,1,0
22,2,3,0.
23,1,1,0
23,2,3,0.
24,1,1,0
24,2,3,0.
25,1,1,0
25,2,3,0.
26,1,1,0
26,2,3,0.
27,1,1,0
27,2,3,0.
28,1,1,0
28,2,3,0.
29,1,1,0
29,2,3,0.
30,1,1,0
30,2,3,0.
31,1,1,0
31,2,3,0.
32,1,1,0
32,2,3,0.
33,1,1,0
33,2,3,0.
34,1,1,0
34,2,3,0.
35,1,1,0
35,2,3,0.
36,1,1,0
36,2,3,0.
37,1,1,0
37,2,3,0.
38,1,1,0
38,2,3,0.
39,1,1,0
39,2,3,0.
40,1,1,0
40,2,3,0.
41,1,1,0
41,2,3,0.
42,1,1,0
42,2,3,0.
43,1,1,0
43,2,3,0.
44,1,1,0
44,2,3,0.
45,1,1,0
45,2,3,0.
46,1,1,0
46,2,3,0.
47,1,1,0
47,2,3,0.
48,1,1,0
48,2,3,0.
49,1,1,0
49,2,3,0.
50,1,1,0
50,2,3,0.
51,1,1,0
51,2,3,0.
52,1,1,0
52,2,3,0.
53,1,1,0
53,2,3,0.
54,1,1,0
54,2,3,0.
55,1,1,0
55,2,3,0.
56,1,1,0
56,2,3,0.
57,1,1,-1.0000000000000001e-05
57,2,3,0.
58,1,1,-1.0000000000000001e-05
58,2,3,0.
59,1,1,-1.0000000000000001e-05
59,2,3,0.
60,1,1,-1.0100000000000002e-05
60,2,3,0.
61,1,1,-1.0000000000000001e-05
61,2,3,0.
62,1,1,-1.0000000000000001e-05
62,2,3,0.
63,1,1,-1.0000000000000001e-05
63,2,3,0.
64,1,1,-1.0000000000000001e-05
64,2,3,0.
65,1,1,-1.0000000000000001e-05
65,2,3,0.
66,1,1,-1.0000000000000001e-05
66,2,3,0.
67,1,1,-1.0000000000000001e-05
67,2,3,0.
68,1,1,-1.0000000000000001e-05
68,2,3,0.
69,1,1,-1.0000000000000001e-05
69,2,3,0.
70,1,1,-1.0000000000000001e-05
70,2,3,0.
71,1,1,-1.0000000000000001e-05
71,2,3,0.
72,1,1,-1.0000000000000001e-05
72,2,3,0.
73,1,1,-1.0000000000000001e-05
73,2,3,0.
74,1,1,-1.0000000000000001e-05
74,2,3,0.
75,1,1,-1.0000000000000001e-05
75,2,3,0.
76,1,1,-1.0000000000000001e-05
76,2,3,0.
77,1,1,-1.0000000000000001e-05
77,2,3,0.
78,1,1,-1.0000000000000001e-05
78,2,3,0.
79,1,1,-1.0000000000000001e-05
79,2,3,0.
80,1,1,-1.0000000000000001e-05
80,2,3,0.
81,1,1,-1.0000000000000001e-05
81,2,3,0.
82,1,1,-1.0000000000000001e-05
82,2,3,0.
83,1,1,-1.0000000000000001e-05
83,2,3,0.
84,1,1,-1.0000000000000001e-05
84,2,3,0.
85,1,1,-1.0000000000000001e-05
85,2,3,0.
86,1,1,-1.0000000000000001e-05
86,2,3,0.
87,1,1,-1.0000000000000001e-05
87,2,3,0.
88,1,1,-1.0000000000000001e-05
88,2,3,0.
PRIMARY_X0,11,11,300.
SECONDARY_X2,11,11,400.
*Output, field, frequency=1
*Node Output
U,NT,RF,RFL
*Element Output, directions=YES
S
*Contact Output
CSTRESS,CDISP,CFORCE,HFLA,CTANDIR
*End Step
*Step, name=GAP_52, nlgeom=YES, unsymm=YES, extrapolation=NO
*Coupled Temperature-Displacement
0.025,0.025
*Boundary
1,1,1,0
1,2,3,0.
2,1,1,0
2,2,3,0.
3,1,1,0
3,2,3,0.
4,1,1,0
4,2,3,0.
5,1,1,0
5,2,3,0.
6,1,1,0
6,2,3,0.
7,1,1,0
7,2,3,0.
8,1,1,0
8,2,3,0.
9,1,1,0
9,2,3,0.
10,1,1,0
10,2,3,0.
11,1,1,0
11,2,3,0.
12,1,1,0
12,2,3,0.
13,1,1,0
13,2,3,0.
14,1,1,0
14,2,3,0.
15,1,1,0
15,2,3,0.
16,1,1,0
16,2,3,0.
17,1,1,0
17,2,3,0.
18,1,1,0
18,2,3,0.
19,1,1,0
19,2,3,0.
20,1,1,0
20,2,3,0.
21,1,1,0
21,2,3,0.
22,1,1,0
22,2,3,0.
23,1,1,0
23,2,3,0.
24,1,1,0
24,2,3,0.
25,1,1,0
25,2,3,0.
26,1,1,0
26,2,3,0.
27,1,1,0
27,2,3,0.
28,1,1,0
28,2,3,0.
29,1,1,0
29,2,3,0.
30,1,1,0
30,2,3,0.
31,1,1,0
31,2,3,0.
32,1,1,0
32,2,3,0.
33,1,1,0
33,2,3,0.
34,1,1,0
34,2,3,0.
35,1,1,0
35,2,3,0.
36,1,1,0
36,2,3,0.
37,1,1,0
37,2,3,0.
38,1,1,0
38,2,3,0.
39,1,1,0
39,2,3,0.
40,1,1,0
40,2,3,0.
41,1,1,0
41,2,3,0.
42,1,1,0
42,2,3,0.
43,1,1,0
43,2,3,0.
44,1,1,0
44,2,3,0.
45,1,1,0
45,2,3,0.
46,1,1,0
46,2,3,0.
47,1,1,0
47,2,3,0.
48,1,1,0
48,2,3,0.
49,1,1,0
49,2,3,0.
50,1,1,0
50,2,3,0.
51,1,1,0
51,2,3,0.
52,1,1,0
52,2,3,0.
53,1,1,0
53,2,3,0.
54,1,1,0
54,2,3,0.
55,1,1,0
55,2,3,0.
56,1,1,0
56,2,3,0.
57,1,1,-1.0000000000000001e-05
57,2,3,0.
58,1,1,-1.0000000000000001e-05
58,2,3,0.
59,1,1,-1.0000000000000001e-05
59,2,3,0.
60,1,1,-1.0000000000000001e-05
60,2,3,0.
61,1,1,-9.9000000000000001e-06
61,2,3,0.
62,1,1,-1.0000000000000001e-05
62,2,3,0.
63,1,1,-1.0000000000000001e-05
63,2,3,0.
64,1,1,-1.0000000000000001e-05
64,2,3,0.
65,1,1,-1.0000000000000001e-05
65,2,3,0.
66,1,1,-1.0000000000000001e-05
66,2,3,0.
67,1,1,-1.0000000000000001e-05
67,2,3,0.
68,1,1,-1.0000000000000001e-05
68,2,3,0.
69,1,1,-1.0000000000000001e-05
69,2,3,0.
70,1,1,-1.0000000000000001e-05
70,2,3,0.
71,1,1,-1.0000000000000001e-05
71,2,3,0.
72,1,1,-1.0000000000000001e-05
72,2,3,0.
73,1,1,-1.0000000000000001e-05
73,2,3,0.
74,1,1,-1.0000000000000001e-05
74,2,3,0.
75,1,1,-1.0000000000000001e-05
75,2,3,0.
76,1,1,-1.0000000000000001e-05
76,2,3,0.
77,1,1,-1.0000000000000001e-05
77,2,3,0.
78,1,1,-1.0000000000000001e-05
78,2,3,0.
79,1,1,-1.0000000000000001e-05
79,2,3,0.
80,1,1,-1.0000000000000001e-05
80,2,3,0.
81,1,1,-1.0000000000000001e-05
81,2,3,0.
82,1,1,-1.0000000000000001e-05
82,2,3,0.
83,1,1,-1.0000000000000001e-05
83,2,3,0.
84,1,1,-1.0000000000000001e-05
84,2,3,0.
85,1,1,-1.0000000000000001e-05
85,2,3,0.
86,1,1,-1.0000000000000001e-05
86,2,3,0.
87,1,1,-1.0000000000000001e-05
87,2,3,0.
88,1,1,-1.0000000000000001e-05
88,2,3,0.
PRIMARY_X0,11,11,300.
SECONDARY_X2,11,11,400.
*Output, field, frequency=1
*Node Output
U,NT,RF,RFL
*Element Output, directions=YES
S
*Contact Output
CSTRESS,CDISP,CFORCE,HFLA,CTANDIR
*End Step
*Step, name=GAP_53, nlgeom=YES, unsymm=YES, extrapolation=NO
*Coupled Temperature-Displacement
0.025,0.025
*Boundary
1,1,1,0
1,2,3,0.
2,1,1,0
2,2,3,0.
3,1,1,0
3,2,3,0.
4,1,1,0
4,2,3,0.
5,1,1,0
5,2,3,0.
6,1,1,0
6,2,3,0.
7,1,1,0
7,2,3,0.
8,1,1,0
8,2,3,0.
9,1,1,0
9,2,3,0.
10,1,1,0
10,2,3,0.
11,1,1,0
11,2,3,0.
12,1,1,0
12,2,3,0.
13,1,1,0
13,2,3,0.
14,1,1,0
14,2,3,0.
15,1,1,0
15,2,3,0.
16,1,1,0
16,2,3,0.
17,1,1,0
17,2,3,0.
18,1,1,0
18,2,3,0.
19,1,1,0
19,2,3,0.
20,1,1,0
20,2,3,0.
21,1,1,0
21,2,3,0.
22,1,1,0
22,2,3,0.
23,1,1,0
23,2,3,0.
24,1,1,0
24,2,3,0.
25,1,1,0
25,2,3,0.
26,1,1,0
26,2,3,0.
27,1,1,0
27,2,3,0.
28,1,1,0
28,2,3,0.
29,1,1,0
29,2,3,0.
30,1,1,0
30,2,3,0.
31,1,1,0
31,2,3,0.
32,1,1,0
32,2,3,0.
33,1,1,0
33,2,3,0.
34,1,1,0
34,2,3,0.
35,1,1,0
35,2,3,0.
36,1,1,0
36,2,3,0.
37,1,1,0
37,2,3,0.
38,1,1,0
38,2,3,0.
39,1,1,0
39,2,3,0.
40,1,1,0
40,2,3,0.
41,1,1,0
41,2,3,0.
42,1,1,0
42,2,3,0.
43,1,1,0
43,2,3,0.
44,1,1,0
44,2,3,0.
45,1,1,0
45,2,3,0.
46,1,1,0
46,2,3,0.
47,1,1,0
47,2,3,0.
48,1,1,0
48,2,3,0.
49,1,1,0
49,2,3,0.
50,1,1,0
50,2,3,0.
51,1,1,0
51,2,3,0.
52,1,1,0
52,2,3,0.
53,1,1,0
53,2,3,0.
54,1,1,0
54,2,3,0.
55,1,1,0
55,2,3,0.
56,1,1,0
56,2,3,0.
57,1,1,-1.0000000000000001e-05
57,2,3,0.
58,1,1,-1.0000000000000001e-05
58,2,3,0.
59,1,1,-1.0000000000000001e-05
59,2,3,0.
60,1,1,-1.0000000000000001e-05
60,2,3,0.
61,1,1,-1.0100000000000002e-05
61,2,3,0.
62,1,1,-1.0000000000000001e-05
62,2,3,0.
63,1,1,-1.0000000000000001e-05
63,2,3,0.
64,1,1,-1.0000000000000001e-05
64,2,3,0.
65,1,1,-1.0000000000000001e-05
65,2,3,0.
66,1,1,-1.0000000000000001e-05
66,2,3,0.
67,1,1,-1.0000000000000001e-05
67,2,3,0.
68,1,1,-1.0000000000000001e-05
68,2,3,0.
69,1,1,-1.0000000000000001e-05
69,2,3,0.
70,1,1,-1.0000000000000001e-05
70,2,3,0.
71,1,1,-1.0000000000000001e-05
71,2,3,0.
72,1,1,-1.0000000000000001e-05
72,2,3,0.
73,1,1,-1.0000000000000001e-05
73,2,3,0.
74,1,1,-1.0000000000000001e-05
74,2,3,0.
75,1,1,-1.0000000000000001e-05
75,2,3,0.
76,1,1,-1.0000000000000001e-05
76,2,3,0.
77,1,1,-1.0000000000000001e-05
77,2,3,0.
78,1,1,-1.0000000000000001e-05
78,2,3,0.
79,1,1,-1.0000000000000001e-05
79,2,3,0.
80,1,1,-1.0000000000000001e-05
80,2,3,0.
81,1,1,-1.0000000000000001e-05
81,2,3,0.
82,1,1,-1.0000000000000001e-05
82,2,3,0.
83,1,1,-1.0000000000000001e-05
83,2,3,0.
84,1,1,-1.0000000000000001e-05
84,2,3,0.
85,1,1,-1.0000000000000001e-05
85,2,3,0.
86,1,1,-1.0000000000000001e-05
86,2,3,0.
87,1,1,-1.0000000000000001e-05
87,2,3,0.
88,1,1,-1.0000000000000001e-05
88,2,3,0.
PRIMARY_X0,11,11,300.
SECONDARY_X2,11,11,400.
*Output, field, frequency=1
*Node Output
U,NT,RF,RFL
*Element Output, directions=YES
S
*Contact Output
CSTRESS,CDISP,CFORCE,HFLA,CTANDIR
*End Step
*Step, name=GAP_54, nlgeom=YES, unsymm=YES, extrapolation=NO
*Coupled Temperature-Displacement
0.025,0.025
*Boundary
1,1,1,0
1,2,3,0.
2,1,1,0
2,2,3,0.
3,1,1,0
3,2,3,0.
4,1,1,0
4,2,3,0.
5,1,1,0
5,2,3,0.
6,1,1,0
6,2,3,0.
7,1,1,0
7,2,3,0.
8,1,1,0
8,2,3,0.
9,1,1,0
9,2,3,0.
10,1,1,0
10,2,3,0.
11,1,1,0
11,2,3,0.
12,1,1,0
12,2,3,0.
13,1,1,0
13,2,3,0.
14,1,1,0
14,2,3,0.
15,1,1,0
15,2,3,0.
16,1,1,0
16,2,3,0.
17,1,1,0
17,2,3,0.
18,1,1,0
18,2,3,0.
19,1,1,0
19,2,3,0.
20,1,1,0
20,2,3,0.
21,1,1,0
21,2,3,0.
22,1,1,0
22,2,3,0.
23,1,1,0
23,2,3,0.
24,1,1,0
24,2,3,0.
25,1,1,0
25,2,3,0.
26,1,1,0
26,2,3,0.
27,1,1,0
27,2,3,0.
28,1,1,0
28,2,3,0.
29,1,1,0
29,2,3,0.
30,1,1,0
30,2,3,0.
31,1,1,0
31,2,3,0.
32,1,1,0
32,2,3,0.
33,1,1,0
33,2,3,0.
34,1,1,0
34,2,3,0.
35,1,1,0
35,2,3,0.
36,1,1,0
36,2,3,0.
37,1,1,0
37,2,3,0.
38,1,1,0
38,2,3,0.
39,1,1,0
39,2,3,0.
40,1,1,0
40,2,3,0.
41,1,1,0
41,2,3,0.
42,1,1,0
42,2,3,0.
43,1,1,0
43,2,3,0.
44,1,1,0
44,2,3,0.
45,1,1,0
45,2,3,0.
46,1,1,0
46,2,3,0.
47,1,1,0
47,2,3,0.
48,1,1,0
48,2,3,0.
49,1,1,0
49,2,3,0.
50,1,1,0
50,2,3,0.
51,1,1,0
51,2,3,0.
52,1,1,0
52,2,3,0.
53,1,1,0
53,2,3,0.
54,1,1,0
54,2,3,0.
55,1,1,0
55,2,3,0.
56,1,1,0
56,2,3,0.
57,1,1,-1.0000000000000001e-05
57,2,3,0.
58,1,1,-1.0000000000000001e-05
58,2,3,0.
59,1,1,-1.0000000000000001e-05
59,2,3,0.
60,1,1,-1.0000000000000001e-05
60,2,3,0.
61,1,1,-1.0000000000000001e-05
61,2,3,0.
62,1,1,-1.0000000000000001e-05
62,2,3,0.
63,1,1,-1.0000000000000001e-05
63,2,3,0.
64,1,1,-9.9000000000000001e-06
64,2,3,0.
65,1,1,-1.0000000000000001e-05
65,2,3,0.
66,1,1,-1.0000000000000001e-05
66,2,3,0.
67,1,1,-1.0000000000000001e-05
67,2,3,0.
68,1,1,-1.0000000000000001e-05
68,2,3,0.
69,1,1,-1.0000000000000001e-05
69,2,3,0.
70,1,1,-1.0000000000000001e-05
70,2,3,0.
71,1,1,-1.0000000000000001e-05
71,2,3,0.
72,1,1,-1.0000000000000001e-05
72,2,3,0.
73,1,1,-1.0000000000000001e-05
73,2,3,0.
74,1,1,-1.0000000000000001e-05
74,2,3,0.
75,1,1,-1.0000000000000001e-05
75,2,3,0.
76,1,1,-1.0000000000000001e-05
76,2,3,0.
77,1,1,-1.0000000000000001e-05
77,2,3,0.
78,1,1,-1.0000000000000001e-05
78,2,3,0.
79,1,1,-1.0000000000000001e-05
79,2,3,0.
80,1,1,-1.0000000000000001e-05
80,2,3,0.
81,1,1,-1.0000000000000001e-05
81,2,3,0.
82,1,1,-1.0000000000000001e-05
82,2,3,0.
83,1,1,-1.0000000000000001e-05
83,2,3,0.
84,1,1,-1.0000000000000001e-05
84,2,3,0.
85,1,1,-1.0000000000000001e-05
85,2,3,0.
86,1,1,-1.0000000000000001e-05
86,2,3,0.
87,1,1,-1.0000000000000001e-05
87,2,3,0.
88,1,1,-1.0000000000000001e-05
88,2,3,0.
PRIMARY_X0,11,11,300.
SECONDARY_X2,11,11,400.
*Output, field, frequency=1
*Node Output
U,NT,RF,RFL
*Element Output, directions=YES
S
*Contact Output
CSTRESS,CDISP,CFORCE,HFLA,CTANDIR
*End Step
*Step, name=GAP_55, nlgeom=YES, unsymm=YES, extrapolation=NO
*Coupled Temperature-Displacement
0.025,0.025
*Boundary
1,1,1,0
1,2,3,0.
2,1,1,0
2,2,3,0.
3,1,1,0
3,2,3,0.
4,1,1,0
4,2,3,0.
5,1,1,0
5,2,3,0.
6,1,1,0
6,2,3,0.
7,1,1,0
7,2,3,0.
8,1,1,0
8,2,3,0.
9,1,1,0
9,2,3,0.
10,1,1,0
10,2,3,0.
11,1,1,0
11,2,3,0.
12,1,1,0
12,2,3,0.
13,1,1,0
13,2,3,0.
14,1,1,0
14,2,3,0.
15,1,1,0
15,2,3,0.
16,1,1,0
16,2,3,0.
17,1,1,0
17,2,3,0.
18,1,1,0
18,2,3,0.
19,1,1,0
19,2,3,0.
20,1,1,0
20,2,3,0.
21,1,1,0
21,2,3,0.
22,1,1,0
22,2,3,0.
23,1,1,0
23,2,3,0.
24,1,1,0
24,2,3,0.
25,1,1,0
25,2,3,0.
26,1,1,0
26,2,3,0.
27,1,1,0
27,2,3,0.
28,1,1,0
28,2,3,0.
29,1,1,0
29,2,3,0.
30,1,1,0
30,2,3,0.
31,1,1,0
31,2,3,0.
32,1,1,0
32,2,3,0.
33,1,1,0
33,2,3,0.
34,1,1,0
34,2,3,0.
35,1,1,0
35,2,3,0.
36,1,1,0
36,2,3,0.
37,1,1,0
37,2,3,0.
38,1,1,0
38,2,3,0.
39,1,1,0
39,2,3,0.
40,1,1,0
40,2,3,0.
41,1,1,0
41,2,3,0.
42,1,1,0
42,2,3,0.
43,1,1,0
43,2,3,0.
44,1,1,0
44,2,3,0.
45,1,1,0
45,2,3,0.
46,1,1,0
46,2,3,0.
47,1,1,0
47,2,3,0.
48,1,1,0
48,2,3,0.
49,1,1,0
49,2,3,0.
50,1,1,0
50,2,3,0.
51,1,1,0
51,2,3,0.
52,1,1,0
52,2,3,0.
53,1,1,0
53,2,3,0.
54,1,1,0
54,2,3,0.
55,1,1,0
55,2,3,0.
56,1,1,0
56,2,3,0.
57,1,1,-1.0000000000000001e-05
57,2,3,0.
58,1,1,-1.0000000000000001e-05
58,2,3,0.
59,1,1,-1.0000000000000001e-05
59,2,3,0.
60,1,1,-1.0000000000000001e-05
60,2,3,0.
61,1,1,-1.0000000000000001e-05
61,2,3,0.
62,1,1,-1.0000000000000001e-05
62,2,3,0.
63,1,1,-1.0000000000000001e-05
63,2,3,0.
64,1,1,-1.0100000000000002e-05
64,2,3,0.
65,1,1,-1.0000000000000001e-05
65,2,3,0.
66,1,1,-1.0000000000000001e-05
66,2,3,0.
67,1,1,-1.0000000000000001e-05
67,2,3,0.
68,1,1,-1.0000000000000001e-05
68,2,3,0.
69,1,1,-1.0000000000000001e-05
69,2,3,0.
70,1,1,-1.0000000000000001e-05
70,2,3,0.
71,1,1,-1.0000000000000001e-05
71,2,3,0.
72,1,1,-1.0000000000000001e-05
72,2,3,0.
73,1,1,-1.0000000000000001e-05
73,2,3,0.
74,1,1,-1.0000000000000001e-05
74,2,3,0.
75,1,1,-1.0000000000000001e-05
75,2,3,0.
76,1,1,-1.0000000000000001e-05
76,2,3,0.
77,1,1,-1.0000000000000001e-05
77,2,3,0.
78,1,1,-1.0000000000000001e-05
78,2,3,0.
79,1,1,-1.0000000000000001e-05
79,2,3,0.
80,1,1,-1.0000000000000001e-05
80,2,3,0.
81,1,1,-1.0000000000000001e-05
81,2,3,0.
82,1,1,-1.0000000000000001e-05
82,2,3,0.
83,1,1,-1.0000000000000001e-05
83,2,3,0.
84,1,1,-1.0000000000000001e-05
84,2,3,0.
85,1,1,-1.0000000000000001e-05
85,2,3,0.
86,1,1,-1.0000000000000001e-05
86,2,3,0.
87,1,1,-1.0000000000000001e-05
87,2,3,0.
88,1,1,-1.0000000000000001e-05
88,2,3,0.
PRIMARY_X0,11,11,300.
SECONDARY_X2,11,11,400.
*Output, field, frequency=1
*Node Output
U,NT,RF,RFL
*Element Output, directions=YES
S
*Contact Output
CSTRESS,CDISP,CFORCE,HFLA,CTANDIR
*End Step
*Step, name=GAP_56, nlgeom=YES, unsymm=YES, extrapolation=NO
*Coupled Temperature-Displacement
0.025,0.025
*Boundary
1,1,1,0
1,2,3,0.
2,1,1,0
2,2,3,0.
3,1,1,0
3,2,3,0.
4,1,1,0
4,2,3,0.
5,1,1,0
5,2,3,0.
6,1,1,0
6,2,3,0.
7,1,1,0
7,2,3,0.
8,1,1,0
8,2,3,0.
9,1,1,0
9,2,3,0.
10,1,1,0
10,2,3,0.
11,1,1,0
11,2,3,0.
12,1,1,0
12,2,3,0.
13,1,1,0
13,2,3,0.
14,1,1,0
14,2,3,0.
15,1,1,0
15,2,3,0.
16,1,1,0
16,2,3,0.
17,1,1,0
17,2,3,0.
18,1,1,0
18,2,3,0.
19,1,1,0
19,2,3,0.
20,1,1,0
20,2,3,0.
21,1,1,0
21,2,3,0.
22,1,1,0
22,2,3,0.
23,1,1,0
23,2,3,0.
24,1,1,0
24,2,3,0.
25,1,1,0
25,2,3,0.
26,1,1,0
26,2,3,0.
27,1,1,0
27,2,3,0.
28,1,1,0
28,2,3,0.
29,1,1,0
29,2,3,0.
30,1,1,0
30,2,3,0.
31,1,1,0
31,2,3,0.
32,1,1,0
32,2,3,0.
33,1,1,0
33,2,3,0.
34,1,1,0
34,2,3,0.
35,1,1,0
35,2,3,0.
36,1,1,0
36,2,3,0.
37,1,1,0
37,2,3,0.
38,1,1,0
38,2,3,0.
39,1,1,0
39,2,3,0.
40,1,1,0
40,2,3,0.
41,1,1,0
41,2,3,0.
42,1,1,0
42,2,3,0.
43,1,1,0
43,2,3,0.
44,1,1,0
44,2,3,0.
45,1,1,0
45,2,3,0.
46,1,1,0
46,2,3,0.
47,1,1,0
47,2,3,0.
48,1,1,0
48,2,3,0.
49,1,1,0
49,2,3,0.
50,1,1,0
50,2,3,0.
51,1,1,0
51,2,3,0.
52,1,1,0
52,2,3,0.
53,1,1,0
53,2,3,0.
54,1,1,0
54,2,3,0.
55,1,1,0
55,2,3,0.
56,1,1,0
56,2,3,0.
57,1,1,-1.0000000000000001e-05
57,2,3,0.
58,1,1,-1.0000000000000001e-05
58,2,3,0.
59,1,1,-1.0000000000000001e-05
59,2,3,0.
60,1,1,-1.0000000000000001e-05
60,2,3,0.
61,1,1,-1.0000000000000001e-05
61,2,3,0.
62,1,1,-1.0000000000000001e-05
62,2,3,0.
63,1,1,-1.0000000000000001e-05
63,2,3,0.
64,1,1,-1.0000000000000001e-05
64,2,3,0.
65,1,1,-1.0000000000000001e-05
65,2,3,0.
66,1,1,-1.0000000000000001e-05
66,2,3,0.
67,1,1,-1.0000000000000001e-05
67,2,3,0.
68,1,1,-9.9000000000000001e-06
68,2,3,0.
69,1,1,-1.0000000000000001e-05
69,2,3,0.
70,1,1,-1.0000000000000001e-05
70,2,3,0.
71,1,1,-1.0000000000000001e-05
71,2,3,0.
72,1,1,-1.0000000000000001e-05
72,2,3,0.
73,1,1,-1.0000000000000001e-05
73,2,3,0.
74,1,1,-1.0000000000000001e-05
74,2,3,0.
75,1,1,-1.0000000000000001e-05
75,2,3,0.
76,1,1,-1.0000000000000001e-05
76,2,3,0.
77,1,1,-1.0000000000000001e-05
77,2,3,0.
78,1,1,-1.0000000000000001e-05
78,2,3,0.
79,1,1,-1.0000000000000001e-05
79,2,3,0.
80,1,1,-1.0000000000000001e-05
80,2,3,0.
81,1,1,-1.0000000000000001e-05
81,2,3,0.
82,1,1,-1.0000000000000001e-05
82,2,3,0.
83,1,1,-1.0000000000000001e-05
83,2,3,0.
84,1,1,-1.0000000000000001e-05
84,2,3,0.
85,1,1,-1.0000000000000001e-05
85,2,3,0.
86,1,1,-1.0000000000000001e-05
86,2,3,0.
87,1,1,-1.0000000000000001e-05
87,2,3,0.
88,1,1,-1.0000000000000001e-05
88,2,3,0.
PRIMARY_X0,11,11,300.
SECONDARY_X2,11,11,400.
*Output, field, frequency=1
*Node Output
U,NT,RF,RFL
*Element Output, directions=YES
S
*Contact Output
CSTRESS,CDISP,CFORCE,HFLA,CTANDIR
*End Step
*Step, name=GAP_57, nlgeom=YES, unsymm=YES, extrapolation=NO
*Coupled Temperature-Displacement
0.025,0.025
*Boundary
1,1,1,0
1,2,3,0.
2,1,1,0
2,2,3,0.
3,1,1,0
3,2,3,0.
4,1,1,0
4,2,3,0.
5,1,1,0
5,2,3,0.
6,1,1,0
6,2,3,0.
7,1,1,0
7,2,3,0.
8,1,1,0
8,2,3,0.
9,1,1,0
9,2,3,0.
10,1,1,0
10,2,3,0.
11,1,1,0
11,2,3,0.
12,1,1,0
12,2,3,0.
13,1,1,0
13,2,3,0.
14,1,1,0
14,2,3,0.
15,1,1,0
15,2,3,0.
16,1,1,0
16,2,3,0.
17,1,1,0
17,2,3,0.
18,1,1,0
18,2,3,0.
19,1,1,0
19,2,3,0.
20,1,1,0
20,2,3,0.
21,1,1,0
21,2,3,0.
22,1,1,0
22,2,3,0.
23,1,1,0
23,2,3,0.
24,1,1,0
24,2,3,0.
25,1,1,0
25,2,3,0.
26,1,1,0
26,2,3,0.
27,1,1,0
27,2,3,0.
28,1,1,0
28,2,3,0.
29,1,1,0
29,2,3,0.
30,1,1,0
30,2,3,0.
31,1,1,0
31,2,3,0.
32,1,1,0
32,2,3,0.
33,1,1,0
33,2,3,0.
34,1,1,0
34,2,3,0.
35,1,1,0
35,2,3,0.
36,1,1,0
36,2,3,0.
37,1,1,0
37,2,3,0.
38,1,1,0
38,2,3,0.
39,1,1,0
39,2,3,0.
40,1,1,0
40,2,3,0.
41,1,1,0
41,2,3,0.
42,1,1,0
42,2,3,0.
43,1,1,0
43,2,3,0.
44,1,1,0
44,2,3,0.
45,1,1,0
45,2,3,0.
46,1,1,0
46,2,3,0.
47,1,1,0
47,2,3,0.
48,1,1,0
48,2,3,0.
49,1,1,0
49,2,3,0.
50,1,1,0
50,2,3,0.
51,1,1,0
51,2,3,0.
52,1,1,0
52,2,3,0.
53,1,1,0
53,2,3,0.
54,1,1,0
54,2,3,0.
55,1,1,0
55,2,3,0.
56,1,1,0
56,2,3,0.
57,1,1,-1.0000000000000001e-05
57,2,3,0.
58,1,1,-1.0000000000000001e-05
58,2,3,0.
59,1,1,-1.0000000000000001e-05
59,2,3,0.
60,1,1,-1.0000000000000001e-05
60,2,3,0.
61,1,1,-1.0000000000000001e-05
61,2,3,0.
62,1,1,-1.0000000000000001e-05
62,2,3,0.
63,1,1,-1.0000000000000001e-05
63,2,3,0.
64,1,1,-1.0000000000000001e-05
64,2,3,0.
65,1,1,-1.0000000000000001e-05
65,2,3,0.
66,1,1,-1.0000000000000001e-05
66,2,3,0.
67,1,1,-1.0000000000000001e-05
67,2,3,0.
68,1,1,-1.0100000000000002e-05
68,2,3,0.
69,1,1,-1.0000000000000001e-05
69,2,3,0.
70,1,1,-1.0000000000000001e-05
70,2,3,0.
71,1,1,-1.0000000000000001e-05
71,2,3,0.
72,1,1,-1.0000000000000001e-05
72,2,3,0.
73,1,1,-1.0000000000000001e-05
73,2,3,0.
74,1,1,-1.0000000000000001e-05
74,2,3,0.
75,1,1,-1.0000000000000001e-05
75,2,3,0.
76,1,1,-1.0000000000000001e-05
76,2,3,0.
77,1,1,-1.0000000000000001e-05
77,2,3,0.
78,1,1,-1.0000000000000001e-05
78,2,3,0.
79,1,1,-1.0000000000000001e-05
79,2,3,0.
80,1,1,-1.0000000000000001e-05
80,2,3,0.
81,1,1,-1.0000000000000001e-05
81,2,3,0.
82,1,1,-1.0000000000000001e-05
82,2,3,0.
83,1,1,-1.0000000000000001e-05
83,2,3,0.
84,1,1,-1.0000000000000001e-05
84,2,3,0.
85,1,1,-1.0000000000000001e-05
85,2,3,0.
86,1,1,-1.0000000000000001e-05
86,2,3,0.
87,1,1,-1.0000000000000001e-05
87,2,3,0.
88,1,1,-1.0000000000000001e-05
88,2,3,0.
PRIMARY_X0,11,11,300.
SECONDARY_X2,11,11,400.
*Output, field, frequency=1
*Node Output
U,NT,RF,RFL
*Element Output, directions=YES
S
*Contact Output
CSTRESS,CDISP,CFORCE,HFLA,CTANDIR
*End Step
*Step, name=GAP_58, nlgeom=YES, unsymm=YES, extrapolation=NO
*Coupled Temperature-Displacement
0.025,0.025
*Boundary
1,1,1,0
1,2,3,0.
2,1,1,0
2,2,3,0.
3,1,1,0
3,2,3,0.
4,1,1,0
4,2,3,0.
5,1,1,0
5,2,3,0.
6,1,1,0
6,2,3,0.
7,1,1,0
7,2,3,0.
8,1,1,0
8,2,3,0.
9,1,1,0
9,2,3,0.
10,1,1,0
10,2,3,0.
11,1,1,0
11,2,3,0.
12,1,1,0
12,2,3,0.
13,1,1,0
13,2,3,0.
14,1,1,0
14,2,3,0.
15,1,1,0
15,2,3,0.
16,1,1,0
16,2,3,0.
17,1,1,0
17,2,3,0.
18,1,1,0
18,2,3,0.
19,1,1,0
19,2,3,0.
20,1,1,0
20,2,3,0.
21,1,1,0
21,2,3,0.
22,1,1,0
22,2,3,0.
23,1,1,0
23,2,3,0.
24,1,1,0
24,2,3,0.
25,1,1,0
25,2,3,0.
26,1,1,0
26,2,3,0.
27,1,1,0
27,2,3,0.
28,1,1,0
28,2,3,0.
29,1,1,0
29,2,3,0.
30,1,1,0
30,2,3,0.
31,1,1,0
31,2,3,0.
32,1,1,0
32,2,3,0.
33,1,1,0
33,2,3,0.
34,1,1,0
34,2,3,0.
35,1,1,0
35,2,3,0.
36,1,1,0
36,2,3,0.
37,1,1,0
37,2,3,0.
38,1,1,0
38,2,3,0.
39,1,1,0
39,2,3,0.
40,1,1,0
40,2,3,0.
41,1,1,0
41,2,3,0.
42,1,1,0
42,2,3,0.
43,1,1,0
43,2,3,0.
44,1,1,0
44,2,3,0.
45,1,1,0
45,2,3,0.
46,1,1,0
46,2,3,0.
47,1,1,0
47,2,3,0.
48,1,1,0
48,2,3,0.
49,1,1,0
49,2,3,0.
50,1,1,0
50,2,3,0.
51,1,1,0
51,2,3,0.
52,1,1,0
52,2,3,0.
53,1,1,0
53,2,3,0.
54,1,1,0
54,2,3,0.
55,1,1,0
55,2,3,0.
56,1,1,0
56,2,3,0.
57,1,1,-1.0000000000000001e-05
57,2,3,0.
58,1,1,-1.0000000000000001e-05
58,2,3,0.
59,1,1,-1.0000000000000001e-05
59,2,3,0.
60,1,1,-1.0000000000000001e-05
60,2,3,0.
61,1,1,-1.0000000000000001e-05
61,2,3,0.
62,1,1,-1.0000000000000001e-05
62,2,3,0.
63,1,1,-1.0000000000000001e-05
63,2,3,0.
64,1,1,-1.0000000000000001e-05
64,2,3,0.
65,1,1,-1.0000000000000001e-05
65,2,3,0.
66,1,1,-1.0000000000000001e-05
66,2,3,0.
67,1,1,-1.0000000000000001e-05
67,2,3,0.
68,1,1,-1.0000000000000001e-05
68,2,3,0.
69,1,1,-9.9000000000000001e-06
69,2,3,0.
70,1,1,-1.0000000000000001e-05
70,2,3,0.
71,1,1,-1.0000000000000001e-05
71,2,3,0.
72,1,1,-1.0000000000000001e-05
72,2,3,0.
73,1,1,-1.0000000000000001e-05
73,2,3,0.
74,1,1,-1.0000000000000001e-05
74,2,3,0.
75,1,1,-1.0000000000000001e-05
75,2,3,0.
76,1,1,-1.0000000000000001e-05
76,2,3,0.
77,1,1,-1.0000000000000001e-05
77,2,3,0.
78,1,1,-1.0000000000000001e-05
78,2,3,0.
79,1,1,-1.0000000000000001e-05
79,2,3,0.
80,1,1,-1.0000000000000001e-05
80,2,3,0.
81,1,1,-1.0000000000000001e-05
81,2,3,0.
82,1,1,-1.0000000000000001e-05
82,2,3,0.
83,1,1,-1.0000000000000001e-05
83,2,3,0.
84,1,1,-1.0000000000000001e-05
84,2,3,0.
85,1,1,-1.0000000000000001e-05
85,2,3,0.
86,1,1,-1.0000000000000001e-05
86,2,3,0.
87,1,1,-1.0000000000000001e-05
87,2,3,0.
88,1,1,-1.0000000000000001e-05
88,2,3,0.
PRIMARY_X0,11,11,300.
SECONDARY_X2,11,11,400.
*Output, field, frequency=1
*Node Output
U,NT,RF,RFL
*Element Output, directions=YES
S
*Contact Output
CSTRESS,CDISP,CFORCE,HFLA,CTANDIR
*End Step
*Step, name=GAP_59, nlgeom=YES, unsymm=YES, extrapolation=NO
*Coupled Temperature-Displacement
0.025,0.025
*Boundary
1,1,1,0
1,2,3,0.
2,1,1,0
2,2,3,0.
3,1,1,0
3,2,3,0.
4,1,1,0
4,2,3,0.
5,1,1,0
5,2,3,0.
6,1,1,0
6,2,3,0.
7,1,1,0
7,2,3,0.
8,1,1,0
8,2,3,0.
9,1,1,0
9,2,3,0.
10,1,1,0
10,2,3,0.
11,1,1,0
11,2,3,0.
12,1,1,0
12,2,3,0.
13,1,1,0
13,2,3,0.
14,1,1,0
14,2,3,0.
15,1,1,0
15,2,3,0.
16,1,1,0
16,2,3,0.
17,1,1,0
17,2,3,0.
18,1,1,0
18,2,3,0.
19,1,1,0
19,2,3,0.
20,1,1,0
20,2,3,0.
21,1,1,0
21,2,3,0.
22,1,1,0
22,2,3,0.
23,1,1,0
23,2,3,0.
24,1,1,0
24,2,3,0.
25,1,1,0
25,2,3,0.
26,1,1,0
26,2,3,0.
27,1,1,0
27,2,3,0.
28,1,1,0
28,2,3,0.
29,1,1,0
29,2,3,0.
30,1,1,0
30,2,3,0.
31,1,1,0
31,2,3,0.
32,1,1,0
32,2,3,0.
33,1,1,0
33,2,3,0.
34,1,1,0
34,2,3,0.
35,1,1,0
35,2,3,0.
36,1,1,0
36,2,3,0.
37,1,1,0
37,2,3,0.
38,1,1,0
38,2,3,0.
39,1,1,0
39,2,3,0.
40,1,1,0
40,2,3,0.
41,1,1,0
41,2,3,0.
42,1,1,0
42,2,3,0.
43,1,1,0
43,2,3,0.
44,1,1,0
44,2,3,0.
45,1,1,0
45,2,3,0.
46,1,1,0
46,2,3,0.
47,1,1,0
47,2,3,0.
48,1,1,0
48,2,3,0.
49,1,1,0
49,2,3,0.
50,1,1,0
50,2,3,0.
51,1,1,0
51,2,3,0.
52,1,1,0
52,2,3,0.
53,1,1,0
53,2,3,0.
54,1,1,0
54,2,3,0.
55,1,1,0
55,2,3,0.
56,1,1,0
56,2,3,0.
57,1,1,-1.0000000000000001e-05
57,2,3,0.
58,1,1,-1.0000000000000001e-05
58,2,3,0.
59,1,1,-1.0000000000000001e-05
59,2,3,0.
60,1,1,-1.0000000000000001e-05
60,2,3,0.
61,1,1,-1.0000000000000001e-05
61,2,3,0.
62,1,1,-1.0000000000000001e-05
62,2,3,0.
63,1,1,-1.0000000000000001e-05
63,2,3,0.
64,1,1,-1.0000000000000001e-05
64,2,3,0.
65,1,1,-1.0000000000000001e-05
65,2,3,0.
66,1,1,-1.0000000000000001e-05
66,2,3,0.
67,1,1,-1.0000000000000001e-05
67,2,3,0.
68,1,1,-1.0000000000000001e-05
68,2,3,0.
69,1,1,-1.0100000000000002e-05
69,2,3,0.
70,1,1,-1.0000000000000001e-05
70,2,3,0.
71,1,1,-1.0000000000000001e-05
71,2,3,0.
72,1,1,-1.0000000000000001e-05
72,2,3,0.
73,1,1,-1.0000000000000001e-05
73,2,3,0.
74,1,1,-1.0000000000000001e-05
74,2,3,0.
75,1,1,-1.0000000000000001e-05
75,2,3,0.
76,1,1,-1.0000000000000001e-05
76,2,3,0.
77,1,1,-1.0000000000000001e-05
77,2,3,0.
78,1,1,-1.0000000000000001e-05
78,2,3,0.
79,1,1,-1.0000000000000001e-05
79,2,3,0.
80,1,1,-1.0000000000000001e-05
80,2,3,0.
81,1,1,-1.0000000000000001e-05
81,2,3,0.
82,1,1,-1.0000000000000001e-05
82,2,3,0.
83,1,1,-1.0000000000000001e-05
83,2,3,0.
84,1,1,-1.0000000000000001e-05
84,2,3,0.
85,1,1,-1.0000000000000001e-05
85,2,3,0.
86,1,1,-1.0000000000000001e-05
86,2,3,0.
87,1,1,-1.0000000000000001e-05
87,2,3,0.
88,1,1,-1.0000000000000001e-05
88,2,3,0.
PRIMARY_X0,11,11,300.
SECONDARY_X2,11,11,400.
*Output, field, frequency=1
*Node Output
U,NT,RF,RFL
*Element Output, directions=YES
S
*Contact Output
CSTRESS,CDISP,CFORCE,HFLA,CTANDIR
*End Step
*Step, name=GAP_60, nlgeom=YES, unsymm=YES, extrapolation=NO
*Coupled Temperature-Displacement
0.025,0.025
*Boundary
1,1,1,0
1,2,3,0.
2,1,1,0
2,2,3,0.
3,1,1,0
3,2,3,0.
4,1,1,0
4,2,3,0.
5,1,1,0
5,2,3,0.
6,1,1,0
6,2,3,0.
7,1,1,0
7,2,3,0.
8,1,1,0
8,2,3,0.
9,1,1,0
9,2,3,0.
10,1,1,0
10,2,3,0.
11,1,1,0
11,2,3,0.
12,1,1,0
12,2,3,0.
13,1,1,0
13,2,3,0.
14,1,1,0
14,2,3,0.
15,1,1,0
15,2,3,0.
16,1,1,0
16,2,3,0.
17,1,1,0
17,2,3,0.
18,1,1,0
18,2,3,0.
19,1,1,0
19,2,3,0.
20,1,1,0
20,2,3,0.
21,1,1,0
21,2,3,0.
22,1,1,0
22,2,3,0.
23,1,1,0
23,2,3,0.
24,1,1,0
24,2,3,0.
25,1,1,0
25,2,3,0.
26,1,1,0
26,2,3,0.
27,1,1,0
27,2,3,0.
28,1,1,0
28,2,3,0.
29,1,1,0
29,2,3,0.
30,1,1,0
30,2,3,0.
31,1,1,0
31,2,3,0.
32,1,1,0
32,2,3,0.
33,1,1,0
33,2,3,0.
34,1,1,0
34,2,3,0.
35,1,1,0
35,2,3,0.
36,1,1,0
36,2,3,0.
37,1,1,0
37,2,3,0.
38,1,1,0
38,2,3,0.
39,1,1,0
39,2,3,0.
40,1,1,0
40,2,3,0.
41,1,1,0
41,2,3,0.
42,1,1,0
42,2,3,0.
43,1,1,0
43,2,3,0.
44,1,1,0
44,2,3,0.
45,1,1,0
45,2,3,0.
46,1,1,0
46,2,3,0.
47,1,1,0
47,2,3,0.
48,1,1,0
48,2,3,0.
49,1,1,0
49,2,3,0.
50,1,1,0
50,2,3,0.
51,1,1,0
51,2,3,0.
52,1,1,0
52,2,3,0.
53,1,1,0
53,2,3,0.
54,1,1,0
54,2,3,0.
55,1,1,0
55,2,3,0.
56,1,1,0
56,2,3,0.
57,1,1,-1.0000000000000001e-05
57,2,3,0.
58,1,1,-1.0000000000000001e-05
58,2,3,0.
59,1,1,-1.0000000000000001e-05
59,2,3,0.
60,1,1,-1.0000000000000001e-05
60,2,3,0.
61,1,1,-1.0000000000000001e-05
61,2,3,0.
62,1,1,-1.0000000000000001e-05
62,2,3,0.
63,1,1,-1.0000000000000001e-05
63,2,3,0.
64,1,1,-1.0000000000000001e-05
64,2,3,0.
65,1,1,-1.0000000000000001e-05
65,2,3,0.
66,1,1,-1.0000000000000001e-05
66,2,3,0.
67,1,1,-1.0000000000000001e-05
67,2,3,0.
68,1,1,-1.0000000000000001e-05
68,2,3,0.
69,1,1,-1.0000000000000001e-05
69,2,3,0.
70,1,1,-1.0000000000000001e-05
70,2,3,0.
71,1,1,-1.0000000000000001e-05
71,2,3,0.
72,1,1,-9.9000000000000001e-06
72,2,3,0.
73,1,1,-1.0000000000000001e-05
73,2,3,0.
74,1,1,-1.0000000000000001e-05
74,2,3,0.
75,1,1,-1.0000000000000001e-05
75,2,3,0.
76,1,1,-1.0000000000000001e-05
76,2,3,0.
77,1,1,-1.0000000000000001e-05
77,2,3,0.
78,1,1,-1.0000000000000001e-05
78,2,3,0.
79,1,1,-1.0000000000000001e-05
79,2,3,0.
80,1,1,-1.0000000000000001e-05
80,2,3,0.
81,1,1,-1.0000000000000001e-05
81,2,3,0.
82,1,1,-1.0000000000000001e-05
82,2,3,0.
83,1,1,-1.0000000000000001e-05
83,2,3,0.
84,1,1,-1.0000000000000001e-05
84,2,3,0.
85,1,1,-1.0000000000000001e-05
85,2,3,0.
86,1,1,-1.0000000000000001e-05
86,2,3,0.
87,1,1,-1.0000000000000001e-05
87,2,3,0.
88,1,1,-1.0000000000000001e-05
88,2,3,0.
PRIMARY_X0,11,11,300.
SECONDARY_X2,11,11,400.
*Output, field, frequency=1
*Node Output
U,NT,RF,RFL
*Element Output, directions=YES
S
*Contact Output
CSTRESS,CDISP,CFORCE,HFLA,CTANDIR
*End Step
*Step, name=GAP_61, nlgeom=YES, unsymm=YES, extrapolation=NO
*Coupled Temperature-Displacement
0.025,0.025
*Boundary
1,1,1,0
1,2,3,0.
2,1,1,0
2,2,3,0.
3,1,1,0
3,2,3,0.
4,1,1,0
4,2,3,0.
5,1,1,0
5,2,3,0.
6,1,1,0
6,2,3,0.
7,1,1,0
7,2,3,0.
8,1,1,0
8,2,3,0.
9,1,1,0
9,2,3,0.
10,1,1,0
10,2,3,0.
11,1,1,0
11,2,3,0.
12,1,1,0
12,2,3,0.
13,1,1,0
13,2,3,0.
14,1,1,0
14,2,3,0.
15,1,1,0
15,2,3,0.
16,1,1,0
16,2,3,0.
17,1,1,0
17,2,3,0.
18,1,1,0
18,2,3,0.
19,1,1,0
19,2,3,0.
20,1,1,0
20,2,3,0.
21,1,1,0
21,2,3,0.
22,1,1,0
22,2,3,0.
23,1,1,0
23,2,3,0.
24,1,1,0
24,2,3,0.
25,1,1,0
25,2,3,0.
26,1,1,0
26,2,3,0.
27,1,1,0
27,2,3,0.
28,1,1,0
28,2,3,0.
29,1,1,0
29,2,3,0.
30,1,1,0
30,2,3,0.
31,1,1,0
31,2,3,0.
32,1,1,0
32,2,3,0.
33,1,1,0
33,2,3,0.
34,1,1,0
34,2,3,0.
35,1,1,0
35,2,3,0.
36,1,1,0
36,2,3,0.
37,1,1,0
37,2,3,0.
38,1,1,0
38,2,3,0.
39,1,1,0
39,2,3,0.
40,1,1,0
40,2,3,0.
41,1,1,0
41,2,3,0.
42,1,1,0
42,2,3,0.
43,1,1,0
43,2,3,0.
44,1,1,0
44,2,3,0.
45,1,1,0
45,2,3,0.
46,1,1,0
46,2,3,0.
47,1,1,0
47,2,3,0.
48,1,1,0
48,2,3,0.
49,1,1,0
49,2,3,0.
50,1,1,0
50,2,3,0.
51,1,1,0
51,2,3,0.
52,1,1,0
52,2,3,0.
53,1,1,0
53,2,3,0.
54,1,1,0
54,2,3,0.
55,1,1,0
55,2,3,0.
56,1,1,0
56,2,3,0.
57,1,1,-1.0000000000000001e-05
57,2,3,0.
58,1,1,-1.0000000000000001e-05
58,2,3,0.
59,1,1,-1.0000000000000001e-05
59,2,3,0.
60,1,1,-1.0000000000000001e-05
60,2,3,0.
61,1,1,-1.0000000000000001e-05
61,2,3,0.
62,1,1,-1.0000000000000001e-05
62,2,3,0.
63,1,1,-1.0000000000000001e-05
63,2,3,0.
64,1,1,-1.0000000000000001e-05
64,2,3,0.
65,1,1,-1.0000000000000001e-05
65,2,3,0.
66,1,1,-1.0000000000000001e-05
66,2,3,0.
67,1,1,-1.0000000000000001e-05
67,2,3,0.
68,1,1,-1.0000000000000001e-05
68,2,3,0.
69,1,1,-1.0000000000000001e-05
69,2,3,0.
70,1,1,-1.0000000000000001e-05
70,2,3,0.
71,1,1,-1.0000000000000001e-05
71,2,3,0.
72,1,1,-1.0100000000000002e-05
72,2,3,0.
73,1,1,-1.0000000000000001e-05
73,2,3,0.
74,1,1,-1.0000000000000001e-05
74,2,3,0.
75,1,1,-1.0000000000000001e-05
75,2,3,0.
76,1,1,-1.0000000000000001e-05
76,2,3,0.
77,1,1,-1.0000000000000001e-05
77,2,3,0.
78,1,1,-1.0000000000000001e-05
78,2,3,0.
79,1,1,-1.0000000000000001e-05
79,2,3,0.
80,1,1,-1.0000000000000001e-05
80,2,3,0.
81,1,1,-1.0000000000000001e-05
81,2,3,0.
82,1,1,-1.0000000000000001e-05
82,2,3,0.
83,1,1,-1.0000000000000001e-05
83,2,3,0.
84,1,1,-1.0000000000000001e-05
84,2,3,0.
85,1,1,-1.0000000000000001e-05
85,2,3,0.
86,1,1,-1.0000000000000001e-05
86,2,3,0.
87,1,1,-1.0000000000000001e-05
87,2,3,0.
88,1,1,-1.0000000000000001e-05
88,2,3,0.
PRIMARY_X0,11,11,300.
SECONDARY_X2,11,11,400.
*Output, field, frequency=1
*Node Output
U,NT,RF,RFL
*Element Output, directions=YES
S
*Contact Output
CSTRESS,CDISP,CFORCE,HFLA,CTANDIR
*End Step
*Step, name=GAP_62, nlgeom=YES, unsymm=YES, extrapolation=NO
*Coupled Temperature-Displacement
0.025,0.025
*Boundary
1,1,1,0
1,2,3,0.
2,1,1,0
2,2,3,0.
3,1,1,0
3,2,3,0.
4,1,1,0
4,2,3,0.
5,1,1,0
5,2,3,0.
6,1,1,0
6,2,3,0.
7,1,1,0
7,2,3,0.
8,1,1,0
8,2,3,0.
9,1,1,0
9,2,3,0.
10,1,1,0
10,2,3,0.
11,1,1,0
11,2,3,0.
12,1,1,0
12,2,3,0.
13,1,1,0
13,2,3,0.
14,1,1,0
14,2,3,0.
15,1,1,0
15,2,3,0.
16,1,1,0
16,2,3,0.
17,1,1,0
17,2,3,0.
18,1,1,0
18,2,3,0.
19,1,1,0
19,2,3,0.
20,1,1,0
20,2,3,0.
21,1,1,0
21,2,3,0.
22,1,1,0
22,2,3,0.
23,1,1,0
23,2,3,0.
24,1,1,0
24,2,3,0.
25,1,1,0
25,2,3,0.
26,1,1,0
26,2,3,0.
27,1,1,0
27,2,3,0.
28,1,1,0
28,2,3,0.
29,1,1,0
29,2,3,0.
30,1,1,0
30,2,3,0.
31,1,1,0
31,2,3,0.
32,1,1,0
32,2,3,0.
33,1,1,0
33,2,3,0.
34,1,1,0
34,2,3,0.
35,1,1,0
35,2,3,0.
36,1,1,0
36,2,3,0.
37,1,1,0
37,2,3,0.
38,1,1,0
38,2,3,0.
39,1,1,0
39,2,3,0.
40,1,1,0
40,2,3,0.
41,1,1,0
41,2,3,0.
42,1,1,0
42,2,3,0.
43,1,1,0
43,2,3,0.
44,1,1,0
44,2,3,0.
45,1,1,0
45,2,3,0.
46,1,1,0
46,2,3,0.
47,1,1,0
47,2,3,0.
48,1,1,0
48,2,3,0.
49,1,1,0
49,2,3,0.
50,1,1,0
50,2,3,0.
51,1,1,0
51,2,3,0.
52,1,1,0
52,2,3,0.
53,1,1,0
53,2,3,0.
54,1,1,0
54,2,3,0.
55,1,1,0
55,2,3,0.
56,1,1,0
56,2,3,0.
57,1,1,-1.0000000000000001e-05
57,2,3,0.
58,1,1,-1.0000000000000001e-05
58,2,3,0.
59,1,1,-1.0000000000000001e-05
59,2,3,0.
60,1,1,-1.0000000000000001e-05
60,2,3,0.
61,1,1,-1.0000000000000001e-05
61,2,3,0.
62,1,1,-1.0000000000000001e-05
62,2,3,0.
63,1,1,-1.0000000000000001e-05
63,2,3,0.
64,1,1,-1.0000000000000001e-05
64,2,3,0.
65,1,1,-1.0000000000000001e-05
65,2,3,0.
66,1,1,-1.0000000000000001e-05
66,2,3,0.
67,1,1,-1.0000000000000001e-05
67,2,3,0.
68,1,1,-1.0000000000000001e-05
68,2,3,0.
69,1,1,-1.0000000000000001e-05
69,2,3,0.
70,1,1,-1.0000000000000001e-05
70,2,3,0.
71,1,1,-1.0000000000000001e-05
71,2,3,0.
72,1,1,-1.0000000000000001e-05
72,2,3,0.
73,1,1,-1.0000000000000001e-05
73,2,3,0.
74,1,1,-1.0000000000000001e-05
74,2,3,0.
75,1,1,-1.0000000000000001e-05
75,2,3,0.
76,1,1,-9.9000000000000001e-06
76,2,3,0.
77,1,1,-1.0000000000000001e-05
77,2,3,0.
78,1,1,-1.0000000000000001e-05
78,2,3,0.
79,1,1,-1.0000000000000001e-05
79,2,3,0.
80,1,1,-1.0000000000000001e-05
80,2,3,0.
81,1,1,-1.0000000000000001e-05
81,2,3,0.
82,1,1,-1.0000000000000001e-05
82,2,3,0.
83,1,1,-1.0000000000000001e-05
83,2,3,0.
84,1,1,-1.0000000000000001e-05
84,2,3,0.
85,1,1,-1.0000000000000001e-05
85,2,3,0.
86,1,1,-1.0000000000000001e-05
86,2,3,0.
87,1,1,-1.0000000000000001e-05
87,2,3,0.
88,1,1,-1.0000000000000001e-05
88,2,3,0.
PRIMARY_X0,11,11,300.
SECONDARY_X2,11,11,400.
*Output, field, frequency=1
*Node Output
U,NT,RF,RFL
*Element Output, directions=YES
S
*Contact Output
CSTRESS,CDISP,CFORCE,HFLA,CTANDIR
*End Step
*Step, name=GAP_63, nlgeom=YES, unsymm=YES, extrapolation=NO
*Coupled Temperature-Displacement
0.025,0.025
*Boundary
1,1,1,0
1,2,3,0.
2,1,1,0
2,2,3,0.
3,1,1,0
3,2,3,0.
4,1,1,0
4,2,3,0.
5,1,1,0
5,2,3,0.
6,1,1,0
6,2,3,0.
7,1,1,0
7,2,3,0.
8,1,1,0
8,2,3,0.
9,1,1,0
9,2,3,0.
10,1,1,0
10,2,3,0.
11,1,1,0
11,2,3,0.
12,1,1,0
12,2,3,0.
13,1,1,0
13,2,3,0.
14,1,1,0
14,2,3,0.
15,1,1,0
15,2,3,0.
16,1,1,0
16,2,3,0.
17,1,1,0
17,2,3,0.
18,1,1,0
18,2,3,0.
19,1,1,0
19,2,3,0.
20,1,1,0
20,2,3,0.
21,1,1,0
21,2,3,0.
22,1,1,0
22,2,3,0.
23,1,1,0
23,2,3,0.
24,1,1,0
24,2,3,0.
25,1,1,0
25,2,3,0.
26,1,1,0
26,2,3,0.
27,1,1,0
27,2,3,0.
28,1,1,0
28,2,3,0.
29,1,1,0
29,2,3,0.
30,1,1,0
30,2,3,0.
31,1,1,0
31,2,3,0.
32,1,1,0
32,2,3,0.
33,1,1,0
33,2,3,0.
34,1,1,0
34,2,3,0.
35,1,1,0
35,2,3,0.
36,1,1,0
36,2,3,0.
37,1,1,0
37,2,3,0.
38,1,1,0
38,2,3,0.
39,1,1,0
39,2,3,0.
40,1,1,0
40,2,3,0.
41,1,1,0
41,2,3,0.
42,1,1,0
42,2,3,0.
43,1,1,0
43,2,3,0.
44,1,1,0
44,2,3,0.
45,1,1,0
45,2,3,0.
46,1,1,0
46,2,3,0.
47,1,1,0
47,2,3,0.
48,1,1,0
48,2,3,0.
49,1,1,0
49,2,3,0.
50,1,1,0
50,2,3,0.
51,1,1,0
51,2,3,0.
52,1,1,0
52,2,3,0.
53,1,1,0
53,2,3,0.
54,1,1,0
54,2,3,0.
55,1,1,0
55,2,3,0.
56,1,1,0
56,2,3,0.
57,1,1,-1.0000000000000001e-05
57,2,3,0.
58,1,1,-1.0000000000000001e-05
58,2,3,0.
59,1,1,-1.0000000000000001e-05
59,2,3,0.
60,1,1,-1.0000000000000001e-05
60,2,3,0.
61,1,1,-1.0000000000000001e-05
61,2,3,0.
62,1,1,-1.0000000000000001e-05
62,2,3,0.
63,1,1,-1.0000000000000001e-05
63,2,3,0.
64,1,1,-1.0000000000000001e-05
64,2,3,0.
65,1,1,-1.0000000000000001e-05
65,2,3,0.
66,1,1,-1.0000000000000001e-05
66,2,3,0.
67,1,1,-1.0000000000000001e-05
67,2,3,0.
68,1,1,-1.0000000000000001e-05
68,2,3,0.
69,1,1,-1.0000000000000001e-05
69,2,3,0.
70,1,1,-1.0000000000000001e-05
70,2,3,0.
71,1,1,-1.0000000000000001e-05
71,2,3,0.
72,1,1,-1.0000000000000001e-05
72,2,3,0.
73,1,1,-1.0000000000000001e-05
73,2,3,0.
74,1,1,-1.0000000000000001e-05
74,2,3,0.
75,1,1,-1.0000000000000001e-05
75,2,3,0.
76,1,1,-1.0100000000000002e-05
76,2,3,0.
77,1,1,-1.0000000000000001e-05
77,2,3,0.
78,1,1,-1.0000000000000001e-05
78,2,3,0.
79,1,1,-1.0000000000000001e-05
79,2,3,0.
80,1,1,-1.0000000000000001e-05
80,2,3,0.
81,1,1,-1.0000000000000001e-05
81,2,3,0.
82,1,1,-1.0000000000000001e-05
82,2,3,0.
83,1,1,-1.0000000000000001e-05
83,2,3,0.
84,1,1,-1.0000000000000001e-05
84,2,3,0.
85,1,1,-1.0000000000000001e-05
85,2,3,0.
86,1,1,-1.0000000000000001e-05
86,2,3,0.
87,1,1,-1.0000000000000001e-05
87,2,3,0.
88,1,1,-1.0000000000000001e-05
88,2,3,0.
PRIMARY_X0,11,11,300.
SECONDARY_X2,11,11,400.
*Output, field, frequency=1
*Node Output
U,NT,RF,RFL
*Element Output, directions=YES
S
*Contact Output
CSTRESS,CDISP,CFORCE,HFLA,CTANDIR
*End Step
*Step, name=GAP_64, nlgeom=YES, unsymm=YES, extrapolation=NO
*Coupled Temperature-Displacement
0.025,0.025
*Boundary
1,1,1,0
1,2,3,0.
2,1,1,0
2,2,3,0.
3,1,1,0
3,2,3,0.
4,1,1,0
4,2,3,0.
5,1,1,0
5,2,3,0.
6,1,1,0
6,2,3,0.
7,1,1,0
7,2,3,0.
8,1,1,0
8,2,3,0.
9,1,1,0
9,2,3,0.
10,1,1,0
10,2,3,0.
11,1,1,0
11,2,3,0.
12,1,1,0
12,2,3,0.
13,1,1,0
13,2,3,0.
14,1,1,0
14,2,3,0.
15,1,1,0
15,2,3,0.
16,1,1,0
16,2,3,0.
17,1,1,0
17,2,3,0.
18,1,1,0
18,2,3,0.
19,1,1,0
19,2,3,0.
20,1,1,0
20,2,3,0.
21,1,1,0
21,2,3,0.
22,1,1,0
22,2,3,0.
23,1,1,0
23,2,3,0.
24,1,1,0
24,2,3,0.
25,1,1,0
25,2,3,0.
26,1,1,0
26,2,3,0.
27,1,1,0
27,2,3,0.
28,1,1,0
28,2,3,0.
29,1,1,0
29,2,3,0.
30,1,1,0
30,2,3,0.
31,1,1,0
31,2,3,0.
32,1,1,0
32,2,3,0.
33,1,1,0
33,2,3,0.
34,1,1,0
34,2,3,0.
35,1,1,0
35,2,3,0.
36,1,1,0
36,2,3,0.
37,1,1,0
37,2,3,0.
38,1,1,0
38,2,3,0.
39,1,1,0
39,2,3,0.
40,1,1,0
40,2,3,0.
41,1,1,0
41,2,3,0.
42,1,1,0
42,2,3,0.
43,1,1,0
43,2,3,0.
44,1,1,0
44,2,3,0.
45,1,1,0
45,2,3,0.
46,1,1,0
46,2,3,0.
47,1,1,0
47,2,3,0.
48,1,1,0
48,2,3,0.
49,1,1,0
49,2,3,0.
50,1,1,0
50,2,3,0.
51,1,1,0
51,2,3,0.
52,1,1,0
52,2,3,0.
53,1,1,0
53,2,3,0.
54,1,1,0
54,2,3,0.
55,1,1,0
55,2,3,0.
56,1,1,0
56,2,3,0.
57,1,1,-1.0000000000000001e-05
57,2,3,0.
58,1,1,-1.0000000000000001e-05
58,2,3,0.
59,1,1,-1.0000000000000001e-05
59,2,3,0.
60,1,1,-1.0000000000000001e-05
60,2,3,0.
61,1,1,-1.0000000000000001e-05
61,2,3,0.
62,1,1,-1.0000000000000001e-05
62,2,3,0.
63,1,1,-1.0000000000000001e-05
63,2,3,0.
64,1,1,-1.0000000000000001e-05
64,2,3,0.
65,1,1,-1.0000000000000001e-05
65,2,3,0.
66,1,1,-1.0000000000000001e-05
66,2,3,0.
67,1,1,-1.0000000000000001e-05
67,2,3,0.
68,1,1,-1.0000000000000001e-05
68,2,3,0.
69,1,1,-1.0000000000000001e-05
69,2,3,0.
70,1,1,-1.0000000000000001e-05
70,2,3,0.
71,1,1,-1.0000000000000001e-05
71,2,3,0.
72,1,1,-1.0000000000000001e-05
72,2,3,0.
73,1,1,-1.0000000000000001e-05
73,2,3,0.
74,1,1,-1.0000000000000001e-05
74,2,3,0.
75,1,1,-1.0000000000000001e-05
75,2,3,0.
76,1,1,-1.0000000000000001e-05
76,2,3,0.
77,1,1,-1.0000000000000001e-05
77,2,3,0.
78,1,1,-9.9000000000000001e-06
78,2,3,0.
79,1,1,-1.0000000000000001e-05
79,2,3,0.
80,1,1,-1.0000000000000001e-05
80,2,3,0.
81,1,1,-1.0000000000000001e-05
81,2,3,0.
82,1,1,-1.0000000000000001e-05
82,2,3,0.
83,1,1,-1.0000000000000001e-05
83,2,3,0.
84,1,1,-1.0000000000000001e-05
84,2,3,0.
85,1,1,-1.0000000000000001e-05
85,2,3,0.
86,1,1,-1.0000000000000001e-05
86,2,3,0.
87,1,1,-1.0000000000000001e-05
87,2,3,0.
88,1,1,-1.0000000000000001e-05
88,2,3,0.
PRIMARY_X0,11,11,300.
SECONDARY_X2,11,11,400.
*Output, field, frequency=1
*Node Output
U,NT,RF,RFL
*Element Output, directions=YES
S
*Contact Output
CSTRESS,CDISP,CFORCE,HFLA,CTANDIR
*End Step
*Step, name=GAP_65, nlgeom=YES, unsymm=YES, extrapolation=NO
*Coupled Temperature-Displacement
0.025,0.025
*Boundary
1,1,1,0
1,2,3,0.
2,1,1,0
2,2,3,0.
3,1,1,0
3,2,3,0.
4,1,1,0
4,2,3,0.
5,1,1,0
5,2,3,0.
6,1,1,0
6,2,3,0.
7,1,1,0
7,2,3,0.
8,1,1,0
8,2,3,0.
9,1,1,0
9,2,3,0.
10,1,1,0
10,2,3,0.
11,1,1,0
11,2,3,0.
12,1,1,0
12,2,3,0.
13,1,1,0
13,2,3,0.
14,1,1,0
14,2,3,0.
15,1,1,0
15,2,3,0.
16,1,1,0
16,2,3,0.
17,1,1,0
17,2,3,0.
18,1,1,0
18,2,3,0.
19,1,1,0
19,2,3,0.
20,1,1,0
20,2,3,0.
21,1,1,0
21,2,3,0.
22,1,1,0
22,2,3,0.
23,1,1,0
23,2,3,0.
24,1,1,0
24,2,3,0.
25,1,1,0
25,2,3,0.
26,1,1,0
26,2,3,0.
27,1,1,0
27,2,3,0.
28,1,1,0
28,2,3,0.
29,1,1,0
29,2,3,0.
30,1,1,0
30,2,3,0.
31,1,1,0
31,2,3,0.
32,1,1,0
32,2,3,0.
33,1,1,0
33,2,3,0.
34,1,1,0
34,2,3,0.
35,1,1,0
35,2,3,0.
36,1,1,0
36,2,3,0.
37,1,1,0
37,2,3,0.
38,1,1,0
38,2,3,0.
39,1,1,0
39,2,3,0.
40,1,1,0
40,2,3,0.
41,1,1,0
41,2,3,0.
42,1,1,0
42,2,3,0.
43,1,1,0
43,2,3,0.
44,1,1,0
44,2,3,0.
45,1,1,0
45,2,3,0.
46,1,1,0
46,2,3,0.
47,1,1,0
47,2,3,0.
48,1,1,0
48,2,3,0.
49,1,1,0
49,2,3,0.
50,1,1,0
50,2,3,0.
51,1,1,0
51,2,3,0.
52,1,1,0
52,2,3,0.
53,1,1,0
53,2,3,0.
54,1,1,0
54,2,3,0.
55,1,1,0
55,2,3,0.
56,1,1,0
56,2,3,0.
57,1,1,-1.0000000000000001e-05
57,2,3,0.
58,1,1,-1.0000000000000001e-05
58,2,3,0.
59,1,1,-1.0000000000000001e-05
59,2,3,0.
60,1,1,-1.0000000000000001e-05
60,2,3,0.
61,1,1,-1.0000000000000001e-05
61,2,3,0.
62,1,1,-1.0000000000000001e-05
62,2,3,0.
63,1,1,-1.0000000000000001e-05
63,2,3,0.
64,1,1,-1.0000000000000001e-05
64,2,3,0.
65,1,1,-1.0000000000000001e-05
65,2,3,0.
66,1,1,-1.0000000000000001e-05
66,2,3,0.
67,1,1,-1.0000000000000001e-05
67,2,3,0.
68,1,1,-1.0000000000000001e-05
68,2,3,0.
69,1,1,-1.0000000000000001e-05
69,2,3,0.
70,1,1,-1.0000000000000001e-05
70,2,3,0.
71,1,1,-1.0000000000000001e-05
71,2,3,0.
72,1,1,-1.0000000000000001e-05
72,2,3,0.
73,1,1,-1.0000000000000001e-05
73,2,3,0.
74,1,1,-1.0000000000000001e-05
74,2,3,0.
75,1,1,-1.0000000000000001e-05
75,2,3,0.
76,1,1,-1.0000000000000001e-05
76,2,3,0.
77,1,1,-1.0000000000000001e-05
77,2,3,0.
78,1,1,-1.0100000000000002e-05
78,2,3,0.
79,1,1,-1.0000000000000001e-05
79,2,3,0.
80,1,1,-1.0000000000000001e-05
80,2,3,0.
81,1,1,-1.0000000000000001e-05
81,2,3,0.
82,1,1,-1.0000000000000001e-05
82,2,3,0.
83,1,1,-1.0000000000000001e-05
83,2,3,0.
84,1,1,-1.0000000000000001e-05
84,2,3,0.
85,1,1,-1.0000000000000001e-05
85,2,3,0.
86,1,1,-1.0000000000000001e-05
86,2,3,0.
87,1,1,-1.0000000000000001e-05
87,2,3,0.
88,1,1,-1.0000000000000001e-05
88,2,3,0.
PRIMARY_X0,11,11,300.
SECONDARY_X2,11,11,400.
*Output, field, frequency=1
*Node Output
U,NT,RF,RFL
*Element Output, directions=YES
S
*Contact Output
CSTRESS,CDISP,CFORCE,HFLA,CTANDIR
*End Step
*Step, name=GAP_66, nlgeom=YES, unsymm=YES, extrapolation=NO
*Coupled Temperature-Displacement
0.025,0.025
*Boundary
1,1,1,0
1,2,3,0.
2,1,1,0
2,2,3,0.
3,1,1,0
3,2,3,0.
4,1,1,0
4,2,3,0.
5,1,1,0
5,2,3,0.
6,1,1,0
6,2,3,0.
7,1,1,0
7,2,3,0.
8,1,1,0
8,2,3,0.
9,1,1,0
9,2,3,0.
10,1,1,0
10,2,3,0.
11,1,1,0
11,2,3,0.
12,1,1,0
12,2,3,0.
13,1,1,0
13,2,3,0.
14,1,1,0
14,2,3,0.
15,1,1,0
15,2,3,0.
16,1,1,0
16,2,3,0.
17,1,1,0
17,2,3,0.
18,1,1,0
18,2,3,0.
19,1,1,0
19,2,3,0.
20,1,1,0
20,2,3,0.
21,1,1,0
21,2,3,0.
22,1,1,0
22,2,3,0.
23,1,1,0
23,2,3,0.
24,1,1,0
24,2,3,0.
25,1,1,0
25,2,3,0.
26,1,1,0
26,2,3,0.
27,1,1,0
27,2,3,0.
28,1,1,0
28,2,3,0.
29,1,1,0
29,2,3,0.
30,1,1,0
30,2,3,0.
31,1,1,0
31,2,3,0.
32,1,1,0
32,2,3,0.
33,1,1,0
33,2,3,0.
34,1,1,0
34,2,3,0.
35,1,1,0
35,2,3,0.
36,1,1,0
36,2,3,0.
37,1,1,0
37,2,3,0.
38,1,1,0
38,2,3,0.
39,1,1,0
39,2,3,0.
40,1,1,0
40,2,3,0.
41,1,1,0
41,2,3,0.
42,1,1,0
42,2,3,0.
43,1,1,0
43,2,3,0.
44,1,1,0
44,2,3,0.
45,1,1,0
45,2,3,0.
46,1,1,0
46,2,3,0.
47,1,1,0
47,2,3,0.
48,1,1,0
48,2,3,0.
49,1,1,0
49,2,3,0.
50,1,1,0
50,2,3,0.
51,1,1,0
51,2,3,0.
52,1,1,0
52,2,3,0.
53,1,1,0
53,2,3,0.
54,1,1,0
54,2,3,0.
55,1,1,0
55,2,3,0.
56,1,1,0
56,2,3,0.
57,1,1,-1.0000000000000001e-05
57,2,3,0.
58,1,1,-1.0000000000000001e-05
58,2,3,0.
59,1,1,-1.0000000000000001e-05
59,2,3,0.
60,1,1,-1.0000000000000001e-05
60,2,3,0.
61,1,1,-1.0000000000000001e-05
61,2,3,0.
62,1,1,-1.0000000000000001e-05
62,2,3,0.
63,1,1,-1.0000000000000001e-05
63,2,3,0.
64,1,1,-1.0000000000000001e-05
64,2,3,0.
65,1,1,-1.0000000000000001e-05
65,2,3,0.
66,1,1,-1.0000000000000001e-05
66,2,3,0.
67,1,1,-1.0000000000000001e-05
67,2,3,0.
68,1,1,-1.0000000000000001e-05
68,2,3,0.
69,1,1,-1.0000000000000001e-05
69,2,3,0.
70,1,1,-1.0000000000000001e-05
70,2,3,0.
71,1,1,-1.0000000000000001e-05
71,2,3,0.
72,1,1,-1.0000000000000001e-05
72,2,3,0.
73,1,1,-1.0000000000000001e-05
73,2,3,0.
74,1,1,-1.0000000000000001e-05
74,2,3,0.
75,1,1,-1.0000000000000001e-05
75,2,3,0.
76,1,1,-1.0000000000000001e-05
76,2,3,0.
77,1,1,-1.0000000000000001e-05
77,2,3,0.
78,1,1,-1.0000000000000001e-05
78,2,3,0.
79,1,1,-1.0000000000000001e-05
79,2,3,0.
80,1,1,-9.9000000000000001e-06
80,2,3,0.
81,1,1,-1.0000000000000001e-05
81,2,3,0.
82,1,1,-1.0000000000000001e-05
82,2,3,0.
83,1,1,-1.0000000000000001e-05
83,2,3,0.
84,1,1,-1.0000000000000001e-05
84,2,3,0.
85,1,1,-1.0000000000000001e-05
85,2,3,0.
86,1,1,-1.0000000000000001e-05
86,2,3,0.
87,1,1,-1.0000000000000001e-05
87,2,3,0.
88,1,1,-1.0000000000000001e-05
88,2,3,0.
PRIMARY_X0,11,11,300.
SECONDARY_X2,11,11,400.
*Output, field, frequency=1
*Node Output
U,NT,RF,RFL
*Element Output, directions=YES
S
*Contact Output
CSTRESS,CDISP,CFORCE,HFLA,CTANDIR
*End Step
*Step, name=GAP_67, nlgeom=YES, unsymm=YES, extrapolation=NO
*Coupled Temperature-Displacement
0.025,0.025
*Boundary
1,1,1,0
1,2,3,0.
2,1,1,0
2,2,3,0.
3,1,1,0
3,2,3,0.
4,1,1,0
4,2,3,0.
5,1,1,0
5,2,3,0.
6,1,1,0
6,2,3,0.
7,1,1,0
7,2,3,0.
8,1,1,0
8,2,3,0.
9,1,1,0
9,2,3,0.
10,1,1,0
10,2,3,0.
11,1,1,0
11,2,3,0.
12,1,1,0
12,2,3,0.
13,1,1,0
13,2,3,0.
14,1,1,0
14,2,3,0.
15,1,1,0
15,2,3,0.
16,1,1,0
16,2,3,0.
17,1,1,0
17,2,3,0.
18,1,1,0
18,2,3,0.
19,1,1,0
19,2,3,0.
20,1,1,0
20,2,3,0.
21,1,1,0
21,2,3,0.
22,1,1,0
22,2,3,0.
23,1,1,0
23,2,3,0.
24,1,1,0
24,2,3,0.
25,1,1,0
25,2,3,0.
26,1,1,0
26,2,3,0.
27,1,1,0
27,2,3,0.
28,1,1,0
28,2,3,0.
29,1,1,0
29,2,3,0.
30,1,1,0
30,2,3,0.
31,1,1,0
31,2,3,0.
32,1,1,0
32,2,3,0.
33,1,1,0
33,2,3,0.
34,1,1,0
34,2,3,0.
35,1,1,0
35,2,3,0.
36,1,1,0
36,2,3,0.
37,1,1,0
37,2,3,0.
38,1,1,0
38,2,3,0.
39,1,1,0
39,2,3,0.
40,1,1,0
40,2,3,0.
41,1,1,0
41,2,3,0.
42,1,1,0
42,2,3,0.
43,1,1,0
43,2,3,0.
44,1,1,0
44,2,3,0.
45,1,1,0
45,2,3,0.
46,1,1,0
46,2,3,0.
47,1,1,0
47,2,3,0.
48,1,1,0
48,2,3,0.
49,1,1,0
49,2,3,0.
50,1,1,0
50,2,3,0.
51,1,1,0
51,2,3,0.
52,1,1,0
52,2,3,0.
53,1,1,0
53,2,3,0.
54,1,1,0
54,2,3,0.
55,1,1,0
55,2,3,0.
56,1,1,0
56,2,3,0.
57,1,1,-1.0000000000000001e-05
57,2,3,0.
58,1,1,-1.0000000000000001e-05
58,2,3,0.
59,1,1,-1.0000000000000001e-05
59,2,3,0.
60,1,1,-1.0000000000000001e-05
60,2,3,0.
61,1,1,-1.0000000000000001e-05
61,2,3,0.
62,1,1,-1.0000000000000001e-05
62,2,3,0.
63,1,1,-1.0000000000000001e-05
63,2,3,0.
64,1,1,-1.0000000000000001e-05
64,2,3,0.
65,1,1,-1.0000000000000001e-05
65,2,3,0.
66,1,1,-1.0000000000000001e-05
66,2,3,0.
67,1,1,-1.0000000000000001e-05
67,2,3,0.
68,1,1,-1.0000000000000001e-05
68,2,3,0.
69,1,1,-1.0000000000000001e-05
69,2,3,0.
70,1,1,-1.0000000000000001e-05
70,2,3,0.
71,1,1,-1.0000000000000001e-05
71,2,3,0.
72,1,1,-1.0000000000000001e-05
72,2,3,0.
73,1,1,-1.0000000000000001e-05
73,2,3,0.
74,1,1,-1.0000000000000001e-05
74,2,3,0.
75,1,1,-1.0000000000000001e-05
75,2,3,0.
76,1,1,-1.0000000000000001e-05
76,2,3,0.
77,1,1,-1.0000000000000001e-05
77,2,3,0.
78,1,1,-1.0000000000000001e-05
78,2,3,0.
79,1,1,-1.0000000000000001e-05
79,2,3,0.
80,1,1,-1.0100000000000002e-05
80,2,3,0.
81,1,1,-1.0000000000000001e-05
81,2,3,0.
82,1,1,-1.0000000000000001e-05
82,2,3,0.
83,1,1,-1.0000000000000001e-05
83,2,3,0.
84,1,1,-1.0000000000000001e-05
84,2,3,0.
85,1,1,-1.0000000000000001e-05
85,2,3,0.
86,1,1,-1.0000000000000001e-05
86,2,3,0.
87,1,1,-1.0000000000000001e-05
87,2,3,0.
88,1,1,-1.0000000000000001e-05
88,2,3,0.
PRIMARY_X0,11,11,300.
SECONDARY_X2,11,11,400.
*Output, field, frequency=1
*Node Output
U,NT,RF,RFL
*Element Output, directions=YES
S
*Contact Output
CSTRESS,CDISP,CFORCE,HFLA,CTANDIR
*End Step
*Step, name=GAP_68, nlgeom=YES, unsymm=YES, extrapolation=NO
*Coupled Temperature-Displacement
0.025,0.025
*Boundary
1,1,1,0
1,2,3,0.
2,1,1,0
2,2,3,0.
3,1,1,0
3,2,3,0.
4,1,1,0
4,2,3,0.
5,1,1,0
5,2,3,0.
6,1,1,0
6,2,3,0.
7,1,1,0
7,2,3,0.
8,1,1,0
8,2,3,0.
9,1,1,0
9,2,3,0.
10,1,1,0
10,2,3,0.
11,1,1,0
11,2,3,0.
12,1,1,0
12,2,3,0.
13,1,1,0
13,2,3,0.
14,1,1,0
14,2,3,0.
15,1,1,0
15,2,3,0.
16,1,1,0
16,2,3,0.
17,1,1,0
17,2,3,0.
18,1,1,0
18,2,3,0.
19,1,1,0
19,2,3,0.
20,1,1,0
20,2,3,0.
21,1,1,0
21,2,3,0.
22,1,1,0
22,2,3,0.
23,1,1,0
23,2,3,0.
24,1,1,0
24,2,3,0.
25,1,1,0
25,2,3,0.
26,1,1,0
26,2,3,0.
27,1,1,0
27,2,3,0.
28,1,1,0
28,2,3,0.
29,1,1,0
29,2,3,0.
30,1,1,0
30,2,3,0.
31,1,1,0
31,2,3,0.
32,1,1,0
32,2,3,0.
33,1,1,0
33,2,3,0.
34,1,1,0
34,2,3,0.
35,1,1,0
35,2,3,0.
36,1,1,0
36,2,3,0.
37,1,1,0
37,2,3,0.
38,1,1,0
38,2,3,0.
39,1,1,0
39,2,3,0.
40,1,1,0
40,2,3,0.
41,1,1,0
41,2,3,0.
42,1,1,0
42,2,3,0.
43,1,1,0
43,2,3,0.
44,1,1,0
44,2,3,0.
45,1,1,0
45,2,3,0.
46,1,1,0
46,2,3,0.
47,1,1,0
47,2,3,0.
48,1,1,0
48,2,3,0.
49,1,1,0
49,2,3,0.
50,1,1,0
50,2,3,0.
51,1,1,0
51,2,3,0.
52,1,1,0
52,2,3,0.
53,1,1,0
53,2,3,0.
54,1,1,0
54,2,3,0.
55,1,1,0
55,2,3,0.
56,1,1,0
56,2,3,0.
57,1,1,-1.0000000000000001e-05
57,2,3,0.
58,1,1,-1.0000000000000001e-05
58,2,3,0.
59,1,1,-1.0000000000000001e-05
59,2,3,0.
60,1,1,-1.0000000000000001e-05
60,2,3,0.
61,1,1,-1.0000000000000001e-05
61,2,3,0.
62,1,1,-1.0000000000000001e-05
62,2,3,0.
63,1,1,-1.0000000000000001e-05
63,2,3,0.
64,1,1,-1.0000000000000001e-05
64,2,3,0.
65,1,1,-1.0000000000000001e-05
65,2,3,0.
66,1,1,-1.0000000000000001e-05
66,2,3,0.
67,1,1,-1.0000000000000001e-05
67,2,3,0.
68,1,1,-1.0000000000000001e-05
68,2,3,0.
69,1,1,-1.0000000000000001e-05
69,2,3,0.
70,1,1,-1.0000000000000001e-05
70,2,3,0.
71,1,1,-1.0000000000000001e-05
71,2,3,0.
72,1,1,-1.0000000000000001e-05
72,2,3,0.
73,1,1,-1.0000000000000001e-05
73,2,3,0.
74,1,1,-1.0000000000000001e-05
74,2,3,0.
75,1,1,-1.0000000000000001e-05
75,2,3,0.
76,1,1,-1.0000000000000001e-05
76,2,3,0.
77,1,1,-1.0000000000000001e-05
77,2,3,0.
78,1,1,-1.0000000000000001e-05
78,2,3,0.
79,1,1,-1.0000000000000001e-05
79,2,3,0.
80,1,1,-1.0000000000000001e-05
80,2,3,0.
81,1,1,-1.0000000000000001e-05
81,2,3,0.
82,1,1,-1.0000000000000001e-05
82,2,3,0.
83,1,1,-9.9000000000000001e-06
83,2,3,0.
84,1,1,-1.0000000000000001e-05
84,2,3,0.
85,1,1,-1.0000000000000001e-05
85,2,3,0.
86,1,1,-1.0000000000000001e-05
86,2,3,0.
87,1,1,-1.0000000000000001e-05
87,2,3,0.
88,1,1,-1.0000000000000001e-05
88,2,3,0.
PRIMARY_X0,11,11,300.
SECONDARY_X2,11,11,400.
*Output, field, frequency=1
*Node Output
U,NT,RF,RFL
*Element Output, directions=YES
S
*Contact Output
CSTRESS,CDISP,CFORCE,HFLA,CTANDIR
*End Step
*Step, name=GAP_69, nlgeom=YES, unsymm=YES, extrapolation=NO
*Coupled Temperature-Displacement
0.025,0.025
*Boundary
1,1,1,0
1,2,3,0.
2,1,1,0
2,2,3,0.
3,1,1,0
3,2,3,0.
4,1,1,0
4,2,3,0.
5,1,1,0
5,2,3,0.
6,1,1,0
6,2,3,0.
7,1,1,0
7,2,3,0.
8,1,1,0
8,2,3,0.
9,1,1,0
9,2,3,0.
10,1,1,0
10,2,3,0.
11,1,1,0
11,2,3,0.
12,1,1,0
12,2,3,0.
13,1,1,0
13,2,3,0.
14,1,1,0
14,2,3,0.
15,1,1,0
15,2,3,0.
16,1,1,0
16,2,3,0.
17,1,1,0
17,2,3,0.
18,1,1,0
18,2,3,0.
19,1,1,0
19,2,3,0.
20,1,1,0
20,2,3,0.
21,1,1,0
21,2,3,0.
22,1,1,0
22,2,3,0.
23,1,1,0
23,2,3,0.
24,1,1,0
24,2,3,0.
25,1,1,0
25,2,3,0.
26,1,1,0
26,2,3,0.
27,1,1,0
27,2,3,0.
28,1,1,0
28,2,3,0.
29,1,1,0
29,2,3,0.
30,1,1,0
30,2,3,0.
31,1,1,0
31,2,3,0.
32,1,1,0
32,2,3,0.
33,1,1,0
33,2,3,0.
34,1,1,0
34,2,3,0.
35,1,1,0
35,2,3,0.
36,1,1,0
36,2,3,0.
37,1,1,0
37,2,3,0.
38,1,1,0
38,2,3,0.
39,1,1,0
39,2,3,0.
40,1,1,0
40,2,3,0.
41,1,1,0
41,2,3,0.
42,1,1,0
42,2,3,0.
43,1,1,0
43,2,3,0.
44,1,1,0
44,2,3,0.
45,1,1,0
45,2,3,0.
46,1,1,0
46,2,3,0.
47,1,1,0
47,2,3,0.
48,1,1,0
48,2,3,0.
49,1,1,0
49,2,3,0.
50,1,1,0
50,2,3,0.
51,1,1,0
51,2,3,0.
52,1,1,0
52,2,3,0.
53,1,1,0
53,2,3,0.
54,1,1,0
54,2,3,0.
55,1,1,0
55,2,3,0.
56,1,1,0
56,2,3,0.
57,1,1,-1.0000000000000001e-05
57,2,3,0.
58,1,1,-1.0000000000000001e-05
58,2,3,0.
59,1,1,-1.0000000000000001e-05
59,2,3,0.
60,1,1,-1.0000000000000001e-05
60,2,3,0.
61,1,1,-1.0000000000000001e-05
61,2,3,0.
62,1,1,-1.0000000000000001e-05
62,2,3,0.
63,1,1,-1.0000000000000001e-05
63,2,3,0.
64,1,1,-1.0000000000000001e-05
64,2,3,0.
65,1,1,-1.0000000000000001e-05
65,2,3,0.
66,1,1,-1.0000000000000001e-05
66,2,3,0.
67,1,1,-1.0000000000000001e-05
67,2,3,0.
68,1,1,-1.0000000000000001e-05
68,2,3,0.
69,1,1,-1.0000000000000001e-05
69,2,3,0.
70,1,1,-1.0000000000000001e-05
70,2,3,0.
71,1,1,-1.0000000000000001e-05
71,2,3,0.
72,1,1,-1.0000000000000001e-05
72,2,3,0.
73,1,1,-1.0000000000000001e-05
73,2,3,0.
74,1,1,-1.0000000000000001e-05
74,2,3,0.
75,1,1,-1.0000000000000001e-05
75,2,3,0.
76,1,1,-1.0000000000000001e-05
76,2,3,0.
77,1,1,-1.0000000000000001e-05
77,2,3,0.
78,1,1,-1.0000000000000001e-05
78,2,3,0.
79,1,1,-1.0000000000000001e-05
79,2,3,0.
80,1,1,-1.0000000000000001e-05
80,2,3,0.
81,1,1,-1.0000000000000001e-05
81,2,3,0.
82,1,1,-1.0000000000000001e-05
82,2,3,0.
83,1,1,-1.0100000000000002e-05
83,2,3,0.
84,1,1,-1.0000000000000001e-05
84,2,3,0.
85,1,1,-1.0000000000000001e-05
85,2,3,0.
86,1,1,-1.0000000000000001e-05
86,2,3,0.
87,1,1,-1.0000000000000001e-05
87,2,3,0.
88,1,1,-1.0000000000000001e-05
88,2,3,0.
PRIMARY_X0,11,11,300.
SECONDARY_X2,11,11,400.
*Output, field, frequency=1
*Node Output
U,NT,RF,RFL
*Element Output, directions=YES
S
*Contact Output
CSTRESS,CDISP,CFORCE,HFLA,CTANDIR
*End Step
*Step, name=GAP_70, nlgeom=YES, unsymm=YES, extrapolation=NO
*Coupled Temperature-Displacement
0.025,0.025
*Boundary
1,1,1,0
1,2,3,0.
2,1,1,0
2,2,3,0.
3,1,1,0
3,2,3,0.
4,1,1,0
4,2,3,0.
5,1,1,0
5,2,3,0.
6,1,1,0
6,2,3,0.
7,1,1,0
7,2,3,0.
8,1,1,0
8,2,3,0.
9,1,1,0
9,2,3,0.
10,1,1,0
10,2,3,0.
11,1,1,0
11,2,3,0.
12,1,1,0
12,2,3,0.
13,1,1,0
13,2,3,0.
14,1,1,0
14,2,3,0.
15,1,1,0
15,2,3,0.
16,1,1,0
16,2,3,0.
17,1,1,0
17,2,3,0.
18,1,1,0
18,2,3,0.
19,1,1,0
19,2,3,0.
20,1,1,0
20,2,3,0.
21,1,1,0
21,2,3,0.
22,1,1,0
22,2,3,0.
23,1,1,0
23,2,3,0.
24,1,1,0
24,2,3,0.
25,1,1,0
25,2,3,0.
26,1,1,0
26,2,3,0.
27,1,1,0
27,2,3,0.
28,1,1,0
28,2,3,0.
29,1,1,0
29,2,3,0.
30,1,1,0
30,2,3,0.
31,1,1,0
31,2,3,0.
32,1,1,0
32,2,3,0.
33,1,1,0
33,2,3,0.
34,1,1,0
34,2,3,0.
35,1,1,0
35,2,3,0.
36,1,1,0
36,2,3,0.
37,1,1,0
37,2,3,0.
38,1,1,0
38,2,3,0.
39,1,1,0
39,2,3,0.
40,1,1,0
40,2,3,0.
41,1,1,0
41,2,3,0.
42,1,1,0
42,2,3,0.
43,1,1,0
43,2,3,0.
44,1,1,0
44,2,3,0.
45,1,1,0
45,2,3,0.
46,1,1,0
46,2,3,0.
47,1,1,0
47,2,3,0.
48,1,1,0
48,2,3,0.
49,1,1,0
49,2,3,0.
50,1,1,0
50,2,3,0.
51,1,1,0
51,2,3,0.
52,1,1,0
52,2,3,0.
53,1,1,0
53,2,3,0.
54,1,1,0
54,2,3,0.
55,1,1,0
55,2,3,0.
56,1,1,0
56,2,3,0.
57,1,1,-1.0000000000000001e-05
57,2,3,0.
58,1,1,-1.0000000000000001e-05
58,2,3,0.
59,1,1,-1.0000000000000001e-05
59,2,3,0.
60,1,1,-1.0000000000000001e-05
60,2,3,0.
61,1,1,-1.0000000000000001e-05
61,2,3,0.
62,1,1,-1.0000000000000001e-05
62,2,3,0.
63,1,1,-1.0000000000000001e-05
63,2,3,0.
64,1,1,-1.0000000000000001e-05
64,2,3,0.
65,1,1,-1.0000000000000001e-05
65,2,3,0.
66,1,1,-1.0000000000000001e-05
66,2,3,0.
67,1,1,-1.0000000000000001e-05
67,2,3,0.
68,1,1,-1.0000000000000001e-05
68,2,3,0.
69,1,1,-1.0000000000000001e-05
69,2,3,0.
70,1,1,-1.0000000000000001e-05
70,2,3,0.
71,1,1,-1.0000000000000001e-05
71,2,3,0.
72,1,1,-1.0000000000000001e-05
72,2,3,0.
73,1,1,-1.0000000000000001e-05
73,2,3,0.
74,1,1,-1.0000000000000001e-05
74,2,3,0.
75,1,1,-1.0000000000000001e-05
75,2,3,0.
76,1,1,-1.0000000000000001e-05
76,2,3,0.
77,1,1,-1.0000000000000001e-05
77,2,3,0.
78,1,1,-1.0000000000000001e-05
78,2,3,0.
79,1,1,-1.0000000000000001e-05
79,2,3,0.
80,1,1,-1.0000000000000001e-05
80,2,3,0.
81,1,1,-1.0000000000000001e-05
81,2,3,0.
82,1,1,-1.0000000000000001e-05
82,2,3,0.
83,1,1,-1.0000000000000001e-05
83,2,3,0.
84,1,1,-1.0000000000000001e-05
84,2,3,0.
85,1,1,-9.9000000000000001e-06
85,2,3,0.
86,1,1,-1.0000000000000001e-05
86,2,3,0.
87,1,1,-1.0000000000000001e-05
87,2,3,0.
88,1,1,-1.0000000000000001e-05
88,2,3,0.
PRIMARY_X0,11,11,300.
SECONDARY_X2,11,11,400.
*Output, field, frequency=1
*Node Output
U,NT,RF,RFL
*Element Output, directions=YES
S
*Contact Output
CSTRESS,CDISP,CFORCE,HFLA,CTANDIR
*End Step
*Step, name=GAP_71, nlgeom=YES, unsymm=YES, extrapolation=NO
*Coupled Temperature-Displacement
0.025,0.025
*Boundary
1,1,1,0
1,2,3,0.
2,1,1,0
2,2,3,0.
3,1,1,0
3,2,3,0.
4,1,1,0
4,2,3,0.
5,1,1,0
5,2,3,0.
6,1,1,0
6,2,3,0.
7,1,1,0
7,2,3,0.
8,1,1,0
8,2,3,0.
9,1,1,0
9,2,3,0.
10,1,1,0
10,2,3,0.
11,1,1,0
11,2,3,0.
12,1,1,0
12,2,3,0.
13,1,1,0
13,2,3,0.
14,1,1,0
14,2,3,0.
15,1,1,0
15,2,3,0.
16,1,1,0
16,2,3,0.
17,1,1,0
17,2,3,0.
18,1,1,0
18,2,3,0.
19,1,1,0
19,2,3,0.
20,1,1,0
20,2,3,0.
21,1,1,0
21,2,3,0.
22,1,1,0
22,2,3,0.
23,1,1,0
23,2,3,0.
24,1,1,0
24,2,3,0.
25,1,1,0
25,2,3,0.
26,1,1,0
26,2,3,0.
27,1,1,0
27,2,3,0.
28,1,1,0
28,2,3,0.
29,1,1,0
29,2,3,0.
30,1,1,0
30,2,3,0.
31,1,1,0
31,2,3,0.
32,1,1,0
32,2,3,0.
33,1,1,0
33,2,3,0.
34,1,1,0
34,2,3,0.
35,1,1,0
35,2,3,0.
36,1,1,0
36,2,3,0.
37,1,1,0
37,2,3,0.
38,1,1,0
38,2,3,0.
39,1,1,0
39,2,3,0.
40,1,1,0
40,2,3,0.
41,1,1,0
41,2,3,0.
42,1,1,0
42,2,3,0.
43,1,1,0
43,2,3,0.
44,1,1,0
44,2,3,0.
45,1,1,0
45,2,3,0.
46,1,1,0
46,2,3,0.
47,1,1,0
47,2,3,0.
48,1,1,0
48,2,3,0.
49,1,1,0
49,2,3,0.
50,1,1,0
50,2,3,0.
51,1,1,0
51,2,3,0.
52,1,1,0
52,2,3,0.
53,1,1,0
53,2,3,0.
54,1,1,0
54,2,3,0.
55,1,1,0
55,2,3,0.
56,1,1,0
56,2,3,0.
57,1,1,-1.0000000000000001e-05
57,2,3,0.
58,1,1,-1.0000000000000001e-05
58,2,3,0.
59,1,1,-1.0000000000000001e-05
59,2,3,0.
60,1,1,-1.0000000000000001e-05
60,2,3,0.
61,1,1,-1.0000000000000001e-05
61,2,3,0.
62,1,1,-1.0000000000000001e-05
62,2,3,0.
63,1,1,-1.0000000000000001e-05
63,2,3,0.
64,1,1,-1.0000000000000001e-05
64,2,3,0.
65,1,1,-1.0000000000000001e-05
65,2,3,0.
66,1,1,-1.0000000000000001e-05
66,2,3,0.
67,1,1,-1.0000000000000001e-05
67,2,3,0.
68,1,1,-1.0000000000000001e-05
68,2,3,0.
69,1,1,-1.0000000000000001e-05
69,2,3,0.
70,1,1,-1.0000000000000001e-05
70,2,3,0.
71,1,1,-1.0000000000000001e-05
71,2,3,0.
72,1,1,-1.0000000000000001e-05
72,2,3,0.
73,1,1,-1.0000000000000001e-05
73,2,3,0.
74,1,1,-1.0000000000000001e-05
74,2,3,0.
75,1,1,-1.0000000000000001e-05
75,2,3,0.
76,1,1,-1.0000000000000001e-05
76,2,3,0.
77,1,1,-1.0000000000000001e-05
77,2,3,0.
78,1,1,-1.0000000000000001e-05
78,2,3,0.
79,1,1,-1.0000000000000001e-05
79,2,3,0.
80,1,1,-1.0000000000000001e-05
80,2,3,0.
81,1,1,-1.0000000000000001e-05
81,2,3,0.
82,1,1,-1.0000000000000001e-05
82,2,3,0.
83,1,1,-1.0000000000000001e-05
83,2,3,0.
84,1,1,-1.0000000000000001e-05
84,2,3,0.
85,1,1,-1.0100000000000002e-05
85,2,3,0.
86,1,1,-1.0000000000000001e-05
86,2,3,0.
87,1,1,-1.0000000000000001e-05
87,2,3,0.
88,1,1,-1.0000000000000001e-05
88,2,3,0.
PRIMARY_X0,11,11,300.
SECONDARY_X2,11,11,400.
*Output, field, frequency=1
*Node Output
U,NT,RF,RFL
*Element Output, directions=YES
S
*Contact Output
CSTRESS,CDISP,CFORCE,HFLA,CTANDIR
*End Step
*Step, name=GAP_72, nlgeom=YES, unsymm=YES, extrapolation=NO
*Coupled Temperature-Displacement
0.025,0.025
*Boundary
1,1,1,0
1,2,3,0.
2,1,1,0
2,2,3,0.
3,1,1,0
3,2,3,0.
4,1,1,0
4,2,3,0.
5,1,1,0
5,2,3,0.
6,1,1,0
6,2,3,0.
7,1,1,0
7,2,3,0.
8,1,1,0
8,2,3,0.
9,1,1,0
9,2,3,0.
10,1,1,0
10,2,3,0.
11,1,1,0
11,2,3,0.
12,1,1,0
12,2,3,0.
13,1,1,0
13,2,3,0.
14,1,1,0
14,2,3,0.
15,1,1,0
15,2,3,0.
16,1,1,0
16,2,3,0.
17,1,1,0
17,2,3,0.
18,1,1,0
18,2,3,0.
19,1,1,0
19,2,3,0.
20,1,1,0
20,2,3,0.
21,1,1,0
21,2,3,0.
22,1,1,0
22,2,3,0.
23,1,1,0
23,2,3,0.
24,1,1,0
24,2,3,0.
25,1,1,0
25,2,3,0.
26,1,1,0
26,2,3,0.
27,1,1,0
27,2,3,0.
28,1,1,0
28,2,3,0.
29,1,1,0
29,2,3,0.
30,1,1,0
30,2,3,0.
31,1,1,0
31,2,3,0.
32,1,1,0
32,2,3,0.
33,1,1,0
33,2,3,0.
34,1,1,0
34,2,3,0.
35,1,1,0
35,2,3,0.
36,1,1,0
36,2,3,0.
37,1,1,0
37,2,3,0.
38,1,1,0
38,2,3,0.
39,1,1,0
39,2,3,0.
40,1,1,0
40,2,3,0.
41,1,1,0
41,2,3,0.
42,1,1,0
42,2,3,0.
43,1,1,0
43,2,3,0.
44,1,1,0
44,2,3,0.
45,1,1,0
45,2,3,0.
46,1,1,0
46,2,3,0.
47,1,1,0
47,2,3,0.
48,1,1,0
48,2,3,0.
49,1,1,0
49,2,3,0.
50,1,1,0
50,2,3,0.
51,1,1,0
51,2,3,0.
52,1,1,0
52,2,3,0.
53,1,1,0
53,2,3,0.
54,1,1,0
54,2,3,0.
55,1,1,0
55,2,3,0.
56,1,1,0
56,2,3,0.
57,1,1,-1.0000000000000001e-05
57,2,3,0.
58,1,1,-1.0000000000000001e-05
58,2,3,0.
59,1,1,-1.0000000000000001e-05
59,2,3,0.
60,1,1,-1.0000000000000001e-05
60,2,3,0.
61,1,1,-1.0000000000000001e-05
61,2,3,0.
62,1,1,-1.0000000000000001e-05
62,2,3,0.
63,1,1,-1.0000000000000001e-05
63,2,3,0.
64,1,1,-1.0000000000000001e-05
64,2,3,0.
65,1,1,-1.0000000000000001e-05
65,2,3,0.
66,1,1,-1.0000000000000001e-05
66,2,3,0.
67,1,1,-1.0000000000000001e-05
67,2,3,0.
68,1,1,-1.0000000000000001e-05
68,2,3,0.
69,1,1,-1.0000000000000001e-05
69,2,3,0.
70,1,1,-1.0000000000000001e-05
70,2,3,0.
71,1,1,-1.0000000000000001e-05
71,2,3,0.
72,1,1,-1.0000000000000001e-05
72,2,3,0.
73,1,1,-1.0000000000000001e-05
73,2,3,0.
74,1,1,-1.0000000000000001e-05
74,2,3,0.
75,1,1,-1.0000000000000001e-05
75,2,3,0.
76,1,1,-1.0000000000000001e-05
76,2,3,0.
77,1,1,-1.0000000000000001e-05
77,2,3,0.
78,1,1,-1.0000000000000001e-05
78,2,3,0.
79,1,1,-1.0000000000000001e-05
79,2,3,0.
80,1,1,-1.0000000000000001e-05
80,2,3,0.
81,1,1,-1.0000000000000001e-05
81,2,3,0.
82,1,1,-1.0000000000000001e-05
82,2,3,0.
83,1,1,-1.0000000000000001e-05
83,2,3,0.
84,1,1,-1.0000000000000001e-05
84,2,3,0.
85,1,1,-1.0000000000000001e-05
85,2,3,0.
86,1,1,-1.0000000000000001e-05
86,2,3,0.
87,1,1,-1.0000000000000001e-05
87,2,3,0.
88,1,1,-9.9000000000000001e-06
88,2,3,0.
PRIMARY_X0,11,11,300.
SECONDARY_X2,11,11,400.
*Output, field, frequency=1
*Node Output
U,NT,RF,RFL
*Element Output, directions=YES
S
*Contact Output
CSTRESS,CDISP,CFORCE,HFLA,CTANDIR
*End Step
*Step, name=GAP_73, nlgeom=YES, unsymm=YES, extrapolation=NO
*Coupled Temperature-Displacement
0.025,0.025
*Boundary
1,1,1,0
1,2,3,0.
2,1,1,0
2,2,3,0.
3,1,1,0
3,2,3,0.
4,1,1,0
4,2,3,0.
5,1,1,0
5,2,3,0.
6,1,1,0
6,2,3,0.
7,1,1,0
7,2,3,0.
8,1,1,0
8,2,3,0.
9,1,1,0
9,2,3,0.
10,1,1,0
10,2,3,0.
11,1,1,0
11,2,3,0.
12,1,1,0
12,2,3,0.
13,1,1,0
13,2,3,0.
14,1,1,0
14,2,3,0.
15,1,1,0
15,2,3,0.
16,1,1,0
16,2,3,0.
17,1,1,0
17,2,3,0.
18,1,1,0
18,2,3,0.
19,1,1,0
19,2,3,0.
20,1,1,0
20,2,3,0.
21,1,1,0
21,2,3,0.
22,1,1,0
22,2,3,0.
23,1,1,0
23,2,3,0.
24,1,1,0
24,2,3,0.
25,1,1,0
25,2,3,0.
26,1,1,0
26,2,3,0.
27,1,1,0
27,2,3,0.
28,1,1,0
28,2,3,0.
29,1,1,0
29,2,3,0.
30,1,1,0
30,2,3,0.
31,1,1,0
31,2,3,0.
32,1,1,0
32,2,3,0.
33,1,1,0
33,2,3,0.
34,1,1,0
34,2,3,0.
35,1,1,0
35,2,3,0.
36,1,1,0
36,2,3,0.
37,1,1,0
37,2,3,0.
38,1,1,0
38,2,3,0.
39,1,1,0
39,2,3,0.
40,1,1,0
40,2,3,0.
41,1,1,0
41,2,3,0.
42,1,1,0
42,2,3,0.
43,1,1,0
43,2,3,0.
44,1,1,0
44,2,3,0.
45,1,1,0
45,2,3,0.
46,1,1,0
46,2,3,0.
47,1,1,0
47,2,3,0.
48,1,1,0
48,2,3,0.
49,1,1,0
49,2,3,0.
50,1,1,0
50,2,3,0.
51,1,1,0
51,2,3,0.
52,1,1,0
52,2,3,0.
53,1,1,0
53,2,3,0.
54,1,1,0
54,2,3,0.
55,1,1,0
55,2,3,0.
56,1,1,0
56,2,3,0.
57,1,1,-1.0000000000000001e-05
57,2,3,0.
58,1,1,-1.0000000000000001e-05
58,2,3,0.
59,1,1,-1.0000000000000001e-05
59,2,3,0.
60,1,1,-1.0000000000000001e-05
60,2,3,0.
61,1,1,-1.0000000000000001e-05
61,2,3,0.
62,1,1,-1.0000000000000001e-05
62,2,3,0.
63,1,1,-1.0000000000000001e-05
63,2,3,0.
64,1,1,-1.0000000000000001e-05
64,2,3,0.
65,1,1,-1.0000000000000001e-05
65,2,3,0.
66,1,1,-1.0000000000000001e-05
66,2,3,0.
67,1,1,-1.0000000000000001e-05
67,2,3,0.
68,1,1,-1.0000000000000001e-05
68,2,3,0.
69,1,1,-1.0000000000000001e-05
69,2,3,0.
70,1,1,-1.0000000000000001e-05
70,2,3,0.
71,1,1,-1.0000000000000001e-05
71,2,3,0.
72,1,1,-1.0000000000000001e-05
72,2,3,0.
73,1,1,-1.0000000000000001e-05
73,2,3,0.
74,1,1,-1.0000000000000001e-05
74,2,3,0.
75,1,1,-1.0000000000000001e-05
75,2,3,0.
76,1,1,-1.0000000000000001e-05
76,2,3,0.
77,1,1,-1.0000000000000001e-05
77,2,3,0.
78,1,1,-1.0000000000000001e-05
78,2,3,0.
79,1,1,-1.0000000000000001e-05
79,2,3,0.
80,1,1,-1.0000000000000001e-05
80,2,3,0.
81,1,1,-1.0000000000000001e-05
81,2,3,0.
82,1,1,-1.0000000000000001e-05
82,2,3,0.
83,1,1,-1.0000000000000001e-05
83,2,3,0.
84,1,1,-1.0000000000000001e-05
84,2,3,0.
85,1,1,-1.0000000000000001e-05
85,2,3,0.
86,1,1,-1.0000000000000001e-05
86,2,3,0.
87,1,1,-1.0000000000000001e-05
87,2,3,0.
88,1,1,-1.0100000000000002e-05
88,2,3,0.
PRIMARY_X0,11,11,300.
SECONDARY_X2,11,11,400.
*Output, field, frequency=1
*Node Output
U,NT,RF,RFL
*Element Output, directions=YES
S
*Contact Output
CSTRESS,CDISP,CFORCE,HFLA,CTANDIR
*End Step
