*Heading
** H20.29: tilted C3D20 small-sliding surface-to-surface contact.
*Preprint, echo=NO, model=NO, history=NO, contact=YES
*Node
1, 0, 0, 0
2, 0.9063077870366499, 0.4226182617406994, 0
3, 0.8133317694536961, 0.6220059748887624, 0
4, -0.09297601758295387, 0.199387713148063, 0
5, 0, 0, 0.45
6, 0.9063077870366499, 0.4226182617406994, 0.45
7, 0.8133317694536961, 0.6220059748887624, 0.45
8, -0.09297601758295387, 0.199387713148063, 0.45
9, 0.453153893518325, 0.2113091308703497, 0
10, 0.859819778245173, 0.5223121183147309, 0
11, 0.3601778759353711, 0.4106968440184127, 0
12, -0.04648800879147694, 0.0996938565740315, 0
13, 0, 0, 0.225
14, 0.9063077870366499, 0.4226182617406994, 0.225
15, 0.8133317694536961, 0.6220059748887624, 0.225
16, -0.09297601758295387, 0.199387713148063, 0.225
17, 0.453153893518325, 0.2113091308703497, 0.45
18, 0.859819778245173, 0.5223121183147309, 0.45
19, 0.3601778759353711, 0.4106968440184127, 0.45
20, -0.04648800879147694, 0.0996938565740315, 0.45
21, 0.6611891952270443, 0.9482767782219563, 0
22, -0.2451185918096057, 0.5256585164812569, 0
23, 0.6611891952270443, 0.9482767782219563, 0.45
24, -0.2451185918096057, 0.5256585164812569, 0.45
25, 0.7372604823403701, 0.7851413765553594, 0
26, 0.2080353017087193, 0.7369676473516067, 0
27, -0.1690473046962798, 0.3625231148146599, 0
28, 0.6611891952270443, 0.9482767782219563, 0.225
29, -0.2451185918096057, 0.5256585164812569, 0.225
30, 0.7372604823403701, 0.7851413765553594, 0.45
31, 0.2080353017087193, 0.7369676473516067, 0.45
32, -0.1690473046962798, 0.3625231148146599, 0.45
33, 0.4836895252959505, 1.328926048777349, 0
34, -0.4226182617406994, 0.9063077870366499, 0
35, 0.4836895252959505, 1.328926048777349, 0.45
36, -0.4226182617406994, 0.9063077870366499, 0.45
37, 0.5724393602614974, 1.138601413499653, 0
38, 0.03053563177762553, 1.117616917907, 0
39, -0.3338684267751525, 0.7159831517589534, 0
40, 0.4836895252959505, 1.328926048777349, 0.225
41, -0.4226182617406994, 0.9063077870366499, 0.225
42, 0.5724393602614974, 1.138601413499653, 0.45
43, 0.03053563177762553, 1.117616917907, 0.45
44, -0.3338684267751525, 0.7159831517589534, 0.45
45, 0, 0, 1
46, 0.9063077870366499, 0.4226182617406994, 1
47, 0.8133317694536961, 0.6220059748887624, 1
48, -0.09297601758295387, 0.199387713148063, 1
49, 0, 0, 0.725
50, 0.9063077870366499, 0.4226182617406994, 0.725
51, 0.8133317694536961, 0.6220059748887624, 0.725
52, -0.09297601758295387, 0.199387713148063, 0.725
53, 0.453153893518325, 0.2113091308703497, 1
54, 0.859819778245173, 0.5223121183147309, 1
55, 0.3601778759353711, 0.4106968440184127, 1
56, -0.04648800879147694, 0.0996938565740315, 1
57, 0.6611891952270443, 0.9482767782219563, 1
58, -0.2451185918096057, 0.5256585164812569, 1
59, 0.6611891952270443, 0.9482767782219563, 0.725
60, -0.2451185918096057, 0.5256585164812569, 0.725
61, 0.7372604823403701, 0.7851413765553594, 1
62, 0.2080353017087193, 0.7369676473516067, 1
63, -0.1690473046962798, 0.3625231148146599, 1
64, 0.4836895252959505, 1.328926048777349, 1
65, -0.4226182617406994, 0.9063077870366499, 1
66, 0.4836895252959505, 1.328926048777349, 0.725
67, -0.4226182617406994, 0.9063077870366499, 0.725
68, 0.5724393602614974, 1.138601413499653, 1
69, 0.03053563177762553, 1.117616917907, 1
70, -0.3338684267751525, 0.7159831517589534, 1
71, 0.9063077870366499, 0.4226182617406994, 0
72, 1.8126155740733, 0.8452365234813989, 0
73, 1.64356826937702, 1.207759638296059, 0
74, 0.7372604823403701, 0.7851413765553594, 0
75, 0.9063077870366499, 0.4226182617406994, 0.25
76, 1.8126155740733, 0.8452365234813989, 0.25
77, 1.64356826937702, 1.207759638296059, 0.25
78, 0.7372604823403701, 0.7851413765553594, 0.25
79, 1.359461680554975, 0.6339273926110491, 0
80, 1.72809192172516, 1.026498080888729, 0
81, 1.190414375858695, 0.9964505074257091, 0
82, 0.8217841346885101, 0.6038798191480295, 0
83, 0.9063077870366499, 0.4226182617406994, 0.125
84, 1.8126155740733, 0.8452365234813989, 0.125
85, 1.64356826937702, 1.207759638296059, 0.125
86, 0.7372604823403701, 0.7851413765553594, 0.125
87, 1.359461680554975, 0.6339273926110491, 0.25
88, 1.72809192172516, 1.026498080888729, 0.25
89, 1.190414375858695, 0.9964505074257091, 0.25
90, 0.8217841346885101, 0.6038798191480295, 0.25
91, 1.3899973123326, 1.751544310518049, 0
92, 0.4836895252959505, 1.328926048777349, 0
93, 1.3899973123326, 1.751544310518049, 0.25
94, 0.4836895252959505, 1.328926048777349, 0.25
95, 1.51678279085481, 1.479651974407054, 0
96, 0.9368434188142754, 1.540235179647699, 0
97, 0.6104750038181603, 1.057033712666354, 0
98, 1.3899973123326, 1.751544310518049, 0.125
99, 0.4836895252959505, 1.328926048777349, 0.125
100, 1.51678279085481, 1.479651974407054, 0.25
101, 0.9368434188142754, 1.540235179647699, 0.25
102, 0.6104750038181603, 1.057033712666354, 0.25
103, 0.9063077870366499, 0.4226182617406994, 0.72
104, 1.8126155740733, 0.8452365234813989, 0.72
105, 1.64356826937702, 1.207759638296059, 0.72
106, 0.7372604823403701, 0.7851413765553594, 0.72
107, 0.9063077870366499, 0.4226182617406994, 0.485
108, 1.8126155740733, 0.8452365234813989, 0.485
109, 1.64356826937702, 1.207759638296059, 0.485
110, 0.7372604823403701, 0.7851413765553594, 0.485
111, 1.359461680554975, 0.6339273926110491, 0.72
112, 1.72809192172516, 1.026498080888729, 0.72
113, 1.190414375858695, 0.9964505074257091, 0.72
114, 0.8217841346885101, 0.6038798191480295, 0.72
115, 1.3899973123326, 1.751544310518049, 0.72
116, 0.4836895252959505, 1.328926048777349, 0.72
117, 1.3899973123326, 1.751544310518049, 0.485
118, 0.4836895252959505, 1.328926048777349, 0.485
119, 1.51678279085481, 1.479651974407054, 0.72
120, 0.9368434188142754, 1.540235179647699, 0.72
121, 0.6104750038181603, 1.057033712666354, 0.72
122, 0.9063077870366499, 0.4226182617406994, 1
123, 1.8126155740733, 0.8452365234813989, 1
124, 1.64356826937702, 1.207759638296059, 1
125, 0.7372604823403701, 0.7851413765553594, 1
126, 0.9063077870366499, 0.4226182617406994, 0.86
127, 1.8126155740733, 0.8452365234813989, 0.86
128, 1.64356826937702, 1.207759638296059, 0.86
129, 0.7372604823403701, 0.7851413765553594, 0.86
130, 1.359461680554975, 0.6339273926110491, 1
131, 1.72809192172516, 1.026498080888729, 1
132, 1.190414375858695, 0.9964505074257091, 1
133, 0.8217841346885101, 0.6038798191480295, 1
134, 1.3899973123326, 1.751544310518049, 1
135, 0.4836895252959505, 1.328926048777349, 1
136, 1.3899973123326, 1.751544310518049, 0.86
137, 0.4836895252959505, 1.328926048777349, 0.86
138, 1.51678279085481, 1.479651974407054, 1
139, 0.9368434188142754, 1.540235179647699, 1
140, 0.6104750038181603, 1.057033712666354, 1
*Element, type=C3D20, elset=PRIMARY
1, 1, 2, 3, 4, 5, 6, 7, 8, 9, 10, 11, 12, 17, 18, 19, 20, 13, 14, 15, 16
2, 4, 3, 21, 22, 8, 7, 23, 24, 11, 25, 26, 27, 19, 30, 31, 32, 16, 15, 28, 29
3, 22, 21, 33, 34, 24, 23, 35, 36, 26, 37, 38, 39, 31, 42, 43, 44, 29, 28, 40, 41
4, 5, 6, 7, 8, 45, 46, 47, 48, 17, 18, 19, 20, 53, 54, 55, 56, 49, 50, 51, 52
5, 8, 7, 23, 24, 48, 47, 57, 58, 19, 30, 31, 32, 55, 61, 62, 63, 52, 51, 59, 60
6, 24, 23, 35, 36, 58, 57, 64, 65, 31, 42, 43, 44, 62, 68, 69, 70, 60, 59, 66, 67
*Element, type=C3D20, elset=SECONDARY
7, 71, 72, 73, 74, 75, 76, 77, 78, 79, 80, 81, 82, 87, 88, 89, 90, 83, 84, 85, 86
8, 74, 73, 91, 92, 78, 77, 93, 94, 81, 95, 96, 97, 89, 100, 101, 102, 86, 85, 98, 99
9, 75, 76, 77, 78, 103, 104, 105, 106, 87, 88, 89, 90, 111, 112, 113, 114, 107, 108, 109, 110
10, 78, 77, 93, 94, 106, 105, 115, 116, 89, 100, 101, 102, 113, 119, 120, 121, 110, 109, 117, 118
11, 103, 104, 105, 106, 122, 123, 124, 125, 111, 112, 113, 114, 130, 131, 132, 133, 126, 127, 128, 129
12, 106, 105, 115, 116, 125, 124, 134, 135, 113, 119, 120, 121, 132, 138, 139, 140, 129, 128, 136, 137
*Nset, nset=primary_outer
1, 4, 5, 8, 12, 13, 16, 20, 22, 24, 27, 29, 32, 34, 36, 39
41, 44, 45, 48, 49, 52, 56, 58, 60, 63, 65, 67, 70
*Nset, nset=secondary_outer
72, 73, 76, 77, 80, 84, 85, 88, 91, 93, 95, 98, 100, 104, 105, 108
109, 112, 115, 117, 119, 123, 124, 127, 128, 131, 134, 136, 138
*Nset, nset=secondary_contact_nodes
71, 74, 75, 78, 82, 83, 86, 90, 92, 94, 97, 99, 102, 103, 106, 107
110, 114, 116, 118, 121, 122, 125, 126, 129, 133, 135, 137, 140
*Elset, elset=SECONDARY_TOP_ELEMENTS
11, 12
*Surface, type=ELEMENT, name=PRIMARY_CONTACT
PRIMARY, S4
*Surface, type=ELEMENT, name=SECONDARY_CONTACT
SECONDARY, S6
*Surface, type=ELEMENT, name=SECONDARY_TOP
SECONDARY_TOP_ELEMENTS, S2
*Material, name=PRIMARY_MATERIAL
*Elastic
1000000000, 0.25
*Material, name=SECONDARY_MATERIAL
*Elastic
1000000000, 0.25
*Solid Section, elset=PRIMARY, material=PRIMARY_MATERIAL
,
*Solid Section, elset=SECONDARY, material=SECONDARY_MATERIAL
,
*Surface Interaction, name=PENALTY_CONTACT
*Surface Behavior, pressure-overclosure=LINEAR
100000000000,
*Contact Pair, interaction=PENALTY_CONTACT, type=SURFACE TO SURFACE, small sliding, adjust=0.
SECONDARY_CONTACT, PRIMARY_CONTACT
*Step, name=LOAD, nlgeom=NO, inc=100
*Static
0.1, 1., 1.e-8, 0.1
*Boundary
primary_outer, 1, 3, 0.
secondary_outer, 1, 1, -9.063077870366499e-06
secondary_outer, 2, 2, -4.226182617406994e-06
secondary_outer, 3, 3, 0.
*Output, field, frequency=1
*Node Output
COORD, RF, U
*Contact Output
CSTRESS, CDISP, CFORCE
*End Step
