*Heading
** Finite-sliding counterpart of H20.28; isolates quadratic contact transfer, not bulk material accuracy.
** A 1e-4 square secondary face centered at y=z=0.18 isolates primary point transfer in BASE.
*Preprint, echo=NO, model=NO, history=NO, contact=YES
*Node
1, 0, 0, 0
2, 1, 0, 0
3, 1, 0.125, 0
4, 0, 0.125, 0
5, 0, 0, 0.125
6, 1, 0, 0.125
7, 1, 0.125, 0.125
8, 0, 0.125, 0.125
9, 0.5, 0, 0
10, 1, 0.0625, 0
11, 0.5, 0.125, 0
12, 0, 0.0625, 0
13, 0.5, 0, 0.125
14, 1, 0.0625, 0.125
15, 0.5, 0.125, 0.125
16, 0, 0.0625, 0.125
17, 0, 0, 0.0625
18, 1, 0, 0.0625
19, 1, 0.125, 0.0625
20, 0, 0.125, 0.0625
21, 0, 0, 0.25
22, 1, 0, 0.25
23, 1, 0.125, 0.25
24, 0, 0.125, 0.25
25, 0.5, 0, 0.25
26, 1, 0.0625, 0.25
27, 0.5, 0.125, 0.25
28, 0, 0.0625, 0.25
29, 0, 0, 0.1875
30, 1, 0, 0.1875
31, 1, 0.125, 0.1875
32, 0, 0.125, 0.1875
33, 0, 0, 0.375
34, 1, 0, 0.375
35, 1, 0.125, 0.375
36, 0, 0.125, 0.375
37, 0.5, 0, 0.375
38, 1, 0.0625, 0.375
39, 0.5, 0.125, 0.375
40, 0, 0.0625, 0.375
41, 0, 0, 0.3125
42, 1, 0, 0.3125
43, 1, 0.125, 0.3125
44, 0, 0.125, 0.3125
45, 0, 0, 0.5
46, 1, 0, 0.5
47, 1, 0.125, 0.5
48, 0, 0.125, 0.5
49, 0.5, 0, 0.5
50, 1, 0.0625, 0.5
51, 0.5, 0.125, 0.5
52, 0, 0.0625, 0.5
53, 0, 0, 0.4375
54, 1, 0, 0.4375
55, 1, 0.125, 0.4375
56, 0, 0.125, 0.4375
57, 0, 0, 0.625
58, 1, 0, 0.625
59, 1, 0.125, 0.625
60, 0, 0.125, 0.625
61, 0.5, 0, 0.625
62, 1, 0.0625, 0.625
63, 0.5, 0.125, 0.625
64, 0, 0.0625, 0.625
65, 0, 0, 0.5625
66, 1, 0, 0.5625
67, 1, 0.125, 0.5625
68, 0, 0.125, 0.5625
69, 0, 0, 0.75
70, 1, 0, 0.75
71, 1, 0.125, 0.75
72, 0, 0.125, 0.75
73, 0.5, 0, 0.75
74, 1, 0.0625, 0.75
75, 0.5, 0.125, 0.75
76, 0, 0.0625, 0.75
77, 0, 0, 0.6875
78, 1, 0, 0.6875
79, 1, 0.125, 0.6875
80, 0, 0.125, 0.6875
81, 0, 0, 0.875
82, 1, 0, 0.875
83, 1, 0.125, 0.875
84, 0, 0.125, 0.875
85, 0.5, 0, 0.875
86, 1, 0.0625, 0.875
87, 0.5, 0.125, 0.875
88, 0, 0.0625, 0.875
89, 0, 0, 0.8125
90, 1, 0, 0.8125
91, 1, 0.125, 0.8125
92, 0, 0.125, 0.8125
93, 0, 0, 1
94, 1, 0, 1
95, 1, 0.125, 1
96, 0, 0.125, 1
97, 0.5, 0, 1
98, 1, 0.0625, 1
99, 0.5, 0.125, 1
100, 0, 0.0625, 1
101, 0, 0, 0.9375
102, 1, 0, 0.9375
103, 1, 0.125, 0.9375
104, 0, 0.125, 0.9375
105, 1, 0.25, 0
106, 0, 0.25, 0
107, 1, 0.25, 0.125
108, 0, 0.25, 0.125
109, 1, 0.1875, 0
110, 0.5, 0.25, 0
111, 0, 0.1875, 0
112, 1, 0.1875, 0.125
113, 0.5, 0.25, 0.125
114, 0, 0.1875, 0.125
115, 1, 0.25, 0.0625
116, 0, 0.25, 0.0625
117, 1, 0.25, 0.25
118, 0, 0.25, 0.25
119, 1, 0.1875, 0.25
120, 0.5, 0.25, 0.25
121, 0, 0.1875, 0.25
122, 1, 0.25, 0.1875
123, 0, 0.25, 0.1875
124, 1, 0.25, 0.375
125, 0, 0.25, 0.375
126, 1, 0.1875, 0.375
127, 0.5, 0.25, 0.375
128, 0, 0.1875, 0.375
129, 1, 0.25, 0.3125
130, 0, 0.25, 0.3125
131, 1, 0.25, 0.5
132, 0, 0.25, 0.5
133, 1, 0.1875, 0.5
134, 0.5, 0.25, 0.5
135, 0, 0.1875, 0.5
136, 1, 0.25, 0.4375
137, 0, 0.25, 0.4375
138, 1, 0.25, 0.625
139, 0, 0.25, 0.625
140, 1, 0.1875, 0.625
141, 0.5, 0.25, 0.625
142, 0, 0.1875, 0.625
143, 1, 0.25, 0.5625
144, 0, 0.25, 0.5625
145, 1, 0.25, 0.75
146, 0, 0.25, 0.75
147, 1, 0.1875, 0.75
148, 0.5, 0.25, 0.75
149, 0, 0.1875, 0.75
150, 1, 0.25, 0.6875
151, 0, 0.25, 0.6875
152, 1, 0.25, 0.875
153, 0, 0.25, 0.875
154, 1, 0.1875, 0.875
155, 0.5, 0.25, 0.875
156, 0, 0.1875, 0.875
157, 1, 0.25, 0.8125
158, 0, 0.25, 0.8125
159, 1, 0.25, 1
160, 0, 0.25, 1
161, 1, 0.1875, 1
162, 0.5, 0.25, 1
163, 0, 0.1875, 1
164, 1, 0.25, 0.9375
165, 0, 0.25, 0.9375
166, 1, 0.375, 0
167, 0, 0.375, 0
168, 1, 0.375, 0.125
169, 0, 0.375, 0.125
170, 1, 0.3125, 0
171, 0.5, 0.375, 0
172, 0, 0.3125, 0
173, 1, 0.3125, 0.125
174, 0.5, 0.375, 0.125
175, 0, 0.3125, 0.125
176, 1, 0.375, 0.0625
177, 0, 0.375, 0.0625
178, 1, 0.375, 0.25
179, 0, 0.375, 0.25
180, 1, 0.3125, 0.25
181, 0.5, 0.375, 0.25
182, 0, 0.3125, 0.25
183, 1, 0.375, 0.1875
184, 0, 0.375, 0.1875
185, 1, 0.375, 0.375
186, 0, 0.375, 0.375
187, 1, 0.3125, 0.375
188, 0.5, 0.375, 0.375
189, 0, 0.3125, 0.375
190, 1, 0.375, 0.3125
191, 0, 0.375, 0.3125
192, 1, 0.375, 0.5
193, 0, 0.375, 0.5
194, 1, 0.3125, 0.5
195, 0.5, 0.375, 0.5
196, 0, 0.3125, 0.5
197, 1, 0.375, 0.4375
198, 0, 0.375, 0.4375
199, 1, 0.375, 0.625
200, 0, 0.375, 0.625
201, 1, 0.3125, 0.625
202, 0.5, 0.375, 0.625
203, 0, 0.3125, 0.625
204, 1, 0.375, 0.5625
205, 0, 0.375, 0.5625
206, 1, 0.375, 0.75
207, 0, 0.375, 0.75
208, 1, 0.3125, 0.75
209, 0.5, 0.375, 0.75
210, 0, 0.3125, 0.75
211, 1, 0.375, 0.6875
212, 0, 0.375, 0.6875
213, 1, 0.375, 0.875
214, 0, 0.375, 0.875
215, 1, 0.3125, 0.875
216, 0.5, 0.375, 0.875
217, 0, 0.3125, 0.875
218, 1, 0.375, 0.8125
219, 0, 0.375, 0.8125
220, 1, 0.375, 1
221, 0, 0.375, 1
222, 1, 0.3125, 1
223, 0.5, 0.375, 1
224, 0, 0.3125, 1
225, 1, 0.375, 0.9375
226, 0, 0.375, 0.9375
227, 1, 0.5, 0
228, 0, 0.5, 0
229, 1, 0.5, 0.125
230, 0, 0.5, 0.125
231, 1, 0.4375, 0
232, 0.5, 0.5, 0
233, 0, 0.4375, 0
234, 1, 0.4375, 0.125
235, 0.5, 0.5, 0.125
236, 0, 0.4375, 0.125
237, 1, 0.5, 0.0625
238, 0, 0.5, 0.0625
239, 1, 0.5, 0.25
240, 0, 0.5, 0.25
241, 1, 0.4375, 0.25
242, 0.5, 0.5, 0.25
243, 0, 0.4375, 0.25
244, 1, 0.5, 0.1875
245, 0, 0.5, 0.1875
246, 1, 0.5, 0.375
247, 0, 0.5, 0.375
248, 1, 0.4375, 0.375
249, 0.5, 0.5, 0.375
250, 0, 0.4375, 0.375
251, 1, 0.5, 0.3125
252, 0, 0.5, 0.3125
253, 1, 0.5, 0.5
254, 0, 0.5, 0.5
255, 1, 0.4375, 0.5
256, 0.5, 0.5, 0.5
257, 0, 0.4375, 0.5
258, 1, 0.5, 0.4375
259, 0, 0.5, 0.4375
260, 1, 0.5, 0.625
261, 0, 0.5, 0.625
262, 1, 0.4375, 0.625
263, 0.5, 0.5, 0.625
264, 0, 0.4375, 0.625
265, 1, 0.5, 0.5625
266, 0, 0.5, 0.5625
267, 1, 0.5, 0.75
268, 0, 0.5, 0.75
269, 1, 0.4375, 0.75
270, 0.5, 0.5, 0.75
271, 0, 0.4375, 0.75
272, 1, 0.5, 0.6875
273, 0, 0.5, 0.6875
274, 1, 0.5, 0.875
275, 0, 0.5, 0.875
276, 1, 0.4375, 0.875
277, 0.5, 0.5, 0.875
278, 0, 0.4375, 0.875
279, 1, 0.5, 0.8125
280, 0, 0.5, 0.8125
281, 1, 0.5, 1
282, 0, 0.5, 1
283, 1, 0.4375, 1
284, 0.5, 0.5, 1
285, 0, 0.4375, 1
286, 1, 0.5, 0.9375
287, 0, 0.5, 0.9375
288, 1, 0.625, 0
289, 0, 0.625, 0
290, 1, 0.625, 0.125
291, 0, 0.625, 0.125
292, 1, 0.5625, 0
293, 0.5, 0.625, 0
294, 0, 0.5625, 0
295, 1, 0.5625, 0.125
296, 0.5, 0.625, 0.125
297, 0, 0.5625, 0.125
298, 1, 0.625, 0.0625
299, 0, 0.625, 0.0625
300, 1, 0.625, 0.25
301, 0, 0.625, 0.25
302, 1, 0.5625, 0.25
303, 0.5, 0.625, 0.25
304, 0, 0.5625, 0.25
305, 1, 0.625, 0.1875
306, 0, 0.625, 0.1875
307, 1, 0.625, 0.375
308, 0, 0.625, 0.375
309, 1, 0.5625, 0.375
310, 0.5, 0.625, 0.375
311, 0, 0.5625, 0.375
312, 1, 0.625, 0.3125
313, 0, 0.625, 0.3125
314, 1, 0.625, 0.5
315, 0, 0.625, 0.5
316, 1, 0.5625, 0.5
317, 0.5, 0.625, 0.5
318, 0, 0.5625, 0.5
319, 1, 0.625, 0.4375
320, 0, 0.625, 0.4375
321, 1, 0.625, 0.625
322, 0, 0.625, 0.625
323, 1, 0.5625, 0.625
324, 0.5, 0.625, 0.625
325, 0, 0.5625, 0.625
326, 1, 0.625, 0.5625
327, 0, 0.625, 0.5625
328, 1, 0.625, 0.75
329, 0, 0.625, 0.75
330, 1, 0.5625, 0.75
331, 0.5, 0.625, 0.75
332, 0, 0.5625, 0.75
333, 1, 0.625, 0.6875
334, 0, 0.625, 0.6875
335, 1, 0.625, 0.875
336, 0, 0.625, 0.875
337, 1, 0.5625, 0.875
338, 0.5, 0.625, 0.875
339, 0, 0.5625, 0.875
340, 1, 0.625, 0.8125
341, 0, 0.625, 0.8125
342, 1, 0.625, 1
343, 0, 0.625, 1
344, 1, 0.5625, 1
345, 0.5, 0.625, 1
346, 0, 0.5625, 1
347, 1, 0.625, 0.9375
348, 0, 0.625, 0.9375
349, 1, 0.75, 0
350, 0, 0.75, 0
351, 1, 0.75, 0.125
352, 0, 0.75, 0.125
353, 1, 0.6875, 0
354, 0.5, 0.75, 0
355, 0, 0.6875, 0
356, 1, 0.6875, 0.125
357, 0.5, 0.75, 0.125
358, 0, 0.6875, 0.125
359, 1, 0.75, 0.0625
360, 0, 0.75, 0.0625
361, 1, 0.75, 0.25
362, 0, 0.75, 0.25
363, 1, 0.6875, 0.25
364, 0.5, 0.75, 0.25
365, 0, 0.6875, 0.25
366, 1, 0.75, 0.1875
367, 0, 0.75, 0.1875
368, 1, 0.75, 0.375
369, 0, 0.75, 0.375
370, 1, 0.6875, 0.375
371, 0.5, 0.75, 0.375
372, 0, 0.6875, 0.375
373, 1, 0.75, 0.3125
374, 0, 0.75, 0.3125
375, 1, 0.75, 0.5
376, 0, 0.75, 0.5
377, 1, 0.6875, 0.5
378, 0.5, 0.75, 0.5
379, 0, 0.6875, 0.5
380, 1, 0.75, 0.4375
381, 0, 0.75, 0.4375
382, 1, 0.75, 0.625
383, 0, 0.75, 0.625
384, 1, 0.6875, 0.625
385, 0.5, 0.75, 0.625
386, 0, 0.6875, 0.625
387, 1, 0.75, 0.5625
388, 0, 0.75, 0.5625
389, 1, 0.75, 0.75
390, 0, 0.75, 0.75
391, 1, 0.6875, 0.75
392, 0.5, 0.75, 0.75
393, 0, 0.6875, 0.75
394, 1, 0.75, 0.6875
395, 0, 0.75, 0.6875
396, 1, 0.75, 0.875
397, 0, 0.75, 0.875
398, 1, 0.6875, 0.875
399, 0.5, 0.75, 0.875
400, 0, 0.6875, 0.875
401, 1, 0.75, 0.8125
402, 0, 0.75, 0.8125
403, 1, 0.75, 1
404, 0, 0.75, 1
405, 1, 0.6875, 1
406, 0.5, 0.75, 1
407, 0, 0.6875, 1
408, 1, 0.75, 0.9375
409, 0, 0.75, 0.9375
410, 1, 0.875, 0
411, 0, 0.875, 0
412, 1, 0.875, 0.125
413, 0, 0.875, 0.125
414, 1, 0.8125, 0
415, 0.5, 0.875, 0
416, 0, 0.8125, 0
417, 1, 0.8125, 0.125
418, 0.5, 0.875, 0.125
419, 0, 0.8125, 0.125
420, 1, 0.875, 0.0625
421, 0, 0.875, 0.0625
422, 1, 0.875, 0.25
423, 0, 0.875, 0.25
424, 1, 0.8125, 0.25
425, 0.5, 0.875, 0.25
426, 0, 0.8125, 0.25
427, 1, 0.875, 0.1875
428, 0, 0.875, 0.1875
429, 1, 0.875, 0.375
430, 0, 0.875, 0.375
431, 1, 0.8125, 0.375
432, 0.5, 0.875, 0.375
433, 0, 0.8125, 0.375
434, 1, 0.875, 0.3125
435, 0, 0.875, 0.3125
436, 1, 0.875, 0.5
437, 0, 0.875, 0.5
438, 1, 0.8125, 0.5
439, 0.5, 0.875, 0.5
440, 0, 0.8125, 0.5
441, 1, 0.875, 0.4375
442, 0, 0.875, 0.4375
443, 1, 0.875, 0.625
444, 0, 0.875, 0.625
445, 1, 0.8125, 0.625
446, 0.5, 0.875, 0.625
447, 0, 0.8125, 0.625
448, 1, 0.875, 0.5625
449, 0, 0.875, 0.5625
450, 1, 0.875, 0.75
451, 0, 0.875, 0.75
452, 1, 0.8125, 0.75
453, 0.5, 0.875, 0.75
454, 0, 0.8125, 0.75
455, 1, 0.875, 0.6875
456, 0, 0.875, 0.6875
457, 1, 0.875, 0.875
458, 0, 0.875, 0.875
459, 1, 0.8125, 0.875
460, 0.5, 0.875, 0.875
461, 0, 0.8125, 0.875
462, 1, 0.875, 0.8125
463, 0, 0.875, 0.8125
464, 1, 0.875, 1
465, 0, 0.875, 1
466, 1, 0.8125, 1
467, 0.5, 0.875, 1
468, 0, 0.8125, 1
469, 1, 0.875, 0.9375
470, 0, 0.875, 0.9375
471, 1, 1, 0
472, 0, 1, 0
473, 1, 1, 0.125
474, 0, 1, 0.125
475, 1, 0.9375, 0
476, 0.5, 1, 0
477, 0, 0.9375, 0
478, 1, 0.9375, 0.125
479, 0.5, 1, 0.125
480, 0, 0.9375, 0.125
481, 1, 1, 0.0625
482, 0, 1, 0.0625
483, 1, 1, 0.25
484, 0, 1, 0.25
485, 1, 0.9375, 0.25
486, 0.5, 1, 0.25
487, 0, 0.9375, 0.25
488, 1, 1, 0.1875
489, 0, 1, 0.1875
490, 1, 1, 0.375
491, 0, 1, 0.375
492, 1, 0.9375, 0.375
493, 0.5, 1, 0.375
494, 0, 0.9375, 0.375
495, 1, 1, 0.3125
496, 0, 1, 0.3125
497, 1, 1, 0.5
498, 0, 1, 0.5
499, 1, 0.9375, 0.5
500, 0.5, 1, 0.5
501, 0, 0.9375, 0.5
502, 1, 1, 0.4375
503, 0, 1, 0.4375
504, 1, 1, 0.625
505, 0, 1, 0.625
506, 1, 0.9375, 0.625
507, 0.5, 1, 0.625
508, 0, 0.9375, 0.625
509, 1, 1, 0.5625
510, 0, 1, 0.5625
511, 1, 1, 0.75
512, 0, 1, 0.75
513, 1, 0.9375, 0.75
514, 0.5, 1, 0.75
515, 0, 0.9375, 0.75
516, 1, 1, 0.6875
517, 0, 1, 0.6875
518, 1, 1, 0.875
519, 0, 1, 0.875
520, 1, 0.9375, 0.875
521, 0.5, 1, 0.875
522, 0, 0.9375, 0.875
523, 1, 1, 0.8125
524, 0, 1, 0.8125
525, 1, 1, 1
526, 0, 1, 1
527, 1, 0.9375, 1
528, 0.5, 1, 1
529, 0, 0.9375, 1
530, 1, 1, 0.9375
531, 0, 1, 0.9375
532, 1, 0.17995, 0.17995
533, 1.0001, 0.17995, 0.17995
534, 1.0001, 0.18004999999999999, 0.17995
535, 1, 0.18004999999999999, 0.17995
536, 1, 0.17995, 0.18004999999999999
537, 1.0001, 0.17995, 0.18004999999999999
538, 1.0001, 0.18004999999999999, 0.18004999999999999
539, 1, 0.18004999999999999, 0.18004999999999999
540, 1.0000500000000001, 0.17995, 0.17995
541, 1.0001, 0.17999999999999999, 0.17995
542, 1.0000500000000001, 0.18004999999999999, 0.17995
543, 1, 0.17999999999999999, 0.17995
544, 1.0000500000000001, 0.17995, 0.18004999999999999
545, 1.0001, 0.17999999999999999, 0.18004999999999999
546, 1.0000500000000001, 0.18004999999999999, 0.18004999999999999
547, 1, 0.17999999999999999, 0.18004999999999999
548, 1, 0.17995, 0.17999999999999999
549, 1.0001, 0.17995, 0.17999999999999999
550, 1.0001, 0.18004999999999999, 0.17999999999999999
551, 1, 0.18004999999999999, 0.17999999999999999
*Element, type=C3D20, elset=PRIMARY
1, 1, 2, 3, 4, 5, 6, 7, 8, 9, 10, 11, 12, 13, 14, 15, 16, 17, 18, 19, 20
2, 5, 6, 7, 8, 21, 22, 23, 24, 13, 14, 15, 16, 25, 26, 27, 28, 29, 30, 31, 32
3, 21, 22, 23, 24, 33, 34, 35, 36, 25, 26, 27, 28, 37, 38, 39, 40, 41, 42, 43, 44
4, 33, 34, 35, 36, 45, 46, 47, 48, 37, 38, 39, 40, 49, 50, 51, 52, 53, 54, 55, 56
5, 45, 46, 47, 48, 57, 58, 59, 60, 49, 50, 51, 52, 61, 62, 63, 64, 65, 66, 67, 68
6, 57, 58, 59, 60, 69, 70, 71, 72, 61, 62, 63, 64, 73, 74, 75, 76, 77, 78, 79, 80
7, 69, 70, 71, 72, 81, 82, 83, 84, 73, 74, 75, 76, 85, 86, 87, 88, 89, 90, 91, 92
8, 81, 82, 83, 84, 93, 94, 95, 96, 85, 86, 87, 88, 97, 98, 99, 100, 101, 102, 103, 104
9, 4, 3, 105, 106, 8, 7, 107, 108, 11, 109, 110, 111, 15, 112, 113, 114, 20, 19, 115, 116
10, 8, 7, 107, 108, 24, 23, 117, 118, 15, 112, 113, 114, 27, 119, 120, 121, 32, 31, 122, 123
11, 24, 23, 117, 118, 36, 35, 124, 125, 27, 119, 120, 121, 39, 126, 127, 128, 44, 43, 129, 130
12, 36, 35, 124, 125, 48, 47, 131, 132, 39, 126, 127, 128, 51, 133, 134, 135, 56, 55, 136, 137
13, 48, 47, 131, 132, 60, 59, 138, 139, 51, 133, 134, 135, 63, 140, 141, 142, 68, 67, 143, 144
14, 60, 59, 138, 139, 72, 71, 145, 146, 63, 140, 141, 142, 75, 147, 148, 149, 80, 79, 150, 151
15, 72, 71, 145, 146, 84, 83, 152, 153, 75, 147, 148, 149, 87, 154, 155, 156, 92, 91, 157, 158
16, 84, 83, 152, 153, 96, 95, 159, 160, 87, 154, 155, 156, 99, 161, 162, 163, 104, 103, 164, 165
17, 106, 105, 166, 167, 108, 107, 168, 169, 110, 170, 171, 172, 113, 173, 174, 175, 116, 115, 176, 177
18, 108, 107, 168, 169, 118, 117, 178, 179, 113, 173, 174, 175, 120, 180, 181, 182, 123, 122, 183, 184
19, 118, 117, 178, 179, 125, 124, 185, 186, 120, 180, 181, 182, 127, 187, 188, 189, 130, 129, 190, 191
20, 125, 124, 185, 186, 132, 131, 192, 193, 127, 187, 188, 189, 134, 194, 195, 196, 137, 136, 197, 198
21, 132, 131, 192, 193, 139, 138, 199, 200, 134, 194, 195, 196, 141, 201, 202, 203, 144, 143, 204, 205
22, 139, 138, 199, 200, 146, 145, 206, 207, 141, 201, 202, 203, 148, 208, 209, 210, 151, 150, 211, 212
23, 146, 145, 206, 207, 153, 152, 213, 214, 148, 208, 209, 210, 155, 215, 216, 217, 158, 157, 218, 219
24, 153, 152, 213, 214, 160, 159, 220, 221, 155, 215, 216, 217, 162, 222, 223, 224, 165, 164, 225, 226
25, 167, 166, 227, 228, 169, 168, 229, 230, 171, 231, 232, 233, 174, 234, 235, 236, 177, 176, 237, 238
26, 169, 168, 229, 230, 179, 178, 239, 240, 174, 234, 235, 236, 181, 241, 242, 243, 184, 183, 244, 245
27, 179, 178, 239, 240, 186, 185, 246, 247, 181, 241, 242, 243, 188, 248, 249, 250, 191, 190, 251, 252
28, 186, 185, 246, 247, 193, 192, 253, 254, 188, 248, 249, 250, 195, 255, 256, 257, 198, 197, 258, 259
29, 193, 192, 253, 254, 200, 199, 260, 261, 195, 255, 256, 257, 202, 262, 263, 264, 205, 204, 265, 266
30, 200, 199, 260, 261, 207, 206, 267, 268, 202, 262, 263, 264, 209, 269, 270, 271, 212, 211, 272, 273
31, 207, 206, 267, 268, 214, 213, 274, 275, 209, 269, 270, 271, 216, 276, 277, 278, 219, 218, 279, 280
32, 214, 213, 274, 275, 221, 220, 281, 282, 216, 276, 277, 278, 223, 283, 284, 285, 226, 225, 286, 287
33, 228, 227, 288, 289, 230, 229, 290, 291, 232, 292, 293, 294, 235, 295, 296, 297, 238, 237, 298, 299
34, 230, 229, 290, 291, 240, 239, 300, 301, 235, 295, 296, 297, 242, 302, 303, 304, 245, 244, 305, 306
35, 240, 239, 300, 301, 247, 246, 307, 308, 242, 302, 303, 304, 249, 309, 310, 311, 252, 251, 312, 313
36, 247, 246, 307, 308, 254, 253, 314, 315, 249, 309, 310, 311, 256, 316, 317, 318, 259, 258, 319, 320
37, 254, 253, 314, 315, 261, 260, 321, 322, 256, 316, 317, 318, 263, 323, 324, 325, 266, 265, 326, 327
38, 261, 260, 321, 322, 268, 267, 328, 329, 263, 323, 324, 325, 270, 330, 331, 332, 273, 272, 333, 334
39, 268, 267, 328, 329, 275, 274, 335, 336, 270, 330, 331, 332, 277, 337, 338, 339, 280, 279, 340, 341
40, 275, 274, 335, 336, 282, 281, 342, 343, 277, 337, 338, 339, 284, 344, 345, 346, 287, 286, 347, 348
41, 289, 288, 349, 350, 291, 290, 351, 352, 293, 353, 354, 355, 296, 356, 357, 358, 299, 298, 359, 360
42, 291, 290, 351, 352, 301, 300, 361, 362, 296, 356, 357, 358, 303, 363, 364, 365, 306, 305, 366, 367
43, 301, 300, 361, 362, 308, 307, 368, 369, 303, 363, 364, 365, 310, 370, 371, 372, 313, 312, 373, 374
44, 308, 307, 368, 369, 315, 314, 375, 376, 310, 370, 371, 372, 317, 377, 378, 379, 320, 319, 380, 381
45, 315, 314, 375, 376, 322, 321, 382, 383, 317, 377, 378, 379, 324, 384, 385, 386, 327, 326, 387, 388
46, 322, 321, 382, 383, 329, 328, 389, 390, 324, 384, 385, 386, 331, 391, 392, 393, 334, 333, 394, 395
47, 329, 328, 389, 390, 336, 335, 396, 397, 331, 391, 392, 393, 338, 398, 399, 400, 341, 340, 401, 402
48, 336, 335, 396, 397, 343, 342, 403, 404, 338, 398, 399, 400, 345, 405, 406, 407, 348, 347, 408, 409
49, 350, 349, 410, 411, 352, 351, 412, 413, 354, 414, 415, 416, 357, 417, 418, 419, 360, 359, 420, 421
50, 352, 351, 412, 413, 362, 361, 422, 423, 357, 417, 418, 419, 364, 424, 425, 426, 367, 366, 427, 428
51, 362, 361, 422, 423, 369, 368, 429, 430, 364, 424, 425, 426, 371, 431, 432, 433, 374, 373, 434, 435
52, 369, 368, 429, 430, 376, 375, 436, 437, 371, 431, 432, 433, 378, 438, 439, 440, 381, 380, 441, 442
53, 376, 375, 436, 437, 383, 382, 443, 444, 378, 438, 439, 440, 385, 445, 446, 447, 388, 387, 448, 449
54, 383, 382, 443, 444, 390, 389, 450, 451, 385, 445, 446, 447, 392, 452, 453, 454, 395, 394, 455, 456
55, 390, 389, 450, 451, 397, 396, 457, 458, 392, 452, 453, 454, 399, 459, 460, 461, 402, 401, 462, 463
56, 397, 396, 457, 458, 404, 403, 464, 465, 399, 459, 460, 461, 406, 466, 467, 468, 409, 408, 469, 470
57, 411, 410, 471, 472, 413, 412, 473, 474, 415, 475, 476, 477, 418, 478, 479, 480, 421, 420, 481, 482
58, 413, 412, 473, 474, 423, 422, 483, 484, 418, 478, 479, 480, 425, 485, 486, 487, 428, 427, 488, 489
59, 423, 422, 483, 484, 430, 429, 490, 491, 425, 485, 486, 487, 432, 492, 493, 494, 435, 434, 495, 496
60, 430, 429, 490, 491, 437, 436, 497, 498, 432, 492, 493, 494, 439, 499, 500, 501, 442, 441, 502, 503
61, 437, 436, 497, 498, 444, 443, 504, 505, 439, 499, 500, 501, 446, 506, 507, 508, 449, 448, 509, 510
62, 444, 443, 504, 505, 451, 450, 511, 512, 446, 506, 507, 508, 453, 513, 514, 515, 456, 455, 516, 517
63, 451, 450, 511, 512, 458, 457, 518, 519, 453, 513, 514, 515, 460, 520, 521, 522, 463, 462, 523, 524
64, 458, 457, 518, 519, 465, 464, 525, 526, 460, 520, 521, 522, 467, 527, 528, 529, 470, 469, 530, 531
*Element, type=C3D20, elset=SECONDARY
65, 532, 533, 534, 535, 536, 537, 538, 539, 540, 541, 542, 543, 544, 545, 546, 547, 548, 549, 550, 551
*Nset, nset=PRIMARY_ALL
1, 2, 3, 4, 5, 6, 7, 8, 9, 10, 11, 12, 13, 14, 15, 16
17, 18, 19, 20, 21, 22, 23, 24, 25, 26, 27, 28, 29, 30, 31, 32
33, 34, 35, 36, 37, 38, 39, 40, 41, 42, 43, 44, 45, 46, 47, 48
49, 50, 51, 52, 53, 54, 55, 56, 57, 58, 59, 60, 61, 62, 63, 64
65, 66, 67, 68, 69, 70, 71, 72, 73, 74, 75, 76, 77, 78, 79, 80
81, 82, 83, 84, 85, 86, 87, 88, 89, 90, 91, 92, 93, 94, 95, 96
97, 98, 99, 100, 101, 102, 103, 104, 105, 106, 107, 108, 109, 110, 111, 112
113, 114, 115, 116, 117, 118, 119, 120, 121, 122, 123, 124, 125, 126, 127, 128
129, 130, 131, 132, 133, 134, 135, 136, 137, 138, 139, 140, 141, 142, 143, 144
145, 146, 147, 148, 149, 150, 151, 152, 153, 154, 155, 156, 157, 158, 159, 160
161, 162, 163, 164, 165, 166, 167, 168, 169, 170, 171, 172, 173, 174, 175, 176
177, 178, 179, 180, 181, 182, 183, 184, 185, 186, 187, 188, 189, 190, 191, 192
193, 194, 195, 196, 197, 198, 199, 200, 201, 202, 203, 204, 205, 206, 207, 208
209, 210, 211, 212, 213, 214, 215, 216, 217, 218, 219, 220, 221, 222, 223, 224
225, 226, 227, 228, 229, 230, 231, 232, 233, 234, 235, 236, 237, 238, 239, 240
241, 242, 243, 244, 245, 246, 247, 248, 249, 250, 251, 252, 253, 254, 255, 256
257, 258, 259, 260, 261, 262, 263, 264, 265, 266, 267, 268, 269, 270, 271, 272
273, 274, 275, 276, 277, 278, 279, 280, 281, 282, 283, 284, 285, 286, 287, 288
289, 290, 291, 292, 293, 294, 295, 296, 297, 298, 299, 300, 301, 302, 303, 304
305, 306, 307, 308, 309, 310, 311, 312, 313, 314, 315, 316, 317, 318, 319, 320
321, 322, 323, 324, 325, 326, 327, 328, 329, 330, 331, 332, 333, 334, 335, 336
337, 338, 339, 340, 341, 342, 343, 344, 345, 346, 347, 348, 349, 350, 351, 352
353, 354, 355, 356, 357, 358, 359, 360, 361, 362, 363, 364, 365, 366, 367, 368
369, 370, 371, 372, 373, 374, 375, 376, 377, 378, 379, 380, 381, 382, 383, 384
385, 386, 387, 388, 389, 390, 391, 392, 393, 394, 395, 396, 397, 398, 399, 400
401, 402, 403, 404, 405, 406, 407, 408, 409, 410, 411, 412, 413, 414, 415, 416
417, 418, 419, 420, 421, 422, 423, 424, 425, 426, 427, 428, 429, 430, 431, 432
433, 434, 435, 436, 437, 438, 439, 440, 441, 442, 443, 444, 445, 446, 447, 448
449, 450, 451, 452, 453, 454, 455, 456, 457, 458, 459, 460, 461, 462, 463, 464
465, 466, 467, 468, 469, 470, 471, 472, 473, 474, 475, 476, 477, 478, 479, 480
481, 482, 483, 484, 485, 486, 487, 488, 489, 490, 491, 492, 493, 494, 495, 496
497, 498, 499, 500, 501, 502, 503, 504, 505, 506, 507, 508, 509, 510, 511, 512
513, 514, 515, 516, 517, 518, 519, 520, 521, 522, 523, 524, 525, 526, 527, 528
529, 530, 531
*Nset, nset=PRIMARY_FACE
2, 3, 6, 7, 10, 14, 18, 19, 22, 23, 26, 30, 31, 34, 35, 38
42, 43, 46, 47, 50, 54, 55, 58, 59, 62, 66, 67, 70, 71, 74, 78
79, 82, 83, 86, 90, 91, 94, 95, 98, 102, 103, 105, 107, 109, 112, 115
117, 119, 122, 124, 126, 129, 131, 133, 136, 138, 140, 143, 145, 147, 150, 152
154, 157, 159, 161, 164, 166, 168, 170, 173, 176, 178, 180, 183, 185, 187, 190
192, 194, 197, 199, 201, 204, 206, 208, 211, 213, 215, 218, 220, 222, 225, 227
229, 231, 234, 237, 239, 241, 244, 246, 248, 251, 253, 255, 258, 260, 262, 265
267, 269, 272, 274, 276, 279, 281, 283, 286, 288, 290, 292, 295, 298, 300, 302
305, 307, 309, 312, 314, 316, 319, 321, 323, 326, 328, 330, 333, 335, 337, 340
342, 344, 347, 349, 351, 353, 356, 359, 361, 363, 366, 368, 370, 373, 375, 377
380, 382, 384, 387, 389, 391, 394, 396, 398, 401, 403, 405, 408, 410, 412, 414
417, 420, 422, 424, 427, 429, 431, 434, 436, 438, 441, 443, 445, 448, 450, 452
455, 457, 459, 462, 464, 466, 469, 471, 473, 475, 478, 481, 483, 485, 488, 490
492, 495, 497, 499, 502, 504, 506, 509, 511, 513, 516, 518, 520, 523, 525, 527
530
*Nset, nset=SECONDARY_ALL
532, 533, 534, 535, 536, 537, 538, 539, 540, 541, 542, 543, 544, 545, 546, 547
548, 549, 550, 551
*Nset, nset=SECONDARY_FACE
532, 535, 539, 536, 543, 551, 547, 548
*Nset, nset=S1
532
*Nset, nset=S2
535
*Nset, nset=S3
539
*Nset, nset=S4
536
*Nset, nset=S5
543
*Nset, nset=S6
551
*Nset, nset=S7
547
*Nset, nset=S8
548
*Surface, type=ELEMENT, name=PRIMARY_CONTACT
PRIMARY, S4
*Surface, type=ELEMENT, name=SECONDARY_CONTACT
SECONDARY, S6
*Material, name=ELASTIC
*Elastic
1.e9, 0.
*Solid Section, elset=PRIMARY, material=ELASTIC
,
*Solid Section, elset=SECONDARY, material=ELASTIC
,
*Surface Interaction, name=LINEAR_PENALTY
*Surface Behavior, penalty=LINEAR
1.e8,
*Contact Pair, interaction=LINEAR_PENALTY, type=SURFACE TO SURFACE, adjust=0.
SECONDARY_CONTACT, PRIMARY_CONTACT
*Step, name=BASE, nlgeom=YES, inc=40
*Static
1., 1., 1.e-8, 1.
*Boundary
PRIMARY_ALL, 1, 3, 0.
SECONDARY_ALL, 2, 3, 0.
S1, 1, 1, -1.e-4
S2, 1, 1, -1.e-4
S3, 1, 1, -1.e-4
S4, 1, 1, -1.e-4
S5, 1, 1, -1.e-4
S6, 1, 1, -1.e-4
S7, 1, 1, -1.e-4
S8, 1, 1, -1.e-4
*Output, field, frequency=1
*Node Output
COORD, RF, U
*Contact Output
CSTRESS, CDISP, CFORCE
*End Step
*Step, name=S1_PLUS, nlgeom=YES, inc=40
*Static
1., 1., 1.e-8, 1.
*Boundary, op=MOD
S1, 1, 1, -1.01e-4
S2, 1, 1, -1.e-4
S3, 1, 1, -1.e-4
S4, 1, 1, -1.e-4
S5, 1, 1, -1.e-4
S6, 1, 1, -1.e-4
S7, 1, 1, -1.e-4
S8, 1, 1, -1.e-4
*End Step
*Step, name=S1_MINUS, nlgeom=YES, inc=40
*Static
1., 1., 1.e-8, 1.
*Boundary, op=MOD
S1, 1, 1, -9.9e-5
S2, 1, 1, -1.e-4
S3, 1, 1, -1.e-4
S4, 1, 1, -1.e-4
S5, 1, 1, -1.e-4
S6, 1, 1, -1.e-4
S7, 1, 1, -1.e-4
S8, 1, 1, -1.e-4
*End Step
*Step, name=S2_PLUS, nlgeom=YES, inc=40
*Static
1., 1., 1.e-8, 1.
*Boundary, op=MOD
S1, 1, 1, -1.e-4
S2, 1, 1, -1.01e-4
S3, 1, 1, -1.e-4
S4, 1, 1, -1.e-4
S5, 1, 1, -1.e-4
S6, 1, 1, -1.e-4
S7, 1, 1, -1.e-4
S8, 1, 1, -1.e-4
*End Step
*Step, name=S2_MINUS, nlgeom=YES, inc=40
*Static
1., 1., 1.e-8, 1.
*Boundary, op=MOD
S1, 1, 1, -1.e-4
S2, 1, 1, -9.9e-5
S3, 1, 1, -1.e-4
S4, 1, 1, -1.e-4
S5, 1, 1, -1.e-4
S6, 1, 1, -1.e-4
S7, 1, 1, -1.e-4
S8, 1, 1, -1.e-4
*End Step
*Step, name=S3_PLUS, nlgeom=YES, inc=40
*Static
1., 1., 1.e-8, 1.
*Boundary, op=MOD
S1, 1, 1, -1.e-4
S2, 1, 1, -1.e-4
S3, 1, 1, -1.01e-4
S4, 1, 1, -1.e-4
S5, 1, 1, -1.e-4
S6, 1, 1, -1.e-4
S7, 1, 1, -1.e-4
S8, 1, 1, -1.e-4
*End Step
*Step, name=S3_MINUS, nlgeom=YES, inc=40
*Static
1., 1., 1.e-8, 1.
*Boundary, op=MOD
S1, 1, 1, -1.e-4
S2, 1, 1, -1.e-4
S3, 1, 1, -9.9e-5
S4, 1, 1, -1.e-4
S5, 1, 1, -1.e-4
S6, 1, 1, -1.e-4
S7, 1, 1, -1.e-4
S8, 1, 1, -1.e-4
*End Step
*Step, name=S4_PLUS, nlgeom=YES, inc=40
*Static
1., 1., 1.e-8, 1.
*Boundary, op=MOD
S1, 1, 1, -1.e-4
S2, 1, 1, -1.e-4
S3, 1, 1, -1.e-4
S4, 1, 1, -1.01e-4
S5, 1, 1, -1.e-4
S6, 1, 1, -1.e-4
S7, 1, 1, -1.e-4
S8, 1, 1, -1.e-4
*End Step
*Step, name=S4_MINUS, nlgeom=YES, inc=40
*Static
1., 1., 1.e-8, 1.
*Boundary, op=MOD
S1, 1, 1, -1.e-4
S2, 1, 1, -1.e-4
S3, 1, 1, -1.e-4
S4, 1, 1, -9.9e-5
S5, 1, 1, -1.e-4
S6, 1, 1, -1.e-4
S7, 1, 1, -1.e-4
S8, 1, 1, -1.e-4
*End Step
*Step, name=S5_PLUS, nlgeom=YES, inc=40
*Static
1., 1., 1.e-8, 1.
*Boundary, op=MOD
S1, 1, 1, -1.e-4
S2, 1, 1, -1.e-4
S3, 1, 1, -1.e-4
S4, 1, 1, -1.e-4
S5, 1, 1, -1.01e-4
S6, 1, 1, -1.e-4
S7, 1, 1, -1.e-4
S8, 1, 1, -1.e-4
*End Step
*Step, name=S5_MINUS, nlgeom=YES, inc=40
*Static
1., 1., 1.e-8, 1.
*Boundary, op=MOD
S1, 1, 1, -1.e-4
S2, 1, 1, -1.e-4
S3, 1, 1, -1.e-4
S4, 1, 1, -1.e-4
S5, 1, 1, -9.9e-5
S6, 1, 1, -1.e-4
S7, 1, 1, -1.e-4
S8, 1, 1, -1.e-4
*End Step
*Step, name=S6_PLUS, nlgeom=YES, inc=40
*Static
1., 1., 1.e-8, 1.
*Boundary, op=MOD
S1, 1, 1, -1.e-4
S2, 1, 1, -1.e-4
S3, 1, 1, -1.e-4
S4, 1, 1, -1.e-4
S5, 1, 1, -1.e-4
S6, 1, 1, -1.01e-4
S7, 1, 1, -1.e-4
S8, 1, 1, -1.e-4
*End Step
*Step, name=S6_MINUS, nlgeom=YES, inc=40
*Static
1., 1., 1.e-8, 1.
*Boundary, op=MOD
S1, 1, 1, -1.e-4
S2, 1, 1, -1.e-4
S3, 1, 1, -1.e-4
S4, 1, 1, -1.e-4
S5, 1, 1, -1.e-4
S6, 1, 1, -9.9e-5
S7, 1, 1, -1.e-4
S8, 1, 1, -1.e-4
*End Step
*Step, name=S7_PLUS, nlgeom=YES, inc=40
*Static
1., 1., 1.e-8, 1.
*Boundary, op=MOD
S1, 1, 1, -1.e-4
S2, 1, 1, -1.e-4
S3, 1, 1, -1.e-4
S4, 1, 1, -1.e-4
S5, 1, 1, -1.e-4
S6, 1, 1, -1.e-4
S7, 1, 1, -1.01e-4
S8, 1, 1, -1.e-4
*End Step
*Step, name=S7_MINUS, nlgeom=YES, inc=40
*Static
1., 1., 1.e-8, 1.
*Boundary, op=MOD
S1, 1, 1, -1.e-4
S2, 1, 1, -1.e-4
S3, 1, 1, -1.e-4
S4, 1, 1, -1.e-4
S5, 1, 1, -1.e-4
S6, 1, 1, -1.e-4
S7, 1, 1, -9.9e-5
S8, 1, 1, -1.e-4
*End Step
*Step, name=S8_PLUS, nlgeom=YES, inc=40
*Static
1., 1., 1.e-8, 1.
*Boundary, op=MOD
S1, 1, 1, -1.e-4
S2, 1, 1, -1.e-4
S3, 1, 1, -1.e-4
S4, 1, 1, -1.e-4
S5, 1, 1, -1.e-4
S6, 1, 1, -1.e-4
S7, 1, 1, -1.e-4
S8, 1, 1, -1.01e-4
*End Step
*Step, name=S8_MINUS, nlgeom=YES, inc=40
*Static
1., 1., 1.e-8, 1.
*Boundary, op=MOD
S1, 1, 1, -1.e-4
S2, 1, 1, -1.e-4
S3, 1, 1, -1.e-4
S4, 1, 1, -1.e-4
S5, 1, 1, -1.e-4
S6, 1, 1, -1.e-4
S7, 1, 1, -1.e-4
S8, 1, 1, -9.9e-5
*End Step
