*Heading
** H20.26 Abaqus/Standard C3D20 surface-to-surface operator identification.
** SI units: metre, newton, pascal.
*Preprint, echo=NO, model=NO, history=NO, contact=YES
*Node
1, 0., 0., 0.
2, 1., 0., 0.
3, 1., 1., 0.
4, 0., 1., 0.
5, 0., 0., 1.
6, 1., 0., 1.
7, 1., 1., 1.
8, 0., 1., 1.
9, 0.5, 0., 0.
10, 1., 0.5, 0.
11, 0.5, 1., 0.
12, 0., 0.5, 0.
13, 0., 0., 0.5
14, 1., 0., 0.5
15, 1., 1., 0.5
16, 0., 1., 0.5
17, 0.5, 0., 1.
18, 1., 0.5, 1.
19, 0.5, 1., 1.
20, 0., 0.5, 1.
21, 1., 0., 0.
22, 2., 0., 0.
23, 2., 1., 0.
24, 1., 1., 0.
25, 1., 0., 1.
26, 2., 0., 1.
27, 2., 1., 1.
28, 1., 1., 1.
29, 1.5, 0., 0.
30, 2., 0.5, 0.
31, 1.5, 1., 0.
32, 1., 0.5, 0.
33, 1., 0., 0.5
34, 2., 0., 0.5
35, 2., 1., 0.5
36, 1., 1., 0.5
37, 1.5, 0., 1.
38, 2., 0.5, 1.
39, 1.5, 1., 1.
40, 1., 0.5, 1.
*Element, type=C3D20, elset=PRIMARY
1, 1, 2, 3, 4, 5, 6, 7, 8, 9, 10, 11, 12, 17, 18, 19, 20, 13, 14, 15, 16
*Element, type=C3D20, elset=SECONDARY
2, 21, 22, 23, 24, 25, 26, 27, 28, 29, 30, 31, 32, 37, 38, 39, 40, 33, 34, 35, 36
*Nset, nset=PRIMARY_ALL, generate
1, 20, 1
*Nset, nset=SECONDARY_ALL, generate
21, 40, 1
*Nset, nset=S1
21
*Nset, nset=S2
24
*Nset, nset=S3
28
*Nset, nset=S4
25
*Nset, nset=S5
32
*Nset, nset=S6
36
*Nset, nset=S7
40
*Nset, nset=S8
33
*Surface, type=ELEMENT, name=PRIMARY_CONTACT
PRIMARY, S4
*Surface, type=ELEMENT, name=SECONDARY_CONTACT
SECONDARY, S6
*Material, name=ELASTIC
*Elastic
1.e9, 0.
*Solid Section, elset=PRIMARY, material=ELASTIC
,
*Solid Section, elset=SECONDARY, material=ELASTIC
,
*Surface Interaction, name=LINEAR_PENALTY
*Surface Behavior, penalty=LINEAR
1.e8,
*Contact Pair, interaction=LINEAR_PENALTY, type=SURFACE TO SURFACE, small sliding, adjust=0.
SECONDARY_CONTACT, PRIMARY_CONTACT
*Step, name=BASE, nlgeom=NO, inc=40
*Static
0.1, 1., 1.e-8, 0.1
*Boundary
PRIMARY_ALL, 1, 3, 0.
SECONDARY_ALL, 2, 3, 0.
S1, 1, 1, -1.e-4
S2, 1, 1, -1.e-4
S3, 1, 1, -1.e-4
S4, 1, 1, -1.e-4
S5, 1, 1, -1.e-4
S6, 1, 1, -1.e-4
S7, 1, 1, -1.e-4
S8, 1, 1, -1.e-4
*Output, field, frequency=1
*Node Output
COORD, RF, U
*Contact Output
CSTRESS, CDISP, CFORCE
*Output, history, frequency=1
*Contact Output
CFN, CMN, CAREA, XN
*End Step
*Step, name=S2_PLUS, nlgeom=NO, inc=40
*Static
0.1, 1., 1.e-8, 0.1
*Boundary, op=MOD
S1, 1, 1, -1.e-4
S2, 1, 1, -1.01e-4
*End Step
*Step, name=S2_MINUS, nlgeom=NO, inc=40
*Static
0.1, 1., 1.e-8, 0.1
*Boundary, op=MOD
S2, 1, 1, -9.9e-5
*End Step
*Step, name=S3_PLUS, nlgeom=NO, inc=40
*Static
0.1, 1., 1.e-8, 0.1
*Boundary, op=MOD
S2, 1, 1, -1.e-4
S3, 1, 1, -1.01e-4
*End Step
*Step, name=S3_MINUS, nlgeom=NO, inc=40
*Static
0.1, 1., 1.e-8, 0.1
*Boundary, op=MOD
S3, 1, 1, -9.9e-5
*End Step
*Step, name=S4_PLUS, nlgeom=NO, inc=40
*Static
0.1, 1., 1.e-8, 0.1
*Boundary, op=MOD
S3, 1, 1, -1.e-4
S4, 1, 1, -1.01e-4
*End Step
*Step, name=S4_MINUS, nlgeom=NO, inc=40
*Static
0.1, 1., 1.e-8, 0.1
*Boundary, op=MOD
S4, 1, 1, -9.9e-5
*End Step
*Step, name=S5_PLUS, nlgeom=NO, inc=40
*Static
0.1, 1., 1.e-8, 0.1
*Boundary, op=MOD
S4, 1, 1, -1.e-4
S5, 1, 1, -1.01e-4
*End Step
*Step, name=S5_MINUS, nlgeom=NO, inc=40
*Static
0.1, 1., 1.e-8, 0.1
*Boundary, op=MOD
S5, 1, 1, -9.9e-5
*End Step
*Step, name=S6_PLUS, nlgeom=NO, inc=40
*Static
0.1, 1., 1.e-8, 0.1
*Boundary, op=MOD
S5, 1, 1, -1.e-4
S6, 1, 1, -1.01e-4
*End Step
*Step, name=S6_MINUS, nlgeom=NO, inc=40
*Static
0.1, 1., 1.e-8, 0.1
*Boundary, op=MOD
S6, 1, 1, -9.9e-5
*End Step
*Step, name=S7_PLUS, nlgeom=NO, inc=40
*Static
0.1, 1., 1.e-8, 0.1
*Boundary, op=MOD
S6, 1, 1, -1.e-4
S7, 1, 1, -1.01e-4
*End Step
*Step, name=S7_MINUS, nlgeom=NO, inc=40
*Static
0.1, 1., 1.e-8, 0.1
*Boundary, op=MOD
S7, 1, 1, -9.9e-5
*End Step
*Step, name=S8_PLUS, nlgeom=NO, inc=40
*Static
0.1, 1., 1.e-8, 0.1
*Boundary, op=MOD
S7, 1, 1, -1.e-4
S8, 1, 1, -1.01e-4
*End Step
*Step, name=S8_MINUS, nlgeom=NO, inc=40
*Static
0.1, 1., 1.e-8, 0.1
*Boundary, op=MOD
S8, 1, 1, -9.9e-5
*End Step

*Step, name=S1_PLUS, nlgeom=NO, inc=40
*Static
0.1, 1., 1.e-8, 0.1
*Boundary, op=MOD
S8, 1, 1, -1.e-4
S1, 1, 1, -1.01e-4
*Output, field, frequency=1
*Node Output
COORD, RF, U
*Contact Output
CSTRESS, CDISP, CFORCE
*Output, history, frequency=1
*Contact Output
CFN, CMN, CAREA, XN
*End Step
*Step, name=S1_MINUS, nlgeom=NO, inc=40
*Static
0.1, 1., 1.e-8, 0.1
*Boundary, op=MOD
S1, 1, 1, -9.9e-5
*Output, field, frequency=1
*Node Output
COORD, RF, U
*Contact Output
CSTRESS, CDISP, CFORCE
*Output, history, frequency=1
*Contact Output
CFN, CMN, CAREA, XN
*End Step
