*Heading
** H20.38 rigid-rotation friction objectivity
*Node
1, 0, 0, 0
2, 1, 0, 0
3, 1, 1, 0
4, 0, 1, 0
5, 0, 0, 1
6, 1, 0, 1
7, 1, 1, 1
8, 0, 1, 1
9, 0.5, 0, 0
10, 1, 0.5, 0
11, 0.5, 1, 0
12, 0, 0.5, 0
13, 0, 0, 0.5
14, 1, 0, 0.5
15, 1, 1, 0.5
16, 0, 1, 0.5
17, 0.5, 0, 1
18, 1, 0.5, 1
19, 0.5, 1, 1
20, 0, 0.5, 1
21, 1, 0, 0
22, 2, 0, 0
23, 2, 1, 0
24, 1, 1, 0
25, 1, 0, 1
26, 2, 0, 1
27, 2, 1, 1
28, 1, 1, 1
29, 1.5, 0, 0
30, 2, 0.5, 0
31, 1.5, 1, 0
32, 1, 0.5, 0
33, 1, 0, 0.5
34, 2, 0, 0.5
35, 2, 1, 0.5
36, 1, 1, 0.5
37, 1.5, 0, 1
38, 2, 0.5, 1
39, 1.5, 1, 1
40, 1, 0.5, 1
*Element, type=C3D20, elset=PRIMARY
1, 1, 2, 3, 4, 5, 6, 7, 8, 9, 10, 11, 12, 17, 18, 19, 20, 13, 14, 15, 16
*Element, type=C3D20, elset=SECONDARY
2, 21, 22, 23, 24, 25, 26, 27, 28, 29, 30, 31, 32, 37, 38, 39, 40, 33, 34, 35, 36
*Nset, nset=PRIMARY_ALL
1, 2, 3, 4, 5, 6, 7, 8, 9, 10, 11, 12, 13, 14, 15, 16, 17, 18, 19, 20
*Nset, nset=SECONDARY_ALL
21, 22, 23, 24, 25, 26, 27, 28, 29, 30, 31, 32, 33, 34, 35, 36, 37, 38, 39, 40
*Nset, nset=SECONDARY_CONTACT_NODES
24, 21, 25, 28, 32, 33, 40, 36
*Surface, type=ELEMENT, name=PRIMARY_CONTACT
PRIMARY, S4
*Surface, type=ELEMENT, name=SECONDARY_CONTACT
SECONDARY, S6
*Material, name=ELASTIC
*Elastic
1.e9, 0.25
*Solid Section, elset=PRIMARY, material=ELASTIC
,
*Solid Section, elset=SECONDARY, material=ELASTIC
,
*Surface Interaction, name=CONTACT
*Surface Behavior, pressure-overclosure=LINEAR
1.e5,
*Friction, slip tolerance=1.e-4
0.5,
*Contact Pair, interaction=CONTACT, type=SURFACE TO SURFACE, small sliding, adjust=0.
SECONDARY_CONTACT, PRIMARY_CONTACT
*Step, name=SLIDE, nlgeom=YES
*Static
0.1, 1., 1.e-8, 0.1
*Boundary
PRIMARY_ALL, 1, 3, 0.
SECONDARY_ALL, 1, 1, -0.01
SECONDARY_ALL, 2, 2, 0.0012
SECONDARY_ALL, 3, 3, 0.0016
*Output, field
*Contact Output
CSTRESS, CDISP, CFORCE
*End Step
*Step, name=ROTATE, nlgeom=YES
*Static
0.1, 1., 1.e-8, 0.1
*Boundary, op=NEW
1, 1, 1, 0
1, 2, 2, 0
1, 3, 3, 0
2, 1, 1, -0.060627287152621112
2, 2, 2, 0.34289780745545134
2, 3, 3, 0
3, 1, 1, -0.4035250946080724
3, 2, 2, 0.28227052030283017
3, 3, 3, 0
4, 1, 1, -0.34289780745545134
4, 2, 2, -0.060627287152621112
4, 3, 3, 0
5, 1, 1, 0
5, 2, 2, 0
5, 3, 3, 0
6, 1, 1, -0.060627287152621112
6, 2, 2, 0.34289780745545134
6, 3, 3, 0
7, 1, 1, -0.4035250946080724
7, 2, 2, 0.28227052030283017
7, 3, 3, 0
8, 1, 1, -0.34289780745545134
8, 2, 2, -0.060627287152621112
8, 3, 3, 0
9, 1, 1, -0.030313643576310556
9, 2, 2, 0.17144890372772567
9, 3, 3, 0
10, 1, 1, -0.23207619088034681
10, 2, 2, 0.31258416387914079
10, 3, 3, 0
11, 1, 1, -0.3732114510317619
11, 2, 2, 0.11082161657510459
11, 3, 3, 0
12, 1, 1, -0.17144890372772567
12, 2, 2, -0.030313643576310556
12, 3, 3, 0
13, 1, 1, 0
13, 2, 2, 0
13, 3, 3, 0
14, 1, 1, -0.060627287152621112
14, 2, 2, 0.34289780745545134
14, 3, 3, 0
15, 1, 1, -0.4035250946080724
15, 2, 2, 0.28227052030283017
15, 3, 3, 0
16, 1, 1, -0.34289780745545134
16, 2, 2, -0.060627287152621112
16, 3, 3, 0
17, 1, 1, -0.030313643576310556
17, 2, 2, 0.17144890372772567
17, 3, 3, 0
18, 1, 1, -0.23207619088034681
18, 2, 2, 0.31258416387914079
18, 3, 3, 0
19, 1, 1, -0.3732114510317619
19, 2, 2, 0.11082161657510459
19, 3, 3, 0
20, 1, 1, -0.17144890372772567
20, 2, 2, -0.030313643576310556
20, 3, 3, 0
21, 1, 1, -0.070432491650041396
21, 2, 2, 0.34059607663631369
21, 3, 3, 0.0016000000000000001
22, 1, 1, -0.13105977880266262
22, 2, 2, 0.68349388409176504
22, 3, 3, 0.0016000000000000001
23, 1, 1, -0.47395758625811402
23, 2, 2, 0.62286659693914403
23, 3, 3, 0.0016000000000000001
24, 1, 1, -0.41333029910549279
24, 2, 2, 0.27996878948369264
24, 3, 3, 0.0016000000000000001
25, 1, 1, -0.070432491650041396
25, 2, 2, 0.34059607663631369
25, 3, 3, 0.0016000000000000001
26, 1, 1, -0.13105977880266262
26, 2, 2, 0.68349388409176504
26, 3, 3, 0.0016000000000000001
27, 1, 1, -0.47395758625811402
27, 2, 2, 0.62286659693914403
27, 3, 3, 0.0016000000000000001
28, 1, 1, -0.41333029910549279
28, 2, 2, 0.27996878948369264
28, 3, 3, 0.0016000000000000001
29, 1, 1, -0.1007461352263519
29, 2, 2, 0.51204498036403945
29, 3, 3, 0.0016000000000000001
30, 1, 1, -0.30250868253038821
30, 2, 2, 0.65318024051545454
30, 3, 3, 0.0016000000000000001
31, 1, 1, -0.44364394268180329
31, 2, 2, 0.45141769321141823
31, 3, 3, 0.0016000000000000001
32, 1, 1, -0.24188139537776709
32, 2, 2, 0.31028243306000314
32, 3, 3, 0.0016000000000000001
33, 1, 1, -0.070432491650041396
33, 2, 2, 0.34059607663631369
33, 3, 3, 0.0016000000000000001
34, 1, 1, -0.13105977880266262
34, 2, 2, 0.68349388409176504
34, 3, 3, 0.0016000000000000001
35, 1, 1, -0.47395758625811402
35, 2, 2, 0.62286659693914403
35, 3, 3, 0.0016000000000000001
36, 1, 1, -0.41333029910549279
36, 2, 2, 0.27996878948369264
36, 3, 3, 0.0016000000000000001
37, 1, 1, -0.1007461352263519
37, 2, 2, 0.51204498036403945
37, 3, 3, 0.0016000000000000001
38, 1, 1, -0.30250868253038821
38, 2, 2, 0.65318024051545454
38, 3, 3, 0.0016000000000000001
39, 1, 1, -0.44364394268180329
39, 2, 2, 0.45141769321141823
39, 3, 3, 0.0016000000000000001
40, 1, 1, -0.24188139537776709
40, 2, 2, 0.31028243306000314
40, 3, 3, 0.0016000000000000001
*Output, field
*Contact Output
CSTRESS, CDISP, CFORCE
*End Step
