*Heading
** Finite-sliding counterpart of H20.28; isolates quadratic contact transfer, not bulk material accuracy.
** One secondary face opposes an 8-by-8 primary face mesh.
*Preprint, echo=NO, model=NO, history=NO, contact=YES
*Node
532, 1, 0, 0
533, 2, 0, 0
534, 2, 1, 0
535, 1, 1, 0
536, 1, 0, 1
537, 2, 0, 1
538, 2, 1, 1
539, 1, 1, 1
540, 1.5, 0, 0
541, 2, 0.5, 0
542, 1.5, 1, 0
543, 1, 0.5, 0
544, 1.5, 0, 1
545, 2, 0.5, 1
546, 1.5, 1, 1
547, 1, 0.5, 1
548, 1, 0, 0.5
549, 2, 0, 0.5
550, 2, 1, 0.5
551, 1, 1, 0.5
2000, 0, 0, 0
2001, 1, 0, 0
2002, 1, 0.125, 0
2003, 0, 0.125, 0
2004, 0, 0, 0.125
2005, 1, 0, 0.125
2006, 1, 0.125, 0.125
2007, 0, 0.125, 0.125
2008, 0.5, 0, 0
2009, 1, 0.0625, 0
2010, 0.5, 0.125, 0
2011, 0, 0.0625, 0
2012, 0.5, 0, 0.125
2013, 1, 0.0625, 0.125
2014, 0.5, 0.125, 0.125
2015, 0, 0.0625, 0.125
2016, 0, 0, 0.0625
2017, 1, 0, 0.0625
2018, 1, 0.125, 0.0625
2019, 0, 0.125, 0.0625
2020, 0, 0, 0.125
2021, 1, 0, 0.125
2022, 1, 0.125, 0.125
2023, 0, 0.125, 0.125
2024, 0, 0, 0.25
2025, 1, 0, 0.25
2026, 1, 0.125, 0.25
2027, 0, 0.125, 0.25
2028, 0.5, 0, 0.125
2029, 1, 0.0625, 0.125
2030, 0.5, 0.125, 0.125
2031, 0, 0.0625, 0.125
2032, 0.5, 0, 0.25
2033, 1, 0.0625, 0.25
2034, 0.5, 0.125, 0.25
2035, 0, 0.0625, 0.25
2036, 0, 0, 0.1875
2037, 1, 0, 0.1875
2038, 1, 0.125, 0.1875
2039, 0, 0.125, 0.1875
2040, 0, 0, 0.25
2041, 1, 0, 0.25
2042, 1, 0.125, 0.25
2043, 0, 0.125, 0.25
2044, 0, 0, 0.375
2045, 1, 0, 0.375
2046, 1, 0.125, 0.375
2047, 0, 0.125, 0.375
2048, 0.5, 0, 0.25
2049, 1, 0.0625, 0.25
2050, 0.5, 0.125, 0.25
2051, 0, 0.0625, 0.25
2052, 0.5, 0, 0.375
2053, 1, 0.0625, 0.375
2054, 0.5, 0.125, 0.375
2055, 0, 0.0625, 0.375
2056, 0, 0, 0.3125
2057, 1, 0, 0.3125
2058, 1, 0.125, 0.3125
2059, 0, 0.125, 0.3125
2060, 0, 0, 0.375
2061, 1, 0, 0.375
2062, 1, 0.125, 0.375
2063, 0, 0.125, 0.375
2064, 0, 0, 0.5
2065, 1, 0, 0.5
2066, 1, 0.125, 0.5
2067, 0, 0.125, 0.5
2068, 0.5, 0, 0.375
2069, 1, 0.0625, 0.375
2070, 0.5, 0.125, 0.375
2071, 0, 0.0625, 0.375
2072, 0.5, 0, 0.5
2073, 1, 0.0625, 0.5
2074, 0.5, 0.125, 0.5
2075, 0, 0.0625, 0.5
2076, 0, 0, 0.4375
2077, 1, 0, 0.4375
2078, 1, 0.125, 0.4375
2079, 0, 0.125, 0.4375
2080, 0, 0, 0.5
2081, 1, 0, 0.5
2082, 1, 0.125, 0.5
2083, 0, 0.125, 0.5
2084, 0, 0, 0.625
2085, 1, 0, 0.625
2086, 1, 0.125, 0.625
2087, 0, 0.125, 0.625
2088, 0.5, 0, 0.5
2089, 1, 0.0625, 0.5
2090, 0.5, 0.125, 0.5
2091, 0, 0.0625, 0.5
2092, 0.5, 0, 0.625
2093, 1, 0.0625, 0.625
2094, 0.5, 0.125, 0.625
2095, 0, 0.0625, 0.625
2096, 0, 0, 0.5625
2097, 1, 0, 0.5625
2098, 1, 0.125, 0.5625
2099, 0, 0.125, 0.5625
2100, 0, 0, 0.625
2101, 1, 0, 0.625
2102, 1, 0.125, 0.625
2103, 0, 0.125, 0.625
2104, 0, 0, 0.75
2105, 1, 0, 0.75
2106, 1, 0.125, 0.75
2107, 0, 0.125, 0.75
2108, 0.5, 0, 0.625
2109, 1, 0.0625, 0.625
2110, 0.5, 0.125, 0.625
2111, 0, 0.0625, 0.625
2112, 0.5, 0, 0.75
2113, 1, 0.0625, 0.75
2114, 0.5, 0.125, 0.75
2115, 0, 0.0625, 0.75
2116, 0, 0, 0.6875
2117, 1, 0, 0.6875
2118, 1, 0.125, 0.6875
2119, 0, 0.125, 0.6875
2120, 0, 0, 0.75
2121, 1, 0, 0.75
2122, 1, 0.125, 0.75
2123, 0, 0.125, 0.75
2124, 0, 0, 0.875
2125, 1, 0, 0.875
2126, 1, 0.125, 0.875
2127, 0, 0.125, 0.875
2128, 0.5, 0, 0.75
2129, 1, 0.0625, 0.75
2130, 0.5, 0.125, 0.75
2131, 0, 0.0625, 0.75
2132, 0.5, 0, 0.875
2133, 1, 0.0625, 0.875
2134, 0.5, 0.125, 0.875
2135, 0, 0.0625, 0.875
2136, 0, 0, 0.8125
2137, 1, 0, 0.8125
2138, 1, 0.125, 0.8125
2139, 0, 0.125, 0.8125
2140, 0, 0, 0.875
2141, 1, 0, 0.875
2142, 1, 0.125, 0.875
2143, 0, 0.125, 0.875
2144, 0, 0, 1
2145, 1, 0, 1
2146, 1, 0.125, 1
2147, 0, 0.125, 1
2148, 0.5, 0, 0.875
2149, 1, 0.0625, 0.875
2150, 0.5, 0.125, 0.875
2151, 0, 0.0625, 0.875
2152, 0.5, 0, 1
2153, 1, 0.0625, 1
2154, 0.5, 0.125, 1
2155, 0, 0.0625, 1
2156, 0, 0, 0.9375
2157, 1, 0, 0.9375
2158, 1, 0.125, 0.9375
2159, 0, 0.125, 0.9375
2160, 0, 0.125, 0
2161, 1, 0.125, 0
2162, 1, 0.25, 0
2163, 0, 0.25, 0
2164, 0, 0.125, 0.125
2165, 1, 0.125, 0.125
2166, 1, 0.25, 0.125
2167, 0, 0.25, 0.125
2168, 0.5, 0.125, 0
2169, 1, 0.1875, 0
2170, 0.5, 0.25, 0
2171, 0, 0.1875, 0
2172, 0.5, 0.125, 0.125
2173, 1, 0.1875, 0.125
2174, 0.5, 0.25, 0.125
2175, 0, 0.1875, 0.125
2176, 0, 0.125, 0.0625
2177, 1, 0.125, 0.0625
2178, 1, 0.25, 0.0625
2179, 0, 0.25, 0.0625
2180, 0, 0.125, 0.125
2181, 1, 0.125, 0.125
2182, 1, 0.25, 0.125
2183, 0, 0.25, 0.125
2184, 0, 0.125, 0.25
2185, 1, 0.125, 0.25
2186, 1, 0.25, 0.25
2187, 0, 0.25, 0.25
2188, 0.5, 0.125, 0.125
2189, 1, 0.1875, 0.125
2190, 0.5, 0.25, 0.125
2191, 0, 0.1875, 0.125
2192, 0.5, 0.125, 0.25
2193, 1, 0.1875, 0.25
2194, 0.5, 0.25, 0.25
2195, 0, 0.1875, 0.25
2196, 0, 0.125, 0.1875
2197, 1, 0.125, 0.1875
2198, 1, 0.25, 0.1875
2199, 0, 0.25, 0.1875
2200, 0, 0.125, 0.25
2201, 1, 0.125, 0.25
2202, 1, 0.25, 0.25
2203, 0, 0.25, 0.25
2204, 0, 0.125, 0.375
2205, 1, 0.125, 0.375
2206, 1, 0.25, 0.375
2207, 0, 0.25, 0.375
2208, 0.5, 0.125, 0.25
2209, 1, 0.1875, 0.25
2210, 0.5, 0.25, 0.25
2211, 0, 0.1875, 0.25
2212, 0.5, 0.125, 0.375
2213, 1, 0.1875, 0.375
2214, 0.5, 0.25, 0.375
2215, 0, 0.1875, 0.375
2216, 0, 0.125, 0.3125
2217, 1, 0.125, 0.3125
2218, 1, 0.25, 0.3125
2219, 0, 0.25, 0.3125
2220, 0, 0.125, 0.375
2221, 1, 0.125, 0.375
2222, 1, 0.25, 0.375
2223, 0, 0.25, 0.375
2224, 0, 0.125, 0.5
2225, 1, 0.125, 0.5
2226, 1, 0.25, 0.5
2227, 0, 0.25, 0.5
2228, 0.5, 0.125, 0.375
2229, 1, 0.1875, 0.375
2230, 0.5, 0.25, 0.375
2231, 0, 0.1875, 0.375
2232, 0.5, 0.125, 0.5
2233, 1, 0.1875, 0.5
2234, 0.5, 0.25, 0.5
2235, 0, 0.1875, 0.5
2236, 0, 0.125, 0.4375
2237, 1, 0.125, 0.4375
2238, 1, 0.25, 0.4375
2239, 0, 0.25, 0.4375
2240, 0, 0.125, 0.5
2241, 1, 0.125, 0.5
2242, 1, 0.25, 0.5
2243, 0, 0.25, 0.5
2244, 0, 0.125, 0.625
2245, 1, 0.125, 0.625
2246, 1, 0.25, 0.625
2247, 0, 0.25, 0.625
2248, 0.5, 0.125, 0.5
2249, 1, 0.1875, 0.5
2250, 0.5, 0.25, 0.5
2251, 0, 0.1875, 0.5
2252, 0.5, 0.125, 0.625
2253, 1, 0.1875, 0.625
2254, 0.5, 0.25, 0.625
2255, 0, 0.1875, 0.625
2256, 0, 0.125, 0.5625
2257, 1, 0.125, 0.5625
2258, 1, 0.25, 0.5625
2259, 0, 0.25, 0.5625
2260, 0, 0.125, 0.625
2261, 1, 0.125, 0.625
2262, 1, 0.25, 0.625
2263, 0, 0.25, 0.625
2264, 0, 0.125, 0.75
2265, 1, 0.125, 0.75
2266, 1, 0.25, 0.75
2267, 0, 0.25, 0.75
2268, 0.5, 0.125, 0.625
2269, 1, 0.1875, 0.625
2270, 0.5, 0.25, 0.625
2271, 0, 0.1875, 0.625
2272, 0.5, 0.125, 0.75
2273, 1, 0.1875, 0.75
2274, 0.5, 0.25, 0.75
2275, 0, 0.1875, 0.75
2276, 0, 0.125, 0.6875
2277, 1, 0.125, 0.6875
2278, 1, 0.25, 0.6875
2279, 0, 0.25, 0.6875
2280, 0, 0.125, 0.75
2281, 1, 0.125, 0.75
2282, 1, 0.25, 0.75
2283, 0, 0.25, 0.75
2284, 0, 0.125, 0.875
2285, 1, 0.125, 0.875
2286, 1, 0.25, 0.875
2287, 0, 0.25, 0.875
2288, 0.5, 0.125, 0.75
2289, 1, 0.1875, 0.75
2290, 0.5, 0.25, 0.75
2291, 0, 0.1875, 0.75
2292, 0.5, 0.125, 0.875
2293, 1, 0.1875, 0.875
2294, 0.5, 0.25, 0.875
2295, 0, 0.1875, 0.875
2296, 0, 0.125, 0.8125
2297, 1, 0.125, 0.8125
2298, 1, 0.25, 0.8125
2299, 0, 0.25, 0.8125
2300, 0, 0.125, 0.875
2301, 1, 0.125, 0.875
2302, 1, 0.25, 0.875
2303, 0, 0.25, 0.875
2304, 0, 0.125, 1
2305, 1, 0.125, 1
2306, 1, 0.25, 1
2307, 0, 0.25, 1
2308, 0.5, 0.125, 0.875
2309, 1, 0.1875, 0.875
2310, 0.5, 0.25, 0.875
2311, 0, 0.1875, 0.875
2312, 0.5, 0.125, 1
2313, 1, 0.1875, 1
2314, 0.5, 0.25, 1
2315, 0, 0.1875, 1
2316, 0, 0.125, 0.9375
2317, 1, 0.125, 0.9375
2318, 1, 0.25, 0.9375
2319, 0, 0.25, 0.9375
2320, 0, 0.25, 0
2321, 1, 0.25, 0
2322, 1, 0.375, 0
2323, 0, 0.375, 0
2324, 0, 0.25, 0.125
2325, 1, 0.25, 0.125
2326, 1, 0.375, 0.125
2327, 0, 0.375, 0.125
2328, 0.5, 0.25, 0
2329, 1, 0.3125, 0
2330, 0.5, 0.375, 0
2331, 0, 0.3125, 0
2332, 0.5, 0.25, 0.125
2333, 1, 0.3125, 0.125
2334, 0.5, 0.375, 0.125
2335, 0, 0.3125, 0.125
2336, 0, 0.25, 0.0625
2337, 1, 0.25, 0.0625
2338, 1, 0.375, 0.0625
2339, 0, 0.375, 0.0625
2340, 0, 0.25, 0.125
2341, 1, 0.25, 0.125
2342, 1, 0.375, 0.125
2343, 0, 0.375, 0.125
2344, 0, 0.25, 0.25
2345, 1, 0.25, 0.25
2346, 1, 0.375, 0.25
2347, 0, 0.375, 0.25
2348, 0.5, 0.25, 0.125
2349, 1, 0.3125, 0.125
2350, 0.5, 0.375, 0.125
2351, 0, 0.3125, 0.125
2352, 0.5, 0.25, 0.25
2353, 1, 0.3125, 0.25
2354, 0.5, 0.375, 0.25
2355, 0, 0.3125, 0.25
2356, 0, 0.25, 0.1875
2357, 1, 0.25, 0.1875
2358, 1, 0.375, 0.1875
2359, 0, 0.375, 0.1875
2360, 0, 0.25, 0.25
2361, 1, 0.25, 0.25
2362, 1, 0.375, 0.25
2363, 0, 0.375, 0.25
2364, 0, 0.25, 0.375
2365, 1, 0.25, 0.375
2366, 1, 0.375, 0.375
2367, 0, 0.375, 0.375
2368, 0.5, 0.25, 0.25
2369, 1, 0.3125, 0.25
2370, 0.5, 0.375, 0.25
2371, 0, 0.3125, 0.25
2372, 0.5, 0.25, 0.375
2373, 1, 0.3125, 0.375
2374, 0.5, 0.375, 0.375
2375, 0, 0.3125, 0.375
2376, 0, 0.25, 0.3125
2377, 1, 0.25, 0.3125
2378, 1, 0.375, 0.3125
2379, 0, 0.375, 0.3125
2380, 0, 0.25, 0.375
2381, 1, 0.25, 0.375
2382, 1, 0.375, 0.375
2383, 0, 0.375, 0.375
2384, 0, 0.25, 0.5
2385, 1, 0.25, 0.5
2386, 1, 0.375, 0.5
2387, 0, 0.375, 0.5
2388, 0.5, 0.25, 0.375
2389, 1, 0.3125, 0.375
2390, 0.5, 0.375, 0.375
2391, 0, 0.3125, 0.375
2392, 0.5, 0.25, 0.5
2393, 1, 0.3125, 0.5
2394, 0.5, 0.375, 0.5
2395, 0, 0.3125, 0.5
2396, 0, 0.25, 0.4375
2397, 1, 0.25, 0.4375
2398, 1, 0.375, 0.4375
2399, 0, 0.375, 0.4375
2400, 0, 0.25, 0.5
2401, 1, 0.25, 0.5
2402, 1, 0.375, 0.5
2403, 0, 0.375, 0.5
2404, 0, 0.25, 0.625
2405, 1, 0.25, 0.625
2406, 1, 0.375, 0.625
2407, 0, 0.375, 0.625
2408, 0.5, 0.25, 0.5
2409, 1, 0.3125, 0.5
2410, 0.5, 0.375, 0.5
2411, 0, 0.3125, 0.5
2412, 0.5, 0.25, 0.625
2413, 1, 0.3125, 0.625
2414, 0.5, 0.375, 0.625
2415, 0, 0.3125, 0.625
2416, 0, 0.25, 0.5625
2417, 1, 0.25, 0.5625
2418, 1, 0.375, 0.5625
2419, 0, 0.375, 0.5625
2420, 0, 0.25, 0.625
2421, 1, 0.25, 0.625
2422, 1, 0.375, 0.625
2423, 0, 0.375, 0.625
2424, 0, 0.25, 0.75
2425, 1, 0.25, 0.75
2426, 1, 0.375, 0.75
2427, 0, 0.375, 0.75
2428, 0.5, 0.25, 0.625
2429, 1, 0.3125, 0.625
2430, 0.5, 0.375, 0.625
2431, 0, 0.3125, 0.625
2432, 0.5, 0.25, 0.75
2433, 1, 0.3125, 0.75
2434, 0.5, 0.375, 0.75
2435, 0, 0.3125, 0.75
2436, 0, 0.25, 0.6875
2437, 1, 0.25, 0.6875
2438, 1, 0.375, 0.6875
2439, 0, 0.375, 0.6875
2440, 0, 0.25, 0.75
2441, 1, 0.25, 0.75
2442, 1, 0.375, 0.75
2443, 0, 0.375, 0.75
2444, 0, 0.25, 0.875
2445, 1, 0.25, 0.875
2446, 1, 0.375, 0.875
2447, 0, 0.375, 0.875
2448, 0.5, 0.25, 0.75
2449, 1, 0.3125, 0.75
2450, 0.5, 0.375, 0.75
2451, 0, 0.3125, 0.75
2452, 0.5, 0.25, 0.875
2453, 1, 0.3125, 0.875
2454, 0.5, 0.375, 0.875
2455, 0, 0.3125, 0.875
2456, 0, 0.25, 0.8125
2457, 1, 0.25, 0.8125
2458, 1, 0.375, 0.8125
2459, 0, 0.375, 0.8125
2460, 0, 0.25, 0.875
2461, 1, 0.25, 0.875
2462, 1, 0.375, 0.875
2463, 0, 0.375, 0.875
2464, 0, 0.25, 1
2465, 1, 0.25, 1
2466, 1, 0.375, 1
2467, 0, 0.375, 1
2468, 0.5, 0.25, 0.875
2469, 1, 0.3125, 0.875
2470, 0.5, 0.375, 0.875
2471, 0, 0.3125, 0.875
2472, 0.5, 0.25, 1
2473, 1, 0.3125, 1
2474, 0.5, 0.375, 1
2475, 0, 0.3125, 1
2476, 0, 0.25, 0.9375
2477, 1, 0.25, 0.9375
2478, 1, 0.375, 0.9375
2479, 0, 0.375, 0.9375
2480, 0, 0.375, 0
2481, 1, 0.375, 0
2482, 1, 0.5, 0
2483, 0, 0.5, 0
2484, 0, 0.375, 0.125
2485, 1, 0.375, 0.125
2486, 1, 0.5, 0.125
2487, 0, 0.5, 0.125
2488, 0.5, 0.375, 0
2489, 1, 0.4375, 0
2490, 0.5, 0.5, 0
2491, 0, 0.4375, 0
2492, 0.5, 0.375, 0.125
2493, 1, 0.4375, 0.125
2494, 0.5, 0.5, 0.125
2495, 0, 0.4375, 0.125
2496, 0, 0.375, 0.0625
2497, 1, 0.375, 0.0625
2498, 1, 0.5, 0.0625
2499, 0, 0.5, 0.0625
2500, 0, 0.375, 0.125
2501, 1, 0.375, 0.125
2502, 1, 0.5, 0.125
2503, 0, 0.5, 0.125
2504, 0, 0.375, 0.25
2505, 1, 0.375, 0.25
2506, 1, 0.5, 0.25
2507, 0, 0.5, 0.25
2508, 0.5, 0.375, 0.125
2509, 1, 0.4375, 0.125
2510, 0.5, 0.5, 0.125
2511, 0, 0.4375, 0.125
2512, 0.5, 0.375, 0.25
2513, 1, 0.4375, 0.25
2514, 0.5, 0.5, 0.25
2515, 0, 0.4375, 0.25
2516, 0, 0.375, 0.1875
2517, 1, 0.375, 0.1875
2518, 1, 0.5, 0.1875
2519, 0, 0.5, 0.1875
2520, 0, 0.375, 0.25
2521, 1, 0.375, 0.25
2522, 1, 0.5, 0.25
2523, 0, 0.5, 0.25
2524, 0, 0.375, 0.375
2525, 1, 0.375, 0.375
2526, 1, 0.5, 0.375
2527, 0, 0.5, 0.375
2528, 0.5, 0.375, 0.25
2529, 1, 0.4375, 0.25
2530, 0.5, 0.5, 0.25
2531, 0, 0.4375, 0.25
2532, 0.5, 0.375, 0.375
2533, 1, 0.4375, 0.375
2534, 0.5, 0.5, 0.375
2535, 0, 0.4375, 0.375
2536, 0, 0.375, 0.3125
2537, 1, 0.375, 0.3125
2538, 1, 0.5, 0.3125
2539, 0, 0.5, 0.3125
2540, 0, 0.375, 0.375
2541, 1, 0.375, 0.375
2542, 1, 0.5, 0.375
2543, 0, 0.5, 0.375
2544, 0, 0.375, 0.5
2545, 1, 0.375, 0.5
2546, 1, 0.5, 0.5
2547, 0, 0.5, 0.5
2548, 0.5, 0.375, 0.375
2549, 1, 0.4375, 0.375
2550, 0.5, 0.5, 0.375
2551, 0, 0.4375, 0.375
2552, 0.5, 0.375, 0.5
2553, 1, 0.4375, 0.5
2554, 0.5, 0.5, 0.5
2555, 0, 0.4375, 0.5
2556, 0, 0.375, 0.4375
2557, 1, 0.375, 0.4375
2558, 1, 0.5, 0.4375
2559, 0, 0.5, 0.4375
2560, 0, 0.375, 0.5
2561, 1, 0.375, 0.5
2562, 1, 0.5, 0.5
2563, 0, 0.5, 0.5
2564, 0, 0.375, 0.625
2565, 1, 0.375, 0.625
2566, 1, 0.5, 0.625
2567, 0, 0.5, 0.625
2568, 0.5, 0.375, 0.5
2569, 1, 0.4375, 0.5
2570, 0.5, 0.5, 0.5
2571, 0, 0.4375, 0.5
2572, 0.5, 0.375, 0.625
2573, 1, 0.4375, 0.625
2574, 0.5, 0.5, 0.625
2575, 0, 0.4375, 0.625
2576, 0, 0.375, 0.5625
2577, 1, 0.375, 0.5625
2578, 1, 0.5, 0.5625
2579, 0, 0.5, 0.5625
2580, 0, 0.375, 0.625
2581, 1, 0.375, 0.625
2582, 1, 0.5, 0.625
2583, 0, 0.5, 0.625
2584, 0, 0.375, 0.75
2585, 1, 0.375, 0.75
2586, 1, 0.5, 0.75
2587, 0, 0.5, 0.75
2588, 0.5, 0.375, 0.625
2589, 1, 0.4375, 0.625
2590, 0.5, 0.5, 0.625
2591, 0, 0.4375, 0.625
2592, 0.5, 0.375, 0.75
2593, 1, 0.4375, 0.75
2594, 0.5, 0.5, 0.75
2595, 0, 0.4375, 0.75
2596, 0, 0.375, 0.6875
2597, 1, 0.375, 0.6875
2598, 1, 0.5, 0.6875
2599, 0, 0.5, 0.6875
2600, 0, 0.375, 0.75
2601, 1, 0.375, 0.75
2602, 1, 0.5, 0.75
2603, 0, 0.5, 0.75
2604, 0, 0.375, 0.875
2605, 1, 0.375, 0.875
2606, 1, 0.5, 0.875
2607, 0, 0.5, 0.875
2608, 0.5, 0.375, 0.75
2609, 1, 0.4375, 0.75
2610, 0.5, 0.5, 0.75
2611, 0, 0.4375, 0.75
2612, 0.5, 0.375, 0.875
2613, 1, 0.4375, 0.875
2614, 0.5, 0.5, 0.875
2615, 0, 0.4375, 0.875
2616, 0, 0.375, 0.8125
2617, 1, 0.375, 0.8125
2618, 1, 0.5, 0.8125
2619, 0, 0.5, 0.8125
2620, 0, 0.375, 0.875
2621, 1, 0.375, 0.875
2622, 1, 0.5, 0.875
2623, 0, 0.5, 0.875
2624, 0, 0.375, 1
2625, 1, 0.375, 1
2626, 1, 0.5, 1
2627, 0, 0.5, 1
2628, 0.5, 0.375, 0.875
2629, 1, 0.4375, 0.875
2630, 0.5, 0.5, 0.875
2631, 0, 0.4375, 0.875
2632, 0.5, 0.375, 1
2633, 1, 0.4375, 1
2634, 0.5, 0.5, 1
2635, 0, 0.4375, 1
2636, 0, 0.375, 0.9375
2637, 1, 0.375, 0.9375
2638, 1, 0.5, 0.9375
2639, 0, 0.5, 0.9375
2640, 0, 0.5, 0
2641, 1, 0.5, 0
2642, 1, 0.625, 0
2643, 0, 0.625, 0
2644, 0, 0.5, 0.125
2645, 1, 0.5, 0.125
2646, 1, 0.625, 0.125
2647, 0, 0.625, 0.125
2648, 0.5, 0.5, 0
2649, 1, 0.5625, 0
2650, 0.5, 0.625, 0
2651, 0, 0.5625, 0
2652, 0.5, 0.5, 0.125
2653, 1, 0.5625, 0.125
2654, 0.5, 0.625, 0.125
2655, 0, 0.5625, 0.125
2656, 0, 0.5, 0.0625
2657, 1, 0.5, 0.0625
2658, 1, 0.625, 0.0625
2659, 0, 0.625, 0.0625
2660, 0, 0.5, 0.125
2661, 1, 0.5, 0.125
2662, 1, 0.625, 0.125
2663, 0, 0.625, 0.125
2664, 0, 0.5, 0.25
2665, 1, 0.5, 0.25
2666, 1, 0.625, 0.25
2667, 0, 0.625, 0.25
2668, 0.5, 0.5, 0.125
2669, 1, 0.5625, 0.125
2670, 0.5, 0.625, 0.125
2671, 0, 0.5625, 0.125
2672, 0.5, 0.5, 0.25
2673, 1, 0.5625, 0.25
2674, 0.5, 0.625, 0.25
2675, 0, 0.5625, 0.25
2676, 0, 0.5, 0.1875
2677, 1, 0.5, 0.1875
2678, 1, 0.625, 0.1875
2679, 0, 0.625, 0.1875
2680, 0, 0.5, 0.25
2681, 1, 0.5, 0.25
2682, 1, 0.625, 0.25
2683, 0, 0.625, 0.25
2684, 0, 0.5, 0.375
2685, 1, 0.5, 0.375
2686, 1, 0.625, 0.375
2687, 0, 0.625, 0.375
2688, 0.5, 0.5, 0.25
2689, 1, 0.5625, 0.25
2690, 0.5, 0.625, 0.25
2691, 0, 0.5625, 0.25
2692, 0.5, 0.5, 0.375
2693, 1, 0.5625, 0.375
2694, 0.5, 0.625, 0.375
2695, 0, 0.5625, 0.375
2696, 0, 0.5, 0.3125
2697, 1, 0.5, 0.3125
2698, 1, 0.625, 0.3125
2699, 0, 0.625, 0.3125
2700, 0, 0.5, 0.375
2701, 1, 0.5, 0.375
2702, 1, 0.625, 0.375
2703, 0, 0.625, 0.375
2704, 0, 0.5, 0.5
2705, 1, 0.5, 0.5
2706, 1, 0.625, 0.5
2707, 0, 0.625, 0.5
2708, 0.5, 0.5, 0.375
2709, 1, 0.5625, 0.375
2710, 0.5, 0.625, 0.375
2711, 0, 0.5625, 0.375
2712, 0.5, 0.5, 0.5
2713, 1, 0.5625, 0.5
2714, 0.5, 0.625, 0.5
2715, 0, 0.5625, 0.5
2716, 0, 0.5, 0.4375
2717, 1, 0.5, 0.4375
2718, 1, 0.625, 0.4375
2719, 0, 0.625, 0.4375
2720, 0, 0.5, 0.5
2721, 1, 0.5, 0.5
2722, 1, 0.625, 0.5
2723, 0, 0.625, 0.5
2724, 0, 0.5, 0.625
2725, 1, 0.5, 0.625
2726, 1, 0.625, 0.625
2727, 0, 0.625, 0.625
2728, 0.5, 0.5, 0.5
2729, 1, 0.5625, 0.5
2730, 0.5, 0.625, 0.5
2731, 0, 0.5625, 0.5
2732, 0.5, 0.5, 0.625
2733, 1, 0.5625, 0.625
2734, 0.5, 0.625, 0.625
2735, 0, 0.5625, 0.625
2736, 0, 0.5, 0.5625
2737, 1, 0.5, 0.5625
2738, 1, 0.625, 0.5625
2739, 0, 0.625, 0.5625
2740, 0, 0.5, 0.625
2741, 1, 0.5, 0.625
2742, 1, 0.625, 0.625
2743, 0, 0.625, 0.625
2744, 0, 0.5, 0.75
2745, 1, 0.5, 0.75
2746, 1, 0.625, 0.75
2747, 0, 0.625, 0.75
2748, 0.5, 0.5, 0.625
2749, 1, 0.5625, 0.625
2750, 0.5, 0.625, 0.625
2751, 0, 0.5625, 0.625
2752, 0.5, 0.5, 0.75
2753, 1, 0.5625, 0.75
2754, 0.5, 0.625, 0.75
2755, 0, 0.5625, 0.75
2756, 0, 0.5, 0.6875
2757, 1, 0.5, 0.6875
2758, 1, 0.625, 0.6875
2759, 0, 0.625, 0.6875
2760, 0, 0.5, 0.75
2761, 1, 0.5, 0.75
2762, 1, 0.625, 0.75
2763, 0, 0.625, 0.75
2764, 0, 0.5, 0.875
2765, 1, 0.5, 0.875
2766, 1, 0.625, 0.875
2767, 0, 0.625, 0.875
2768, 0.5, 0.5, 0.75
2769, 1, 0.5625, 0.75
2770, 0.5, 0.625, 0.75
2771, 0, 0.5625, 0.75
2772, 0.5, 0.5, 0.875
2773, 1, 0.5625, 0.875
2774, 0.5, 0.625, 0.875
2775, 0, 0.5625, 0.875
2776, 0, 0.5, 0.8125
2777, 1, 0.5, 0.8125
2778, 1, 0.625, 0.8125
2779, 0, 0.625, 0.8125
2780, 0, 0.5, 0.875
2781, 1, 0.5, 0.875
2782, 1, 0.625, 0.875
2783, 0, 0.625, 0.875
2784, 0, 0.5, 1
2785, 1, 0.5, 1
2786, 1, 0.625, 1
2787, 0, 0.625, 1
2788, 0.5, 0.5, 0.875
2789, 1, 0.5625, 0.875
2790, 0.5, 0.625, 0.875
2791, 0, 0.5625, 0.875
2792, 0.5, 0.5, 1
2793, 1, 0.5625, 1
2794, 0.5, 0.625, 1
2795, 0, 0.5625, 1
2796, 0, 0.5, 0.9375
2797, 1, 0.5, 0.9375
2798, 1, 0.625, 0.9375
2799, 0, 0.625, 0.9375
2800, 0, 0.625, 0
2801, 1, 0.625, 0
2802, 1, 0.75, 0
2803, 0, 0.75, 0
2804, 0, 0.625, 0.125
2805, 1, 0.625, 0.125
2806, 1, 0.75, 0.125
2807, 0, 0.75, 0.125
2808, 0.5, 0.625, 0
2809, 1, 0.6875, 0
2810, 0.5, 0.75, 0
2811, 0, 0.6875, 0
2812, 0.5, 0.625, 0.125
2813, 1, 0.6875, 0.125
2814, 0.5, 0.75, 0.125
2815, 0, 0.6875, 0.125
2816, 0, 0.625, 0.0625
2817, 1, 0.625, 0.0625
2818, 1, 0.75, 0.0625
2819, 0, 0.75, 0.0625
2820, 0, 0.625, 0.125
2821, 1, 0.625, 0.125
2822, 1, 0.75, 0.125
2823, 0, 0.75, 0.125
2824, 0, 0.625, 0.25
2825, 1, 0.625, 0.25
2826, 1, 0.75, 0.25
2827, 0, 0.75, 0.25
2828, 0.5, 0.625, 0.125
2829, 1, 0.6875, 0.125
2830, 0.5, 0.75, 0.125
2831, 0, 0.6875, 0.125
2832, 0.5, 0.625, 0.25
2833, 1, 0.6875, 0.25
2834, 0.5, 0.75, 0.25
2835, 0, 0.6875, 0.25
2836, 0, 0.625, 0.1875
2837, 1, 0.625, 0.1875
2838, 1, 0.75, 0.1875
2839, 0, 0.75, 0.1875
2840, 0, 0.625, 0.25
2841, 1, 0.625, 0.25
2842, 1, 0.75, 0.25
2843, 0, 0.75, 0.25
2844, 0, 0.625, 0.375
2845, 1, 0.625, 0.375
2846, 1, 0.75, 0.375
2847, 0, 0.75, 0.375
2848, 0.5, 0.625, 0.25
2849, 1, 0.6875, 0.25
2850, 0.5, 0.75, 0.25
2851, 0, 0.6875, 0.25
2852, 0.5, 0.625, 0.375
2853, 1, 0.6875, 0.375
2854, 0.5, 0.75, 0.375
2855, 0, 0.6875, 0.375
2856, 0, 0.625, 0.3125
2857, 1, 0.625, 0.3125
2858, 1, 0.75, 0.3125
2859, 0, 0.75, 0.3125
2860, 0, 0.625, 0.375
2861, 1, 0.625, 0.375
2862, 1, 0.75, 0.375
2863, 0, 0.75, 0.375
2864, 0, 0.625, 0.5
2865, 1, 0.625, 0.5
2866, 1, 0.75, 0.5
2867, 0, 0.75, 0.5
2868, 0.5, 0.625, 0.375
2869, 1, 0.6875, 0.375
2870, 0.5, 0.75, 0.375
2871, 0, 0.6875, 0.375
2872, 0.5, 0.625, 0.5
2873, 1, 0.6875, 0.5
2874, 0.5, 0.75, 0.5
2875, 0, 0.6875, 0.5
2876, 0, 0.625, 0.4375
2877, 1, 0.625, 0.4375
2878, 1, 0.75, 0.4375
2879, 0, 0.75, 0.4375
2880, 0, 0.625, 0.5
2881, 1, 0.625, 0.5
2882, 1, 0.75, 0.5
2883, 0, 0.75, 0.5
2884, 0, 0.625, 0.625
2885, 1, 0.625, 0.625
2886, 1, 0.75, 0.625
2887, 0, 0.75, 0.625
2888, 0.5, 0.625, 0.5
2889, 1, 0.6875, 0.5
2890, 0.5, 0.75, 0.5
2891, 0, 0.6875, 0.5
2892, 0.5, 0.625, 0.625
2893, 1, 0.6875, 0.625
2894, 0.5, 0.75, 0.625
2895, 0, 0.6875, 0.625
2896, 0, 0.625, 0.5625
2897, 1, 0.625, 0.5625
2898, 1, 0.75, 0.5625
2899, 0, 0.75, 0.5625
2900, 0, 0.625, 0.625
2901, 1, 0.625, 0.625
2902, 1, 0.75, 0.625
2903, 0, 0.75, 0.625
2904, 0, 0.625, 0.75
2905, 1, 0.625, 0.75
2906, 1, 0.75, 0.75
2907, 0, 0.75, 0.75
2908, 0.5, 0.625, 0.625
2909, 1, 0.6875, 0.625
2910, 0.5, 0.75, 0.625
2911, 0, 0.6875, 0.625
2912, 0.5, 0.625, 0.75
2913, 1, 0.6875, 0.75
2914, 0.5, 0.75, 0.75
2915, 0, 0.6875, 0.75
2916, 0, 0.625, 0.6875
2917, 1, 0.625, 0.6875
2918, 1, 0.75, 0.6875
2919, 0, 0.75, 0.6875
2920, 0, 0.625, 0.75
2921, 1, 0.625, 0.75
2922, 1, 0.75, 0.75
2923, 0, 0.75, 0.75
2924, 0, 0.625, 0.875
2925, 1, 0.625, 0.875
2926, 1, 0.75, 0.875
2927, 0, 0.75, 0.875
2928, 0.5, 0.625, 0.75
2929, 1, 0.6875, 0.75
2930, 0.5, 0.75, 0.75
2931, 0, 0.6875, 0.75
2932, 0.5, 0.625, 0.875
2933, 1, 0.6875, 0.875
2934, 0.5, 0.75, 0.875
2935, 0, 0.6875, 0.875
2936, 0, 0.625, 0.8125
2937, 1, 0.625, 0.8125
2938, 1, 0.75, 0.8125
2939, 0, 0.75, 0.8125
2940, 0, 0.625, 0.875
2941, 1, 0.625, 0.875
2942, 1, 0.75, 0.875
2943, 0, 0.75, 0.875
2944, 0, 0.625, 1
2945, 1, 0.625, 1
2946, 1, 0.75, 1
2947, 0, 0.75, 1
2948, 0.5, 0.625, 0.875
2949, 1, 0.6875, 0.875
2950, 0.5, 0.75, 0.875
2951, 0, 0.6875, 0.875
2952, 0.5, 0.625, 1
2953, 1, 0.6875, 1
2954, 0.5, 0.75, 1
2955, 0, 0.6875, 1
2956, 0, 0.625, 0.9375
2957, 1, 0.625, 0.9375
2958, 1, 0.75, 0.9375
2959, 0, 0.75, 0.9375
2960, 0, 0.75, 0
2961, 1, 0.75, 0
2962, 1, 0.875, 0
2963, 0, 0.875, 0
2964, 0, 0.75, 0.125
2965, 1, 0.75, 0.125
2966, 1, 0.875, 0.125
2967, 0, 0.875, 0.125
2968, 0.5, 0.75, 0
2969, 1, 0.8125, 0
2970, 0.5, 0.875, 0
2971, 0, 0.8125, 0
2972, 0.5, 0.75, 0.125
2973, 1, 0.8125, 0.125
2974, 0.5, 0.875, 0.125
2975, 0, 0.8125, 0.125
2976, 0, 0.75, 0.0625
2977, 1, 0.75, 0.0625
2978, 1, 0.875, 0.0625
2979, 0, 0.875, 0.0625
2980, 0, 0.75, 0.125
2981, 1, 0.75, 0.125
2982, 1, 0.875, 0.125
2983, 0, 0.875, 0.125
2984, 0, 0.75, 0.25
2985, 1, 0.75, 0.25
2986, 1, 0.875, 0.25
2987, 0, 0.875, 0.25
2988, 0.5, 0.75, 0.125
2989, 1, 0.8125, 0.125
2990, 0.5, 0.875, 0.125
2991, 0, 0.8125, 0.125
2992, 0.5, 0.75, 0.25
2993, 1, 0.8125, 0.25
2994, 0.5, 0.875, 0.25
2995, 0, 0.8125, 0.25
2996, 0, 0.75, 0.1875
2997, 1, 0.75, 0.1875
2998, 1, 0.875, 0.1875
2999, 0, 0.875, 0.1875
3000, 0, 0.75, 0.25
3001, 1, 0.75, 0.25
3002, 1, 0.875, 0.25
3003, 0, 0.875, 0.25
3004, 0, 0.75, 0.375
3005, 1, 0.75, 0.375
3006, 1, 0.875, 0.375
3007, 0, 0.875, 0.375
3008, 0.5, 0.75, 0.25
3009, 1, 0.8125, 0.25
3010, 0.5, 0.875, 0.25
3011, 0, 0.8125, 0.25
3012, 0.5, 0.75, 0.375
3013, 1, 0.8125, 0.375
3014, 0.5, 0.875, 0.375
3015, 0, 0.8125, 0.375
3016, 0, 0.75, 0.3125
3017, 1, 0.75, 0.3125
3018, 1, 0.875, 0.3125
3019, 0, 0.875, 0.3125
3020, 0, 0.75, 0.375
3021, 1, 0.75, 0.375
3022, 1, 0.875, 0.375
3023, 0, 0.875, 0.375
3024, 0, 0.75, 0.5
3025, 1, 0.75, 0.5
3026, 1, 0.875, 0.5
3027, 0, 0.875, 0.5
3028, 0.5, 0.75, 0.375
3029, 1, 0.8125, 0.375
3030, 0.5, 0.875, 0.375
3031, 0, 0.8125, 0.375
3032, 0.5, 0.75, 0.5
3033, 1, 0.8125, 0.5
3034, 0.5, 0.875, 0.5
3035, 0, 0.8125, 0.5
3036, 0, 0.75, 0.4375
3037, 1, 0.75, 0.4375
3038, 1, 0.875, 0.4375
3039, 0, 0.875, 0.4375
3040, 0, 0.75, 0.5
3041, 1, 0.75, 0.5
3042, 1, 0.875, 0.5
3043, 0, 0.875, 0.5
3044, 0, 0.75, 0.625
3045, 1, 0.75, 0.625
3046, 1, 0.875, 0.625
3047, 0, 0.875, 0.625
3048, 0.5, 0.75, 0.5
3049, 1, 0.8125, 0.5
3050, 0.5, 0.875, 0.5
3051, 0, 0.8125, 0.5
3052, 0.5, 0.75, 0.625
3053, 1, 0.8125, 0.625
3054, 0.5, 0.875, 0.625
3055, 0, 0.8125, 0.625
3056, 0, 0.75, 0.5625
3057, 1, 0.75, 0.5625
3058, 1, 0.875, 0.5625
3059, 0, 0.875, 0.5625
3060, 0, 0.75, 0.625
3061, 1, 0.75, 0.625
3062, 1, 0.875, 0.625
3063, 0, 0.875, 0.625
3064, 0, 0.75, 0.75
3065, 1, 0.75, 0.75
3066, 1, 0.875, 0.75
3067, 0, 0.875, 0.75
3068, 0.5, 0.75, 0.625
3069, 1, 0.8125, 0.625
3070, 0.5, 0.875, 0.625
3071, 0, 0.8125, 0.625
3072, 0.5, 0.75, 0.75
3073, 1, 0.8125, 0.75
3074, 0.5, 0.875, 0.75
3075, 0, 0.8125, 0.75
3076, 0, 0.75, 0.6875
3077, 1, 0.75, 0.6875
3078, 1, 0.875, 0.6875
3079, 0, 0.875, 0.6875
3080, 0, 0.75, 0.75
3081, 1, 0.75, 0.75
3082, 1, 0.875, 0.75
3083, 0, 0.875, 0.75
3084, 0, 0.75, 0.875
3085, 1, 0.75, 0.875
3086, 1, 0.875, 0.875
3087, 0, 0.875, 0.875
3088, 0.5, 0.75, 0.75
3089, 1, 0.8125, 0.75
3090, 0.5, 0.875, 0.75
3091, 0, 0.8125, 0.75
3092, 0.5, 0.75, 0.875
3093, 1, 0.8125, 0.875
3094, 0.5, 0.875, 0.875
3095, 0, 0.8125, 0.875
3096, 0, 0.75, 0.8125
3097, 1, 0.75, 0.8125
3098, 1, 0.875, 0.8125
3099, 0, 0.875, 0.8125
3100, 0, 0.75, 0.875
3101, 1, 0.75, 0.875
3102, 1, 0.875, 0.875
3103, 0, 0.875, 0.875
3104, 0, 0.75, 1
3105, 1, 0.75, 1
3106, 1, 0.875, 1
3107, 0, 0.875, 1
3108, 0.5, 0.75, 0.875
3109, 1, 0.8125, 0.875
3110, 0.5, 0.875, 0.875
3111, 0, 0.8125, 0.875
3112, 0.5, 0.75, 1
3113, 1, 0.8125, 1
3114, 0.5, 0.875, 1
3115, 0, 0.8125, 1
3116, 0, 0.75, 0.9375
3117, 1, 0.75, 0.9375
3118, 1, 0.875, 0.9375
3119, 0, 0.875, 0.9375
3120, 0, 0.875, 0
3121, 1, 0.875, 0
3122, 1, 1, 0
3123, 0, 1, 0
3124, 0, 0.875, 0.125
3125, 1, 0.875, 0.125
3126, 1, 1, 0.125
3127, 0, 1, 0.125
3128, 0.5, 0.875, 0
3129, 1, 0.9375, 0
3130, 0.5, 1, 0
3131, 0, 0.9375, 0
3132, 0.5, 0.875, 0.125
3133, 1, 0.9375, 0.125
3134, 0.5, 1, 0.125
3135, 0, 0.9375, 0.125
3136, 0, 0.875, 0.0625
3137, 1, 0.875, 0.0625
3138, 1, 1, 0.0625
3139, 0, 1, 0.0625
3140, 0, 0.875, 0.125
3141, 1, 0.875, 0.125
3142, 1, 1, 0.125
3143, 0, 1, 0.125
3144, 0, 0.875, 0.25
3145, 1, 0.875, 0.25
3146, 1, 1, 0.25
3147, 0, 1, 0.25
3148, 0.5, 0.875, 0.125
3149, 1, 0.9375, 0.125
3150, 0.5, 1, 0.125
3151, 0, 0.9375, 0.125
3152, 0.5, 0.875, 0.25
3153, 1, 0.9375, 0.25
3154, 0.5, 1, 0.25
3155, 0, 0.9375, 0.25
3156, 0, 0.875, 0.1875
3157, 1, 0.875, 0.1875
3158, 1, 1, 0.1875
3159, 0, 1, 0.1875
3160, 0, 0.875, 0.25
3161, 1, 0.875, 0.25
3162, 1, 1, 0.25
3163, 0, 1, 0.25
3164, 0, 0.875, 0.375
3165, 1, 0.875, 0.375
3166, 1, 1, 0.375
3167, 0, 1, 0.375
3168, 0.5, 0.875, 0.25
3169, 1, 0.9375, 0.25
3170, 0.5, 1, 0.25
3171, 0, 0.9375, 0.25
3172, 0.5, 0.875, 0.375
3173, 1, 0.9375, 0.375
3174, 0.5, 1, 0.375
3175, 0, 0.9375, 0.375
3176, 0, 0.875, 0.3125
3177, 1, 0.875, 0.3125
3178, 1, 1, 0.3125
3179, 0, 1, 0.3125
3180, 0, 0.875, 0.375
3181, 1, 0.875, 0.375
3182, 1, 1, 0.375
3183, 0, 1, 0.375
3184, 0, 0.875, 0.5
3185, 1, 0.875, 0.5
3186, 1, 1, 0.5
3187, 0, 1, 0.5
3188, 0.5, 0.875, 0.375
3189, 1, 0.9375, 0.375
3190, 0.5, 1, 0.375
3191, 0, 0.9375, 0.375
3192, 0.5, 0.875, 0.5
3193, 1, 0.9375, 0.5
3194, 0.5, 1, 0.5
3195, 0, 0.9375, 0.5
3196, 0, 0.875, 0.4375
3197, 1, 0.875, 0.4375
3198, 1, 1, 0.4375
3199, 0, 1, 0.4375
3200, 0, 0.875, 0.5
3201, 1, 0.875, 0.5
3202, 1, 1, 0.5
3203, 0, 1, 0.5
3204, 0, 0.875, 0.625
3205, 1, 0.875, 0.625
3206, 1, 1, 0.625
3207, 0, 1, 0.625
3208, 0.5, 0.875, 0.5
3209, 1, 0.9375, 0.5
3210, 0.5, 1, 0.5
3211, 0, 0.9375, 0.5
3212, 0.5, 0.875, 0.625
3213, 1, 0.9375, 0.625
3214, 0.5, 1, 0.625
3215, 0, 0.9375, 0.625
3216, 0, 0.875, 0.5625
3217, 1, 0.875, 0.5625
3218, 1, 1, 0.5625
3219, 0, 1, 0.5625
3220, 0, 0.875, 0.625
3221, 1, 0.875, 0.625
3222, 1, 1, 0.625
3223, 0, 1, 0.625
3224, 0, 0.875, 0.75
3225, 1, 0.875, 0.75
3226, 1, 1, 0.75
3227, 0, 1, 0.75
3228, 0.5, 0.875, 0.625
3229, 1, 0.9375, 0.625
3230, 0.5, 1, 0.625
3231, 0, 0.9375, 0.625
3232, 0.5, 0.875, 0.75
3233, 1, 0.9375, 0.75
3234, 0.5, 1, 0.75
3235, 0, 0.9375, 0.75
3236, 0, 0.875, 0.6875
3237, 1, 0.875, 0.6875
3238, 1, 1, 0.6875
3239, 0, 1, 0.6875
3240, 0, 0.875, 0.75
3241, 1, 0.875, 0.75
3242, 1, 1, 0.75
3243, 0, 1, 0.75
3244, 0, 0.875, 0.875
3245, 1, 0.875, 0.875
3246, 1, 1, 0.875
3247, 0, 1, 0.875
3248, 0.5, 0.875, 0.75
3249, 1, 0.9375, 0.75
3250, 0.5, 1, 0.75
3251, 0, 0.9375, 0.75
3252, 0.5, 0.875, 0.875
3253, 1, 0.9375, 0.875
3254, 0.5, 1, 0.875
3255, 0, 0.9375, 0.875
3256, 0, 0.875, 0.8125
3257, 1, 0.875, 0.8125
3258, 1, 1, 0.8125
3259, 0, 1, 0.8125
3260, 0, 0.875, 0.875
3261, 1, 0.875, 0.875
3262, 1, 1, 0.875
3263, 0, 1, 0.875
3264, 0, 0.875, 1
3265, 1, 0.875, 1
3266, 1, 1, 1
3267, 0, 1, 1
3268, 0.5, 0.875, 0.875
3269, 1, 0.9375, 0.875
3270, 0.5, 1, 0.875
3271, 0, 0.9375, 0.875
3272, 0.5, 0.875, 1
3273, 1, 0.9375, 1
3274, 0.5, 1, 1
3275, 0, 0.9375, 1
3276, 0, 0.875, 0.9375
3277, 1, 0.875, 0.9375
3278, 1, 1, 0.9375
3279, 0, 1, 0.9375
*Element, type=C3D20, elset=PRIMARY
1, 2000, 2001, 2002, 2003, 2004, 2005, 2006, 2007, 2008, 2009, 2010, 2011, 2012, 2013, 2014, 2015, 2016, 2017, 2018, 2019
2, 2020, 2021, 2022, 2023, 2024, 2025, 2026, 2027, 2028, 2029, 2030, 2031, 2032, 2033, 2034, 2035, 2036, 2037, 2038, 2039
3, 2040, 2041, 2042, 2043, 2044, 2045, 2046, 2047, 2048, 2049, 2050, 2051, 2052, 2053, 2054, 2055, 2056, 2057, 2058, 2059
4, 2060, 2061, 2062, 2063, 2064, 2065, 2066, 2067, 2068, 2069, 2070, 2071, 2072, 2073, 2074, 2075, 2076, 2077, 2078, 2079
5, 2080, 2081, 2082, 2083, 2084, 2085, 2086, 2087, 2088, 2089, 2090, 2091, 2092, 2093, 2094, 2095, 2096, 2097, 2098, 2099
6, 2100, 2101, 2102, 2103, 2104, 2105, 2106, 2107, 2108, 2109, 2110, 2111, 2112, 2113, 2114, 2115, 2116, 2117, 2118, 2119
7, 2120, 2121, 2122, 2123, 2124, 2125, 2126, 2127, 2128, 2129, 2130, 2131, 2132, 2133, 2134, 2135, 2136, 2137, 2138, 2139
8, 2140, 2141, 2142, 2143, 2144, 2145, 2146, 2147, 2148, 2149, 2150, 2151, 2152, 2153, 2154, 2155, 2156, 2157, 2158, 2159
9, 2160, 2161, 2162, 2163, 2164, 2165, 2166, 2167, 2168, 2169, 2170, 2171, 2172, 2173, 2174, 2175, 2176, 2177, 2178, 2179
10, 2180, 2181, 2182, 2183, 2184, 2185, 2186, 2187, 2188, 2189, 2190, 2191, 2192, 2193, 2194, 2195, 2196, 2197, 2198, 2199
11, 2200, 2201, 2202, 2203, 2204, 2205, 2206, 2207, 2208, 2209, 2210, 2211, 2212, 2213, 2214, 2215, 2216, 2217, 2218, 2219
12, 2220, 2221, 2222, 2223, 2224, 2225, 2226, 2227, 2228, 2229, 2230, 2231, 2232, 2233, 2234, 2235, 2236, 2237, 2238, 2239
13, 2240, 2241, 2242, 2243, 2244, 2245, 2246, 2247, 2248, 2249, 2250, 2251, 2252, 2253, 2254, 2255, 2256, 2257, 2258, 2259
14, 2260, 2261, 2262, 2263, 2264, 2265, 2266, 2267, 2268, 2269, 2270, 2271, 2272, 2273, 2274, 2275, 2276, 2277, 2278, 2279
15, 2280, 2281, 2282, 2283, 2284, 2285, 2286, 2287, 2288, 2289, 2290, 2291, 2292, 2293, 2294, 2295, 2296, 2297, 2298, 2299
16, 2300, 2301, 2302, 2303, 2304, 2305, 2306, 2307, 2308, 2309, 2310, 2311, 2312, 2313, 2314, 2315, 2316, 2317, 2318, 2319
17, 2320, 2321, 2322, 2323, 2324, 2325, 2326, 2327, 2328, 2329, 2330, 2331, 2332, 2333, 2334, 2335, 2336, 2337, 2338, 2339
18, 2340, 2341, 2342, 2343, 2344, 2345, 2346, 2347, 2348, 2349, 2350, 2351, 2352, 2353, 2354, 2355, 2356, 2357, 2358, 2359
19, 2360, 2361, 2362, 2363, 2364, 2365, 2366, 2367, 2368, 2369, 2370, 2371, 2372, 2373, 2374, 2375, 2376, 2377, 2378, 2379
20, 2380, 2381, 2382, 2383, 2384, 2385, 2386, 2387, 2388, 2389, 2390, 2391, 2392, 2393, 2394, 2395, 2396, 2397, 2398, 2399
21, 2400, 2401, 2402, 2403, 2404, 2405, 2406, 2407, 2408, 2409, 2410, 2411, 2412, 2413, 2414, 2415, 2416, 2417, 2418, 2419
22, 2420, 2421, 2422, 2423, 2424, 2425, 2426, 2427, 2428, 2429, 2430, 2431, 2432, 2433, 2434, 2435, 2436, 2437, 2438, 2439
23, 2440, 2441, 2442, 2443, 2444, 2445, 2446, 2447, 2448, 2449, 2450, 2451, 2452, 2453, 2454, 2455, 2456, 2457, 2458, 2459
24, 2460, 2461, 2462, 2463, 2464, 2465, 2466, 2467, 2468, 2469, 2470, 2471, 2472, 2473, 2474, 2475, 2476, 2477, 2478, 2479
25, 2480, 2481, 2482, 2483, 2484, 2485, 2486, 2487, 2488, 2489, 2490, 2491, 2492, 2493, 2494, 2495, 2496, 2497, 2498, 2499
26, 2500, 2501, 2502, 2503, 2504, 2505, 2506, 2507, 2508, 2509, 2510, 2511, 2512, 2513, 2514, 2515, 2516, 2517, 2518, 2519
27, 2520, 2521, 2522, 2523, 2524, 2525, 2526, 2527, 2528, 2529, 2530, 2531, 2532, 2533, 2534, 2535, 2536, 2537, 2538, 2539
28, 2540, 2541, 2542, 2543, 2544, 2545, 2546, 2547, 2548, 2549, 2550, 2551, 2552, 2553, 2554, 2555, 2556, 2557, 2558, 2559
29, 2560, 2561, 2562, 2563, 2564, 2565, 2566, 2567, 2568, 2569, 2570, 2571, 2572, 2573, 2574, 2575, 2576, 2577, 2578, 2579
30, 2580, 2581, 2582, 2583, 2584, 2585, 2586, 2587, 2588, 2589, 2590, 2591, 2592, 2593, 2594, 2595, 2596, 2597, 2598, 2599
31, 2600, 2601, 2602, 2603, 2604, 2605, 2606, 2607, 2608, 2609, 2610, 2611, 2612, 2613, 2614, 2615, 2616, 2617, 2618, 2619
32, 2620, 2621, 2622, 2623, 2624, 2625, 2626, 2627, 2628, 2629, 2630, 2631, 2632, 2633, 2634, 2635, 2636, 2637, 2638, 2639
33, 2640, 2641, 2642, 2643, 2644, 2645, 2646, 2647, 2648, 2649, 2650, 2651, 2652, 2653, 2654, 2655, 2656, 2657, 2658, 2659
34, 2660, 2661, 2662, 2663, 2664, 2665, 2666, 2667, 2668, 2669, 2670, 2671, 2672, 2673, 2674, 2675, 2676, 2677, 2678, 2679
35, 2680, 2681, 2682, 2683, 2684, 2685, 2686, 2687, 2688, 2689, 2690, 2691, 2692, 2693, 2694, 2695, 2696, 2697, 2698, 2699
36, 2700, 2701, 2702, 2703, 2704, 2705, 2706, 2707, 2708, 2709, 2710, 2711, 2712, 2713, 2714, 2715, 2716, 2717, 2718, 2719
37, 2720, 2721, 2722, 2723, 2724, 2725, 2726, 2727, 2728, 2729, 2730, 2731, 2732, 2733, 2734, 2735, 2736, 2737, 2738, 2739
38, 2740, 2741, 2742, 2743, 2744, 2745, 2746, 2747, 2748, 2749, 2750, 2751, 2752, 2753, 2754, 2755, 2756, 2757, 2758, 2759
39, 2760, 2761, 2762, 2763, 2764, 2765, 2766, 2767, 2768, 2769, 2770, 2771, 2772, 2773, 2774, 2775, 2776, 2777, 2778, 2779
40, 2780, 2781, 2782, 2783, 2784, 2785, 2786, 2787, 2788, 2789, 2790, 2791, 2792, 2793, 2794, 2795, 2796, 2797, 2798, 2799
41, 2800, 2801, 2802, 2803, 2804, 2805, 2806, 2807, 2808, 2809, 2810, 2811, 2812, 2813, 2814, 2815, 2816, 2817, 2818, 2819
42, 2820, 2821, 2822, 2823, 2824, 2825, 2826, 2827, 2828, 2829, 2830, 2831, 2832, 2833, 2834, 2835, 2836, 2837, 2838, 2839
43, 2840, 2841, 2842, 2843, 2844, 2845, 2846, 2847, 2848, 2849, 2850, 2851, 2852, 2853, 2854, 2855, 2856, 2857, 2858, 2859
44, 2860, 2861, 2862, 2863, 2864, 2865, 2866, 2867, 2868, 2869, 2870, 2871, 2872, 2873, 2874, 2875, 2876, 2877, 2878, 2879
45, 2880, 2881, 2882, 2883, 2884, 2885, 2886, 2887, 2888, 2889, 2890, 2891, 2892, 2893, 2894, 2895, 2896, 2897, 2898, 2899
46, 2900, 2901, 2902, 2903, 2904, 2905, 2906, 2907, 2908, 2909, 2910, 2911, 2912, 2913, 2914, 2915, 2916, 2917, 2918, 2919
47, 2920, 2921, 2922, 2923, 2924, 2925, 2926, 2927, 2928, 2929, 2930, 2931, 2932, 2933, 2934, 2935, 2936, 2937, 2938, 2939
48, 2940, 2941, 2942, 2943, 2944, 2945, 2946, 2947, 2948, 2949, 2950, 2951, 2952, 2953, 2954, 2955, 2956, 2957, 2958, 2959
49, 2960, 2961, 2962, 2963, 2964, 2965, 2966, 2967, 2968, 2969, 2970, 2971, 2972, 2973, 2974, 2975, 2976, 2977, 2978, 2979
50, 2980, 2981, 2982, 2983, 2984, 2985, 2986, 2987, 2988, 2989, 2990, 2991, 2992, 2993, 2994, 2995, 2996, 2997, 2998, 2999
51, 3000, 3001, 3002, 3003, 3004, 3005, 3006, 3007, 3008, 3009, 3010, 3011, 3012, 3013, 3014, 3015, 3016, 3017, 3018, 3019
52, 3020, 3021, 3022, 3023, 3024, 3025, 3026, 3027, 3028, 3029, 3030, 3031, 3032, 3033, 3034, 3035, 3036, 3037, 3038, 3039
53, 3040, 3041, 3042, 3043, 3044, 3045, 3046, 3047, 3048, 3049, 3050, 3051, 3052, 3053, 3054, 3055, 3056, 3057, 3058, 3059
54, 3060, 3061, 3062, 3063, 3064, 3065, 3066, 3067, 3068, 3069, 3070, 3071, 3072, 3073, 3074, 3075, 3076, 3077, 3078, 3079
55, 3080, 3081, 3082, 3083, 3084, 3085, 3086, 3087, 3088, 3089, 3090, 3091, 3092, 3093, 3094, 3095, 3096, 3097, 3098, 3099
56, 3100, 3101, 3102, 3103, 3104, 3105, 3106, 3107, 3108, 3109, 3110, 3111, 3112, 3113, 3114, 3115, 3116, 3117, 3118, 3119
57, 3120, 3121, 3122, 3123, 3124, 3125, 3126, 3127, 3128, 3129, 3130, 3131, 3132, 3133, 3134, 3135, 3136, 3137, 3138, 3139
58, 3140, 3141, 3142, 3143, 3144, 3145, 3146, 3147, 3148, 3149, 3150, 3151, 3152, 3153, 3154, 3155, 3156, 3157, 3158, 3159
59, 3160, 3161, 3162, 3163, 3164, 3165, 3166, 3167, 3168, 3169, 3170, 3171, 3172, 3173, 3174, 3175, 3176, 3177, 3178, 3179
60, 3180, 3181, 3182, 3183, 3184, 3185, 3186, 3187, 3188, 3189, 3190, 3191, 3192, 3193, 3194, 3195, 3196, 3197, 3198, 3199
61, 3200, 3201, 3202, 3203, 3204, 3205, 3206, 3207, 3208, 3209, 3210, 3211, 3212, 3213, 3214, 3215, 3216, 3217, 3218, 3219
62, 3220, 3221, 3222, 3223, 3224, 3225, 3226, 3227, 3228, 3229, 3230, 3231, 3232, 3233, 3234, 3235, 3236, 3237, 3238, 3239
63, 3240, 3241, 3242, 3243, 3244, 3245, 3246, 3247, 3248, 3249, 3250, 3251, 3252, 3253, 3254, 3255, 3256, 3257, 3258, 3259
64, 3260, 3261, 3262, 3263, 3264, 3265, 3266, 3267, 3268, 3269, 3270, 3271, 3272, 3273, 3274, 3275, 3276, 3277, 3278, 3279
*Element, type=C3D20, elset=SECONDARY
65, 532, 533, 534, 535, 536, 537, 538, 539, 540, 541, 542, 543, 544, 545, 546, 547, 548, 549, 550, 551
*Nset, nset=PRIMARY_ALL
2000, 2001, 2002, 2161, 2003, 2160, 2004, 2020, 2005, 2021, 2006, 2022, 2165, 2181, 2007, 2023
2164, 2180, 2008, 2009, 2010, 2168, 2011, 2012, 2028, 2013, 2029, 2014, 2030, 2172, 2188, 2015
2031, 2016, 2017, 2018, 2177, 2019, 2176, 2024, 2040, 2025, 2041, 2026, 2042, 2185, 2201, 2027
2043, 2184, 2200, 2032, 2048, 2033, 2049, 2034, 2050, 2192, 2208, 2035, 2051, 2036, 2037, 2038
2197, 2039, 2196, 2044, 2060, 2045, 2061, 2046, 2062, 2205, 2221, 2047, 2063, 2204, 2220, 2052
2068, 2053, 2069, 2054, 2070, 2212, 2228, 2055, 2071, 2056, 2057, 2058, 2217, 2059, 2216, 2064
2080, 2065, 2081, 2066, 2082, 2225, 2241, 2067, 2083, 2224, 2240, 2072, 2088, 2073, 2089, 2074
2090, 2232, 2248, 2075, 2091, 2076, 2077, 2078, 2237, 2079, 2236, 2084, 2100, 2085, 2101, 2086
2102, 2245, 2261, 2087, 2103, 2244, 2260, 2092, 2108, 2093, 2109, 2094, 2110, 2252, 2268, 2095
2111, 2096, 2097, 2098, 2257, 2099, 2256, 2104, 2120, 2105, 2121, 2106, 2122, 2265, 2281, 2107
2123, 2264, 2280, 2112, 2128, 2113, 2129, 2114, 2130, 2272, 2288, 2115, 2131, 2116, 2117, 2118
2277, 2119, 2276, 2124, 2140, 2125, 2141, 2126, 2142, 2285, 2301, 2127, 2143, 2284, 2300, 2132
2148, 2133, 2149, 2134, 2150, 2292, 2308, 2135, 2151, 2136, 2137, 2138, 2297, 2139, 2296, 2144
2145, 2146, 2305, 2147, 2304, 2152, 2153, 2154, 2312, 2155, 2156, 2157, 2158, 2317, 2159, 2316
2162, 2321, 2163, 2320, 2166, 2182, 2325, 2341, 2167, 2183, 2324, 2340, 2169, 2170, 2328, 2171
2173, 2189, 2174, 2190, 2332, 2348, 2175, 2191, 2178, 2337, 2179, 2336, 2186, 2202, 2345, 2361
2187, 2203, 2344, 2360, 2193, 2209, 2194, 2210, 2352, 2368, 2195, 2211, 2198, 2357, 2199, 2356
2206, 2222, 2365, 2381, 2207, 2223, 2364, 2380, 2213, 2229, 2214, 2230, 2372, 2388, 2215, 2231
2218, 2377, 2219, 2376, 2226, 2242, 2385, 2401, 2227, 2243, 2384, 2400, 2233, 2249, 2234, 2250
2392, 2408, 2235, 2251, 2238, 2397, 2239, 2396, 2246, 2262, 2405, 2421, 2247, 2263, 2404, 2420
2253, 2269, 2254, 2270, 2412, 2428, 2255, 2271, 2258, 2417, 2259, 2416, 2266, 2282, 2425, 2441
2267, 2283, 2424, 2440, 2273, 2289, 2274, 2290, 2432, 2448, 2275, 2291, 2278, 2437, 2279, 2436
2286, 2302, 2445, 2461, 2287, 2303, 2444, 2460, 2293, 2309, 2294, 2310, 2452, 2468, 2295, 2311
2298, 2457, 2299, 2456, 2306, 2465, 2307, 2464, 2313, 2314, 2472, 2315, 2318, 2477, 2319, 2476
2322, 2481, 2323, 2480, 2326, 2342, 2485, 2501, 2327, 2343, 2484, 2500, 2329, 2330, 2488, 2331
2333, 2349, 2334, 2350, 2492, 2508, 2335, 2351, 2338, 2497, 2339, 2496, 2346, 2362, 2505, 2521
2347, 2363, 2504, 2520, 2353, 2369, 2354, 2370, 2512, 2528, 2355, 2371, 2358, 2517, 2359, 2516
2366, 2382, 2525, 2541, 2367, 2383, 2524, 2540, 2373, 2389, 2374, 2390, 2532, 2548, 2375, 2391
2378, 2537, 2379, 2536, 2386, 2402, 2545, 2561, 2387, 2403, 2544, 2560, 2393, 2409, 2394, 2410
2552, 2568, 2395, 2411, 2398, 2557, 2399, 2556, 2406, 2422, 2565, 2581, 2407, 2423, 2564, 2580
2413, 2429, 2414, 2430, 2572, 2588, 2415, 2431, 2418, 2577, 2419, 2576, 2426, 2442, 2585, 2601
2427, 2443, 2584, 2600, 2433, 2449, 2434, 2450, 2592, 2608, 2435, 2451, 2438, 2597, 2439, 2596
2446, 2462, 2605, 2621, 2447, 2463, 2604, 2620, 2453, 2469, 2454, 2470, 2612, 2628, 2455, 2471
2458, 2617, 2459, 2616, 2466, 2625, 2467, 2624, 2473, 2474, 2632, 2475, 2478, 2637, 2479, 2636
2482, 2641, 2483, 2640, 2486, 2502, 2645, 2661, 2487, 2503, 2644, 2660, 2489, 2490, 2648, 2491
2493, 2509, 2494, 2510, 2652, 2668, 2495, 2511, 2498, 2657, 2499, 2656, 2506, 2522, 2665, 2681
2507, 2523, 2664, 2680, 2513, 2529, 2514, 2530, 2672, 2688, 2515, 2531, 2518, 2677, 2519, 2676
2526, 2542, 2685, 2701, 2527, 2543, 2684, 2700, 2533, 2549, 2534, 2550, 2692, 2708, 2535, 2551
2538, 2697, 2539, 2696, 2546, 2562, 2705, 2721, 2547, 2563, 2704, 2720, 2553, 2569, 2554, 2570
2712, 2728, 2555, 2571, 2558, 2717, 2559, 2716, 2566, 2582, 2725, 2741, 2567, 2583, 2724, 2740
2573, 2589, 2574, 2590, 2732, 2748, 2575, 2591, 2578, 2737, 2579, 2736, 2586, 2602, 2745, 2761
2587, 2603, 2744, 2760, 2593, 2609, 2594, 2610, 2752, 2768, 2595, 2611, 2598, 2757, 2599, 2756
2606, 2622, 2765, 2781, 2607, 2623, 2764, 2780, 2613, 2629, 2614, 2630, 2772, 2788, 2615, 2631
2618, 2777, 2619, 2776, 2626, 2785, 2627, 2784, 2633, 2634, 2792, 2635, 2638, 2797, 2639, 2796
2642, 2801, 2643, 2800, 2646, 2662, 2805, 2821, 2647, 2663, 2804, 2820, 2649, 2650, 2808, 2651
2653, 2669, 2654, 2670, 2812, 2828, 2655, 2671, 2658, 2817, 2659, 2816, 2666, 2682, 2825, 2841
2667, 2683, 2824, 2840, 2673, 2689, 2674, 2690, 2832, 2848, 2675, 2691, 2678, 2837, 2679, 2836
2686, 2702, 2845, 2861, 2687, 2703, 2844, 2860, 2693, 2709, 2694, 2710, 2852, 2868, 2695, 2711
2698, 2857, 2699, 2856, 2706, 2722, 2865, 2881, 2707, 2723, 2864, 2880, 2713, 2729, 2714, 2730
2872, 2888, 2715, 2731, 2718, 2877, 2719, 2876, 2726, 2742, 2885, 2901, 2727, 2743, 2884, 2900
2733, 2749, 2734, 2750, 2892, 2908, 2735, 2751, 2738, 2897, 2739, 2896, 2746, 2762, 2905, 2921
2747, 2763, 2904, 2920, 2753, 2769, 2754, 2770, 2912, 2928, 2755, 2771, 2758, 2917, 2759, 2916
2766, 2782, 2925, 2941, 2767, 2783, 2924, 2940, 2773, 2789, 2774, 2790, 2932, 2948, 2775, 2791
2778, 2937, 2779, 2936, 2786, 2945, 2787, 2944, 2793, 2794, 2952, 2795, 2798, 2957, 2799, 2956
2802, 2961, 2803, 2960, 2806, 2822, 2965, 2981, 2807, 2823, 2964, 2980, 2809, 2810, 2968, 2811
2813, 2829, 2814, 2830, 2972, 2988, 2815, 2831, 2818, 2977, 2819, 2976, 2826, 2842, 2985, 3001
2827, 2843, 2984, 3000, 2833, 2849, 2834, 2850, 2992, 3008, 2835, 2851, 2838, 2997, 2839, 2996
2846, 2862, 3005, 3021, 2847, 2863, 3004, 3020, 2853, 2869, 2854, 2870, 3012, 3028, 2855, 2871
2858, 3017, 2859, 3016, 2866, 2882, 3025, 3041, 2867, 2883, 3024, 3040, 2873, 2889, 2874, 2890
3032, 3048, 2875, 2891, 2878, 3037, 2879, 3036, 2886, 2902, 3045, 3061, 2887, 2903, 3044, 3060
2893, 2909, 2894, 2910, 3052, 3068, 2895, 2911, 2898, 3057, 2899, 3056, 2906, 2922, 3065, 3081
2907, 2923, 3064, 3080, 2913, 2929, 2914, 2930, 3072, 3088, 2915, 2931, 2918, 3077, 2919, 3076
2926, 2942, 3085, 3101, 2927, 2943, 3084, 3100, 2933, 2949, 2934, 2950, 3092, 3108, 2935, 2951
2938, 3097, 2939, 3096, 2946, 3105, 2947, 3104, 2953, 2954, 3112, 2955, 2958, 3117, 2959, 3116
2962, 3121, 2963, 3120, 2966, 2982, 3125, 3141, 2967, 2983, 3124, 3140, 2969, 2970, 3128, 2971
2973, 2989, 2974, 2990, 3132, 3148, 2975, 2991, 2978, 3137, 2979, 3136, 2986, 3002, 3145, 3161
2987, 3003, 3144, 3160, 2993, 3009, 2994, 3010, 3152, 3168, 2995, 3011, 2998, 3157, 2999, 3156
3006, 3022, 3165, 3181, 3007, 3023, 3164, 3180, 3013, 3029, 3014, 3030, 3172, 3188, 3015, 3031
3018, 3177, 3019, 3176, 3026, 3042, 3185, 3201, 3027, 3043, 3184, 3200, 3033, 3049, 3034, 3050
3192, 3208, 3035, 3051, 3038, 3197, 3039, 3196, 3046, 3062, 3205, 3221, 3047, 3063, 3204, 3220
3053, 3069, 3054, 3070, 3212, 3228, 3055, 3071, 3058, 3217, 3059, 3216, 3066, 3082, 3225, 3241
3067, 3083, 3224, 3240, 3073, 3089, 3074, 3090, 3232, 3248, 3075, 3091, 3078, 3237, 3079, 3236
3086, 3102, 3245, 3261, 3087, 3103, 3244, 3260, 3093, 3109, 3094, 3110, 3252, 3268, 3095, 3111
3098, 3257, 3099, 3256, 3106, 3265, 3107, 3264, 3113, 3114, 3272, 3115, 3118, 3277, 3119, 3276
3122, 3123, 3126, 3142, 3127, 3143, 3129, 3130, 3131, 3133, 3149, 3134, 3150, 3135, 3151, 3138
3139, 3146, 3162, 3147, 3163, 3153, 3169, 3154, 3170, 3155, 3171, 3158, 3159, 3166, 3182, 3167
3183, 3173, 3189, 3174, 3190, 3175, 3191, 3178, 3179, 3186, 3202, 3187, 3203, 3193, 3209, 3194
3210, 3195, 3211, 3198, 3199, 3206, 3222, 3207, 3223, 3213, 3229, 3214, 3230, 3215, 3231, 3218
3219, 3226, 3242, 3227, 3243, 3233, 3249, 3234, 3250, 3235, 3251, 3238, 3239, 3246, 3262, 3247
3263, 3253, 3269, 3254, 3270, 3255, 3271, 3258, 3259, 3266, 3267, 3273, 3274, 3275, 3278, 3279
*Nset, nset=PRIMARY_FACE
2001, 2002, 2161, 2005, 2021, 2006, 2022, 2165, 2181, 2009, 2013, 2029, 2017, 2018, 2177, 2025
2041, 2026, 2042, 2185, 2201, 2033, 2049, 2037, 2038, 2197, 2045, 2061, 2046, 2062, 2205, 2221
2053, 2069, 2057, 2058, 2217, 2065, 2081, 2066, 2082, 2225, 2241, 2073, 2089, 2077, 2078, 2237
2085, 2101, 2086, 2102, 2245, 2261, 2093, 2109, 2097, 2098, 2257, 2105, 2121, 2106, 2122, 2265
2281, 2113, 2129, 2117, 2118, 2277, 2125, 2141, 2126, 2142, 2285, 2301, 2133, 2149, 2137, 2138
2297, 2145, 2146, 2305, 2153, 2157, 2158, 2317, 2162, 2321, 2166, 2182, 2325, 2341, 2169, 2173
2189, 2178, 2337, 2186, 2202, 2345, 2361, 2193, 2209, 2198, 2357, 2206, 2222, 2365, 2381, 2213
2229, 2218, 2377, 2226, 2242, 2385, 2401, 2233, 2249, 2238, 2397, 2246, 2262, 2405, 2421, 2253
2269, 2258, 2417, 2266, 2282, 2425, 2441, 2273, 2289, 2278, 2437, 2286, 2302, 2445, 2461, 2293
2309, 2298, 2457, 2306, 2465, 2313, 2318, 2477, 2322, 2481, 2326, 2342, 2485, 2501, 2329, 2333
2349, 2338, 2497, 2346, 2362, 2505, 2521, 2353, 2369, 2358, 2517, 2366, 2382, 2525, 2541, 2373
2389, 2378, 2537, 2386, 2402, 2545, 2561, 2393, 2409, 2398, 2557, 2406, 2422, 2565, 2581, 2413
2429, 2418, 2577, 2426, 2442, 2585, 2601, 2433, 2449, 2438, 2597, 2446, 2462, 2605, 2621, 2453
2469, 2458, 2617, 2466, 2625, 2473, 2478, 2637, 2482, 2641, 2486, 2502, 2645, 2661, 2489, 2493
2509, 2498, 2657, 2506, 2522, 2665, 2681, 2513, 2529, 2518, 2677, 2526, 2542, 2685, 2701, 2533
2549, 2538, 2697, 2546, 2562, 2705, 2721, 2553, 2569, 2558, 2717, 2566, 2582, 2725, 2741, 2573
2589, 2578, 2737, 2586, 2602, 2745, 2761, 2593, 2609, 2598, 2757, 2606, 2622, 2765, 2781, 2613
2629, 2618, 2777, 2626, 2785, 2633, 2638, 2797, 2642, 2801, 2646, 2662, 2805, 2821, 2649, 2653
2669, 2658, 2817, 2666, 2682, 2825, 2841, 2673, 2689, 2678, 2837, 2686, 2702, 2845, 2861, 2693
2709, 2698, 2857, 2706, 2722, 2865, 2881, 2713, 2729, 2718, 2877, 2726, 2742, 2885, 2901, 2733
2749, 2738, 2897, 2746, 2762, 2905, 2921, 2753, 2769, 2758, 2917, 2766, 2782, 2925, 2941, 2773
2789, 2778, 2937, 2786, 2945, 2793, 2798, 2957, 2802, 2961, 2806, 2822, 2965, 2981, 2809, 2813
2829, 2818, 2977, 2826, 2842, 2985, 3001, 2833, 2849, 2838, 2997, 2846, 2862, 3005, 3021, 2853
2869, 2858, 3017, 2866, 2882, 3025, 3041, 2873, 2889, 2878, 3037, 2886, 2902, 3045, 3061, 2893
2909, 2898, 3057, 2906, 2922, 3065, 3081, 2913, 2929, 2918, 3077, 2926, 2942, 3085, 3101, 2933
2949, 2938, 3097, 2946, 3105, 2953, 2958, 3117, 2962, 3121, 2966, 2982, 3125, 3141, 2969, 2973
2989, 2978, 3137, 2986, 3002, 3145, 3161, 2993, 3009, 2998, 3157, 3006, 3022, 3165, 3181, 3013
3029, 3018, 3177, 3026, 3042, 3185, 3201, 3033, 3049, 3038, 3197, 3046, 3062, 3205, 3221, 3053
3069, 3058, 3217, 3066, 3082, 3225, 3241, 3073, 3089, 3078, 3237, 3086, 3102, 3245, 3261, 3093
3109, 3098, 3257, 3106, 3265, 3113, 3118, 3277, 3122, 3126, 3142, 3129, 3133, 3149, 3138, 3146
3162, 3153, 3169, 3158, 3166, 3182, 3173, 3189, 3178, 3186, 3202, 3193, 3209, 3198, 3206, 3222
3213, 3229, 3218, 3226, 3242, 3233, 3249, 3238, 3246, 3262, 3253, 3269, 3258, 3266, 3273, 3278
*Nset, nset=SECONDARY_ALL
532, 533, 534, 535, 536, 537, 538, 539, 540, 541, 542, 543, 544, 545, 546, 547
548, 549, 550, 551
*Nset, nset=SECONDARY_FACE
532, 535, 539, 536, 543, 551, 547, 548
*Nset, nset=S1
532
*Nset, nset=S2
535
*Nset, nset=S3
539
*Nset, nset=S4
536
*Nset, nset=S5
543
*Nset, nset=S6
551
*Nset, nset=S7
547
*Nset, nset=S8
548
*Surface, type=ELEMENT, name=PRIMARY_CONTACT
PRIMARY, S4
*Surface, type=ELEMENT, name=SECONDARY_CONTACT
SECONDARY, S6
*Material, name=ELASTIC
*Elastic
1.e9, 0.
*Solid Section, elset=PRIMARY, material=ELASTIC
,
*Solid Section, elset=SECONDARY, material=ELASTIC
,
*Surface Interaction, name=LINEAR_PENALTY
*Surface Behavior, penalty=LINEAR
1.e8,
*Contact Pair, interaction=LINEAR_PENALTY, type=SURFACE TO SURFACE, adjust=0.
SECONDARY_CONTACT, PRIMARY_CONTACT
*Step, name=BASE, nlgeom=YES, inc=40
*Static
0.1, 1., 1.e-8, 0.1
*Boundary
PRIMARY_ALL, 1, 3, 0.
SECONDARY_ALL, 2, 3, 0.
S1, 1, 1, -1.e-6
S2, 1, 1, -1.e-6
S3, 1, 1, -1.e-6
S4, 1, 1, -1.e-6
S5, 1, 1, -1.e-6
S6, 1, 1, -1.e-6
S7, 1, 1, -1.e-6
S8, 1, 1, -1.e-6
*Output, field, frequency=1
*Node Output
COORD, RF, U
*Contact Output
CSTRESS, CDISP, CFORCE
*End Step
*Step, name=S1_PLUS, nlgeom=YES, inc=40
*Static
0.1, 1., 1.e-8, 0.1
*Boundary, op=MOD
S1, 1, 1, -1.01e-6
S2, 1, 1, -1.e-6
S3, 1, 1, -1.e-6
S4, 1, 1, -1.e-6
S5, 1, 1, -1.e-6
S6, 1, 1, -1.e-6
S7, 1, 1, -1.e-6
S8, 1, 1, -1.e-6
*End Step
*Step, name=S1_MINUS, nlgeom=YES, inc=40
*Static
0.1, 1., 1.e-8, 0.1
*Boundary, op=MOD
S1, 1, 1, -9.9e-7
S2, 1, 1, -1.e-6
S3, 1, 1, -1.e-6
S4, 1, 1, -1.e-6
S5, 1, 1, -1.e-6
S6, 1, 1, -1.e-6
S7, 1, 1, -1.e-6
S8, 1, 1, -1.e-6
*End Step
*Step, name=S2_PLUS, nlgeom=YES, inc=40
*Static
0.1, 1., 1.e-8, 0.1
*Boundary, op=MOD
S1, 1, 1, -1.e-6
S2, 1, 1, -1.01e-6
S3, 1, 1, -1.e-6
S4, 1, 1, -1.e-6
S5, 1, 1, -1.e-6
S6, 1, 1, -1.e-6
S7, 1, 1, -1.e-6
S8, 1, 1, -1.e-6
*End Step
*Step, name=S2_MINUS, nlgeom=YES, inc=40
*Static
0.1, 1., 1.e-8, 0.1
*Boundary, op=MOD
S1, 1, 1, -1.e-6
S2, 1, 1, -9.9e-7
S3, 1, 1, -1.e-6
S4, 1, 1, -1.e-6
S5, 1, 1, -1.e-6
S6, 1, 1, -1.e-6
S7, 1, 1, -1.e-6
S8, 1, 1, -1.e-6
*End Step
*Step, name=S3_PLUS, nlgeom=YES, inc=40
*Static
0.1, 1., 1.e-8, 0.1
*Boundary, op=MOD
S1, 1, 1, -1.e-6
S2, 1, 1, -1.e-6
S3, 1, 1, -1.01e-6
S4, 1, 1, -1.e-6
S5, 1, 1, -1.e-6
S6, 1, 1, -1.e-6
S7, 1, 1, -1.e-6
S8, 1, 1, -1.e-6
*End Step
*Step, name=S3_MINUS, nlgeom=YES, inc=40
*Static
0.1, 1., 1.e-8, 0.1
*Boundary, op=MOD
S1, 1, 1, -1.e-6
S2, 1, 1, -1.e-6
S3, 1, 1, -9.9e-7
S4, 1, 1, -1.e-6
S5, 1, 1, -1.e-6
S6, 1, 1, -1.e-6
S7, 1, 1, -1.e-6
S8, 1, 1, -1.e-6
*End Step
*Step, name=S4_PLUS, nlgeom=YES, inc=40
*Static
0.1, 1., 1.e-8, 0.1
*Boundary, op=MOD
S1, 1, 1, -1.e-6
S2, 1, 1, -1.e-6
S3, 1, 1, -1.e-6
S4, 1, 1, -1.01e-6
S5, 1, 1, -1.e-6
S6, 1, 1, -1.e-6
S7, 1, 1, -1.e-6
S8, 1, 1, -1.e-6
*End Step
*Step, name=S4_MINUS, nlgeom=YES, inc=40
*Static
0.1, 1., 1.e-8, 0.1
*Boundary, op=MOD
S1, 1, 1, -1.e-6
S2, 1, 1, -1.e-6
S3, 1, 1, -1.e-6
S4, 1, 1, -9.9e-7
S5, 1, 1, -1.e-6
S6, 1, 1, -1.e-6
S7, 1, 1, -1.e-6
S8, 1, 1, -1.e-6
*End Step
*Step, name=S5_PLUS, nlgeom=YES, inc=40
*Static
0.1, 1., 1.e-8, 0.1
*Boundary, op=MOD
S1, 1, 1, -1.e-6
S2, 1, 1, -1.e-6
S3, 1, 1, -1.e-6
S4, 1, 1, -1.e-6
S5, 1, 1, -1.01e-6
S6, 1, 1, -1.e-6
S7, 1, 1, -1.e-6
S8, 1, 1, -1.e-6
*End Step
*Step, name=S5_MINUS, nlgeom=YES, inc=40
*Static
0.1, 1., 1.e-8, 0.1
*Boundary, op=MOD
S1, 1, 1, -1.e-6
S2, 1, 1, -1.e-6
S3, 1, 1, -1.e-6
S4, 1, 1, -1.e-6
S5, 1, 1, -9.9e-7
S6, 1, 1, -1.e-6
S7, 1, 1, -1.e-6
S8, 1, 1, -1.e-6
*End Step
*Step, name=S6_PLUS, nlgeom=YES, inc=40
*Static
0.1, 1., 1.e-8, 0.1
*Boundary, op=MOD
S1, 1, 1, -1.e-6
S2, 1, 1, -1.e-6
S3, 1, 1, -1.e-6
S4, 1, 1, -1.e-6
S5, 1, 1, -1.e-6
S6, 1, 1, -1.01e-6
S7, 1, 1, -1.e-6
S8, 1, 1, -1.e-6
*End Step
*Step, name=S6_MINUS, nlgeom=YES, inc=40
*Static
0.1, 1., 1.e-8, 0.1
*Boundary, op=MOD
S1, 1, 1, -1.e-6
S2, 1, 1, -1.e-6
S3, 1, 1, -1.e-6
S4, 1, 1, -1.e-6
S5, 1, 1, -1.e-6
S6, 1, 1, -9.9e-7
S7, 1, 1, -1.e-6
S8, 1, 1, -1.e-6
*End Step
*Step, name=S7_PLUS, nlgeom=YES, inc=40
*Static
0.1, 1., 1.e-8, 0.1
*Boundary, op=MOD
S1, 1, 1, -1.e-6
S2, 1, 1, -1.e-6
S3, 1, 1, -1.e-6
S4, 1, 1, -1.e-6
S5, 1, 1, -1.e-6
S6, 1, 1, -1.e-6
S7, 1, 1, -1.01e-6
S8, 1, 1, -1.e-6
*End Step
*Step, name=S7_MINUS, nlgeom=YES, inc=40
*Static
0.1, 1., 1.e-8, 0.1
*Boundary, op=MOD
S1, 1, 1, -1.e-6
S2, 1, 1, -1.e-6
S3, 1, 1, -1.e-6
S4, 1, 1, -1.e-6
S5, 1, 1, -1.e-6
S6, 1, 1, -1.e-6
S7, 1, 1, -9.9e-7
S8, 1, 1, -1.e-6
*End Step
*Step, name=S8_PLUS, nlgeom=YES, inc=40
*Static
0.1, 1., 1.e-8, 0.1
*Boundary, op=MOD
S1, 1, 1, -1.e-6
S2, 1, 1, -1.e-6
S3, 1, 1, -1.e-6
S4, 1, 1, -1.e-6
S5, 1, 1, -1.e-6
S6, 1, 1, -1.e-6
S7, 1, 1, -1.e-6
S8, 1, 1, -1.01e-6
*End Step
*Step, name=S8_MINUS, nlgeom=YES, inc=40
*Static
0.1, 1., 1.e-8, 0.1
*Boundary, op=MOD
S1, 1, 1, -1.e-6
S2, 1, 1, -1.e-6
S3, 1, 1, -1.e-6
S4, 1, 1, -1.e-6
S5, 1, 1, -1.e-6
S6, 1, 1, -1.e-6
S7, 1, 1, -1.e-6
S8, 1, 1, -9.9e-7
*End Step
