*Heading
** H20.27 Abaqus/Standard nonmatching C3D20 surface-to-surface operator identification.
** Geometry and connectivity are copied from the tracked H20.24 input.
*Preprint, echo=NO, model=NO, history=NO, contact=YES
*Node
1, 0, 0, 0
2, 1, 0, 0
3, 1, 0.5, 0
4, 0, 0.5, 0
5, 0, 0, 1
6, 1, 0, 1
7, 1, 0.5, 1
8, 0, 0.5, 1
9, 0.5, 0, 0
10, 1, 0.25, 0
11, 0.5, 0.5, 0
12, 0, 0.25, 0
13, 0, 0, 0.5
14, 1, 0, 0.5
15, 1, 0.5, 0.5
16, 0, 0.5, 0.5
17, 0.5, 0, 1
18, 1, 0.25, 1
19, 0.5, 0.5, 1
20, 0, 0.25, 1
21, 1, 1, 0
22, 0, 1, 0
23, 1, 1, 1
24, 0, 1, 1
25, 1, 0.75, 0
26, 0.5, 1, 0
27, 0, 0.75, 0
28, 1, 1, 0.5
29, 0, 1, 0.5
30, 1, 0.75, 1
31, 0.5, 1, 1
32, 0, 0.75, 1
33, 1, 1.5, 0
34, 0, 1.5, 0
35, 1, 1.5, 1
36, 0, 1.5, 1
37, 1, 1.25, 0
38, 0.5, 1.5, 0
39, 0, 1.25, 0
40, 1, 1.5, 0.5
41, 0, 1.5, 0.5
42, 1, 1.25, 1
43, 0.5, 1.5, 1
44, 0, 1.25, 1
45, 1, 2, 0
46, 0, 2, 0
47, 1, 2, 1
48, 0, 2, 1
49, 1, 1.75, 0
50, 0.5, 2, 0
51, 0, 1.75, 0
52, 1, 2, 0.5
53, 0, 2, 0.5
54, 1, 1.75, 1
55, 0.5, 2, 1
56, 0, 1.75, 1
57, 1, 0, 0
58, 2, 0, 0
59, 2, 1.2, 0
60, 1, 1.2, 0
61, 1, 0, 1
62, 2, 0, 1
63, 2, 1.2, 1
64, 1, 1.2, 1
65, 1.5, 0, 0
66, 2, 0.6, 0
67, 1.5, 1.2, 0
68, 1, 0.6, 0
69, 1, 0, 0.5
70, 2, 0, 0.5
71, 2, 1.2, 0.5
72, 1, 1.2, 0.5
73, 1.5, 0, 1
74, 2, 0.6, 1
75, 1.5, 1.2, 1
76, 1, 0.6, 1
77, 2, 2, 0
78, 1, 2, 0
79, 2, 2, 1
80, 1, 2, 1
81, 2, 1.6, 0
82, 1.5, 2, 0
83, 1, 1.6, 0
84, 2, 2, 0.5
85, 1, 2, 0.5
86, 2, 1.6, 1
87, 1.5, 2, 1
88, 1, 1.6, 1
*Element, type=C3D20, elset=PRIMARY
1, 1, 2, 3, 4, 5, 6, 7, 8, 9, 10, 11, 12, 17, 18, 19, 20, 13, 14, 15, 16
2, 4, 3, 21, 22, 8, 7, 23, 24, 11, 25, 26, 27, 19, 30, 31, 32, 16, 15, 28, 29
3, 22, 21, 33, 34, 24, 23, 35, 36, 26, 37, 38, 39, 31, 42, 43, 44, 29, 28, 40, 41
4, 34, 33, 45, 46, 36, 35, 47, 48, 38, 49, 50, 51, 43, 54, 55, 56, 41, 40, 52, 53
*Element, type=C3D20, elset=SECONDARY
5, 57, 58, 59, 60, 61, 62, 63, 64, 65, 66, 67, 68, 73, 74, 75, 76, 69, 70, 71, 72
6, 60, 59, 77, 78, 64, 63, 79, 80, 67, 81, 82, 83, 75, 86, 87, 88, 72, 71, 84, 85
*Elset, elset=ALL
PRIMARY, SECONDARY
*Nset, nset=PRIMARY_ALL, generate
1, 56, 1
*Nset, nset=SECONDARY_ALL, generate
57, 88, 1
*Nset, nset=S01
57
*Nset, nset=S02
60
*Nset, nset=S03
64
*Nset, nset=S04
61
*Nset, nset=S05
68
*Nset, nset=S06
72
*Nset, nset=S07
76
*Nset, nset=S08
69
*Nset, nset=S09
78
*Nset, nset=S10
80
*Nset, nset=S11
83
*Nset, nset=S12
85
*Nset, nset=S13
88
*Surface, type=ELEMENT, name=PRIMARY_CONTACT
PRIMARY, S4
*Surface, type=ELEMENT, name=SECONDARY_CONTACT
SECONDARY, S6
*Material, name=ELASTIC
*Elastic
1.e9, 0.
*Solid Section, elset=ALL, material=ELASTIC
,
*Surface Interaction, name=LINEAR_PENALTY
*Surface Behavior, penalty=LINEAR
1.e8,
*Contact Pair, interaction=LINEAR_PENALTY, type=SURFACE TO SURFACE, small sliding, adjust=0.
SECONDARY_CONTACT, PRIMARY_CONTACT
*Step, name=BASE, nlgeom=NO, inc=40
*Static
0.1, 1., 1.e-8, 0.1
*Boundary
PRIMARY_ALL, 1, 3, 0.
SECONDARY_ALL, 2, 3, 0.
S01, 1, 1, -1.e-4
S02, 1, 1, -1.e-4
S03, 1, 1, -1.e-4
S04, 1, 1, -1.e-4
S05, 1, 1, -1.e-4
S06, 1, 1, -1.e-4
S07, 1, 1, -1.e-4
S08, 1, 1, -1.e-4
S09, 1, 1, -1.e-4
S10, 1, 1, -1.e-4
S11, 1, 1, -1.e-4
S12, 1, 1, -1.e-4
S13, 1, 1, -1.e-4
*Output, field, frequency=1
*Node Output
COORD, RF, U
*Contact Output
CSTRESS, CDISP, CFORCE
*Output, history, frequency=1
*Contact Output
CFN, CMN, CAREA, XN
*End Step
*Step, name=S01_PLUS, nlgeom=NO, inc=40
*Static
0.1, 1., 1.e-8, 0.1
*Boundary, op=MOD
S01, 1, 1, -1.01e-4
S02, 1, 1, -1.e-4
S03, 1, 1, -1.e-4
S04, 1, 1, -1.e-4
S05, 1, 1, -1.e-4
S06, 1, 1, -1.e-4
S07, 1, 1, -1.e-4
S08, 1, 1, -1.e-4
S09, 1, 1, -1.e-4
S10, 1, 1, -1.e-4
S11, 1, 1, -1.e-4
S12, 1, 1, -1.e-4
S13, 1, 1, -1.e-4
*End Step
*Step, name=S01_MINUS, nlgeom=NO, inc=40
*Static
0.1, 1., 1.e-8, 0.1
*Boundary, op=MOD
S01, 1, 1, -9.9e-5
S02, 1, 1, -1.e-4
S03, 1, 1, -1.e-4
S04, 1, 1, -1.e-4
S05, 1, 1, -1.e-4
S06, 1, 1, -1.e-4
S07, 1, 1, -1.e-4
S08, 1, 1, -1.e-4
S09, 1, 1, -1.e-4
S10, 1, 1, -1.e-4
S11, 1, 1, -1.e-4
S12, 1, 1, -1.e-4
S13, 1, 1, -1.e-4
*End Step
*Step, name=S02_PLUS, nlgeom=NO, inc=40
*Static
0.1, 1., 1.e-8, 0.1
*Boundary, op=MOD
S01, 1, 1, -1.e-4
S02, 1, 1, -1.01e-4
S03, 1, 1, -1.e-4
S04, 1, 1, -1.e-4
S05, 1, 1, -1.e-4
S06, 1, 1, -1.e-4
S07, 1, 1, -1.e-4
S08, 1, 1, -1.e-4
S09, 1, 1, -1.e-4
S10, 1, 1, -1.e-4
S11, 1, 1, -1.e-4
S12, 1, 1, -1.e-4
S13, 1, 1, -1.e-4
*End Step
*Step, name=S02_MINUS, nlgeom=NO, inc=40
*Static
0.1, 1., 1.e-8, 0.1
*Boundary, op=MOD
S01, 1, 1, -1.e-4
S02, 1, 1, -9.9e-5
S03, 1, 1, -1.e-4
S04, 1, 1, -1.e-4
S05, 1, 1, -1.e-4
S06, 1, 1, -1.e-4
S07, 1, 1, -1.e-4
S08, 1, 1, -1.e-4
S09, 1, 1, -1.e-4
S10, 1, 1, -1.e-4
S11, 1, 1, -1.e-4
S12, 1, 1, -1.e-4
S13, 1, 1, -1.e-4
*End Step
*Step, name=S03_PLUS, nlgeom=NO, inc=40
*Static
0.1, 1., 1.e-8, 0.1
*Boundary, op=MOD
S01, 1, 1, -1.e-4
S02, 1, 1, -1.e-4
S03, 1, 1, -1.01e-4
S04, 1, 1, -1.e-4
S05, 1, 1, -1.e-4
S06, 1, 1, -1.e-4
S07, 1, 1, -1.e-4
S08, 1, 1, -1.e-4
S09, 1, 1, -1.e-4
S10, 1, 1, -1.e-4
S11, 1, 1, -1.e-4
S12, 1, 1, -1.e-4
S13, 1, 1, -1.e-4
*End Step
*Step, name=S03_MINUS, nlgeom=NO, inc=40
*Static
0.1, 1., 1.e-8, 0.1
*Boundary, op=MOD
S01, 1, 1, -1.e-4
S02, 1, 1, -1.e-4
S03, 1, 1, -9.9e-5
S04, 1, 1, -1.e-4
S05, 1, 1, -1.e-4
S06, 1, 1, -1.e-4
S07, 1, 1, -1.e-4
S08, 1, 1, -1.e-4
S09, 1, 1, -1.e-4
S10, 1, 1, -1.e-4
S11, 1, 1, -1.e-4
S12, 1, 1, -1.e-4
S13, 1, 1, -1.e-4
*End Step
*Step, name=S04_PLUS, nlgeom=NO, inc=40
*Static
0.1, 1., 1.e-8, 0.1
*Boundary, op=MOD
S01, 1, 1, -1.e-4
S02, 1, 1, -1.e-4
S03, 1, 1, -1.e-4
S04, 1, 1, -1.01e-4
S05, 1, 1, -1.e-4
S06, 1, 1, -1.e-4
S07, 1, 1, -1.e-4
S08, 1, 1, -1.e-4
S09, 1, 1, -1.e-4
S10, 1, 1, -1.e-4
S11, 1, 1, -1.e-4
S12, 1, 1, -1.e-4
S13, 1, 1, -1.e-4
*End Step
*Step, name=S04_MINUS, nlgeom=NO, inc=40
*Static
0.1, 1., 1.e-8, 0.1
*Boundary, op=MOD
S01, 1, 1, -1.e-4
S02, 1, 1, -1.e-4
S03, 1, 1, -1.e-4
S04, 1, 1, -9.9e-5
S05, 1, 1, -1.e-4
S06, 1, 1, -1.e-4
S07, 1, 1, -1.e-4
S08, 1, 1, -1.e-4
S09, 1, 1, -1.e-4
S10, 1, 1, -1.e-4
S11, 1, 1, -1.e-4
S12, 1, 1, -1.e-4
S13, 1, 1, -1.e-4
*End Step
*Step, name=S05_PLUS, nlgeom=NO, inc=40
*Static
0.1, 1., 1.e-8, 0.1
*Boundary, op=MOD
S01, 1, 1, -1.e-4
S02, 1, 1, -1.e-4
S03, 1, 1, -1.e-4
S04, 1, 1, -1.e-4
S05, 1, 1, -1.01e-4
S06, 1, 1, -1.e-4
S07, 1, 1, -1.e-4
S08, 1, 1, -1.e-4
S09, 1, 1, -1.e-4
S10, 1, 1, -1.e-4
S11, 1, 1, -1.e-4
S12, 1, 1, -1.e-4
S13, 1, 1, -1.e-4
*End Step
*Step, name=S05_MINUS, nlgeom=NO, inc=40
*Static
0.1, 1., 1.e-8, 0.1
*Boundary, op=MOD
S01, 1, 1, -1.e-4
S02, 1, 1, -1.e-4
S03, 1, 1, -1.e-4
S04, 1, 1, -1.e-4
S05, 1, 1, -9.9e-5
S06, 1, 1, -1.e-4
S07, 1, 1, -1.e-4
S08, 1, 1, -1.e-4
S09, 1, 1, -1.e-4
S10, 1, 1, -1.e-4
S11, 1, 1, -1.e-4
S12, 1, 1, -1.e-4
S13, 1, 1, -1.e-4
*End Step
*Step, name=S06_PLUS, nlgeom=NO, inc=40
*Static
0.1, 1., 1.e-8, 0.1
*Boundary, op=MOD
S01, 1, 1, -1.e-4
S02, 1, 1, -1.e-4
S03, 1, 1, -1.e-4
S04, 1, 1, -1.e-4
S05, 1, 1, -1.e-4
S06, 1, 1, -1.01e-4
S07, 1, 1, -1.e-4
S08, 1, 1, -1.e-4
S09, 1, 1, -1.e-4
S10, 1, 1, -1.e-4
S11, 1, 1, -1.e-4
S12, 1, 1, -1.e-4
S13, 1, 1, -1.e-4
*End Step
*Step, name=S06_MINUS, nlgeom=NO, inc=40
*Static
0.1, 1., 1.e-8, 0.1
*Boundary, op=MOD
S01, 1, 1, -1.e-4
S02, 1, 1, -1.e-4
S03, 1, 1, -1.e-4
S04, 1, 1, -1.e-4
S05, 1, 1, -1.e-4
S06, 1, 1, -9.9e-5
S07, 1, 1, -1.e-4
S08, 1, 1, -1.e-4
S09, 1, 1, -1.e-4
S10, 1, 1, -1.e-4
S11, 1, 1, -1.e-4
S12, 1, 1, -1.e-4
S13, 1, 1, -1.e-4
*End Step
*Step, name=S07_PLUS, nlgeom=NO, inc=40
*Static
0.1, 1., 1.e-8, 0.1
*Boundary, op=MOD
S01, 1, 1, -1.e-4
S02, 1, 1, -1.e-4
S03, 1, 1, -1.e-4
S04, 1, 1, -1.e-4
S05, 1, 1, -1.e-4
S06, 1, 1, -1.e-4
S07, 1, 1, -1.01e-4
S08, 1, 1, -1.e-4
S09, 1, 1, -1.e-4
S10, 1, 1, -1.e-4
S11, 1, 1, -1.e-4
S12, 1, 1, -1.e-4
S13, 1, 1, -1.e-4
*End Step
*Step, name=S07_MINUS, nlgeom=NO, inc=40
*Static
0.1, 1., 1.e-8, 0.1
*Boundary, op=MOD
S01, 1, 1, -1.e-4
S02, 1, 1, -1.e-4
S03, 1, 1, -1.e-4
S04, 1, 1, -1.e-4
S05, 1, 1, -1.e-4
S06, 1, 1, -1.e-4
S07, 1, 1, -9.9e-5
S08, 1, 1, -1.e-4
S09, 1, 1, -1.e-4
S10, 1, 1, -1.e-4
S11, 1, 1, -1.e-4
S12, 1, 1, -1.e-4
S13, 1, 1, -1.e-4
*End Step
*Step, name=S08_PLUS, nlgeom=NO, inc=40
*Static
0.1, 1., 1.e-8, 0.1
*Boundary, op=MOD
S01, 1, 1, -1.e-4
S02, 1, 1, -1.e-4
S03, 1, 1, -1.e-4
S04, 1, 1, -1.e-4
S05, 1, 1, -1.e-4
S06, 1, 1, -1.e-4
S07, 1, 1, -1.e-4
S08, 1, 1, -1.01e-4
S09, 1, 1, -1.e-4
S10, 1, 1, -1.e-4
S11, 1, 1, -1.e-4
S12, 1, 1, -1.e-4
S13, 1, 1, -1.e-4
*End Step
*Step, name=S08_MINUS, nlgeom=NO, inc=40
*Static
0.1, 1., 1.e-8, 0.1
*Boundary, op=MOD
S01, 1, 1, -1.e-4
S02, 1, 1, -1.e-4
S03, 1, 1, -1.e-4
S04, 1, 1, -1.e-4
S05, 1, 1, -1.e-4
S06, 1, 1, -1.e-4
S07, 1, 1, -1.e-4
S08, 1, 1, -9.9e-5
S09, 1, 1, -1.e-4
S10, 1, 1, -1.e-4
S11, 1, 1, -1.e-4
S12, 1, 1, -1.e-4
S13, 1, 1, -1.e-4
*End Step
*Step, name=S09_PLUS, nlgeom=NO, inc=40
*Static
0.1, 1., 1.e-8, 0.1
*Boundary, op=MOD
S01, 1, 1, -1.e-4
S02, 1, 1, -1.e-4
S03, 1, 1, -1.e-4
S04, 1, 1, -1.e-4
S05, 1, 1, -1.e-4
S06, 1, 1, -1.e-4
S07, 1, 1, -1.e-4
S08, 1, 1, -1.e-4
S09, 1, 1, -1.01e-4
S10, 1, 1, -1.e-4
S11, 1, 1, -1.e-4
S12, 1, 1, -1.e-4
S13, 1, 1, -1.e-4
*End Step
*Step, name=S09_MINUS, nlgeom=NO, inc=40
*Static
0.1, 1., 1.e-8, 0.1
*Boundary, op=MOD
S01, 1, 1, -1.e-4
S02, 1, 1, -1.e-4
S03, 1, 1, -1.e-4
S04, 1, 1, -1.e-4
S05, 1, 1, -1.e-4
S06, 1, 1, -1.e-4
S07, 1, 1, -1.e-4
S08, 1, 1, -1.e-4
S09, 1, 1, -9.9e-5
S10, 1, 1, -1.e-4
S11, 1, 1, -1.e-4
S12, 1, 1, -1.e-4
S13, 1, 1, -1.e-4
*End Step
*Step, name=S10_PLUS, nlgeom=NO, inc=40
*Static
0.1, 1., 1.e-8, 0.1
*Boundary, op=MOD
S01, 1, 1, -1.e-4
S02, 1, 1, -1.e-4
S03, 1, 1, -1.e-4
S04, 1, 1, -1.e-4
S05, 1, 1, -1.e-4
S06, 1, 1, -1.e-4
S07, 1, 1, -1.e-4
S08, 1, 1, -1.e-4
S09, 1, 1, -1.e-4
S10, 1, 1, -1.01e-4
S11, 1, 1, -1.e-4
S12, 1, 1, -1.e-4
S13, 1, 1, -1.e-4
*End Step
*Step, name=S10_MINUS, nlgeom=NO, inc=40
*Static
0.1, 1., 1.e-8, 0.1
*Boundary, op=MOD
S01, 1, 1, -1.e-4
S02, 1, 1, -1.e-4
S03, 1, 1, -1.e-4
S04, 1, 1, -1.e-4
S05, 1, 1, -1.e-4
S06, 1, 1, -1.e-4
S07, 1, 1, -1.e-4
S08, 1, 1, -1.e-4
S09, 1, 1, -1.e-4
S10, 1, 1, -9.9e-5
S11, 1, 1, -1.e-4
S12, 1, 1, -1.e-4
S13, 1, 1, -1.e-4
*End Step
*Step, name=S11_PLUS, nlgeom=NO, inc=40
*Static
0.1, 1., 1.e-8, 0.1
*Boundary, op=MOD
S01, 1, 1, -1.e-4
S02, 1, 1, -1.e-4
S03, 1, 1, -1.e-4
S04, 1, 1, -1.e-4
S05, 1, 1, -1.e-4
S06, 1, 1, -1.e-4
S07, 1, 1, -1.e-4
S08, 1, 1, -1.e-4
S09, 1, 1, -1.e-4
S10, 1, 1, -1.e-4
S11, 1, 1, -1.01e-4
S12, 1, 1, -1.e-4
S13, 1, 1, -1.e-4
*End Step
*Step, name=S11_MINUS, nlgeom=NO, inc=40
*Static
0.1, 1., 1.e-8, 0.1
*Boundary, op=MOD
S01, 1, 1, -1.e-4
S02, 1, 1, -1.e-4
S03, 1, 1, -1.e-4
S04, 1, 1, -1.e-4
S05, 1, 1, -1.e-4
S06, 1, 1, -1.e-4
S07, 1, 1, -1.e-4
S08, 1, 1, -1.e-4
S09, 1, 1, -1.e-4
S10, 1, 1, -1.e-4
S11, 1, 1, -9.9e-5
S12, 1, 1, -1.e-4
S13, 1, 1, -1.e-4
*End Step
*Step, name=S12_PLUS, nlgeom=NO, inc=40
*Static
0.1, 1., 1.e-8, 0.1
*Boundary, op=MOD
S01, 1, 1, -1.e-4
S02, 1, 1, -1.e-4
S03, 1, 1, -1.e-4
S04, 1, 1, -1.e-4
S05, 1, 1, -1.e-4
S06, 1, 1, -1.e-4
S07, 1, 1, -1.e-4
S08, 1, 1, -1.e-4
S09, 1, 1, -1.e-4
S10, 1, 1, -1.e-4
S11, 1, 1, -1.e-4
S12, 1, 1, -1.01e-4
S13, 1, 1, -1.e-4
*End Step
*Step, name=S12_MINUS, nlgeom=NO, inc=40
*Static
0.1, 1., 1.e-8, 0.1
*Boundary, op=MOD
S01, 1, 1, -1.e-4
S02, 1, 1, -1.e-4
S03, 1, 1, -1.e-4
S04, 1, 1, -1.e-4
S05, 1, 1, -1.e-4
S06, 1, 1, -1.e-4
S07, 1, 1, -1.e-4
S08, 1, 1, -1.e-4
S09, 1, 1, -1.e-4
S10, 1, 1, -1.e-4
S11, 1, 1, -1.e-4
S12, 1, 1, -9.9e-5
S13, 1, 1, -1.e-4
*End Step
*Step, name=S13_PLUS, nlgeom=NO, inc=40
*Static
0.1, 1., 1.e-8, 0.1
*Boundary, op=MOD
S01, 1, 1, -1.e-4
S02, 1, 1, -1.e-4
S03, 1, 1, -1.e-4
S04, 1, 1, -1.e-4
S05, 1, 1, -1.e-4
S06, 1, 1, -1.e-4
S07, 1, 1, -1.e-4
S08, 1, 1, -1.e-4
S09, 1, 1, -1.e-4
S10, 1, 1, -1.e-4
S11, 1, 1, -1.e-4
S12, 1, 1, -1.e-4
S13, 1, 1, -1.01e-4
*End Step
*Step, name=S13_MINUS, nlgeom=NO, inc=40
*Static
0.1, 1., 1.e-8, 0.1
*Boundary, op=MOD
S01, 1, 1, -1.e-4
S02, 1, 1, -1.e-4
S03, 1, 1, -1.e-4
S04, 1, 1, -1.e-4
S05, 1, 1, -1.e-4
S06, 1, 1, -1.e-4
S07, 1, 1, -1.e-4
S08, 1, 1, -1.e-4
S09, 1, 1, -1.e-4
S10, 1, 1, -1.e-4
S11, 1, 1, -1.e-4
S12, 1, 1, -1.e-4
S13, 1, 1, -9.9e-5
*End Step
*Step, name=OPEN, nlgeom=NO, inc=40
*Static
0.1, 1., 1.e-8, 0.1
*Boundary, op=MOD
S01, 1, 1, 1.e-4
S02, 1, 1, 1.e-4
S03, 1, 1, 1.e-4
S04, 1, 1, 1.e-4
S05, 1, 1, 1.e-4
S06, 1, 1, 1.e-4
S07, 1, 1, 1.e-4
S08, 1, 1, 1.e-4
S09, 1, 1, 1.e-4
S10, 1, 1, 1.e-4
S11, 1, 1, 1.e-4
S12, 1, 1, 1.e-4
S13, 1, 1, 1.e-4
*End Step
*Step, name=RECLOSE, nlgeom=NO, inc=40
*Static
0.1, 1., 1.e-8, 0.1
*Boundary, op=MOD
S01, 1, 1, -1.e-4
S02, 1, 1, -1.e-4
S03, 1, 1, -1.e-4
S04, 1, 1, -1.e-4
S05, 1, 1, -1.e-4
S06, 1, 1, -1.e-4
S07, 1, 1, -1.e-4
S08, 1, 1, -1.e-4
S09, 1, 1, -1.e-4
S10, 1, 1, -1.e-4
S11, 1, 1, -1.e-4
S12, 1, 1, -1.e-4
S13, 1, 1, -1.e-4
*End Step
