*Heading
** H20.28 Abaqus/Standard finite-sliding C3D20 averaging-region refinement probe.
** One secondary face opposes an 32-by-32 primary face mesh.
*Preprint, echo=NO, model=NO, history=NO, contact=YES
*Node
1, 0, 0, 0
2, 1, 0, 0
3, 1, 0.03125, 0
4, 0, 0.03125, 0
5, 0, 0, 0.03125
6, 1, 0, 0.03125
7, 1, 0.03125, 0.03125
8, 0, 0.03125, 0.03125
9, 0.5, 0, 0
10, 1, 0.015625, 0
11, 0.5, 0.03125, 0
12, 0, 0.015625, 0
13, 0.5, 0, 0.03125
14, 1, 0.015625, 0.03125
15, 0.5, 0.03125, 0.03125
16, 0, 0.015625, 0.03125
17, 0, 0, 0.015625
18, 1, 0, 0.015625
19, 1, 0.03125, 0.015625
20, 0, 0.03125, 0.015625
21, 0, 0, 0.0625
22, 1, 0, 0.0625
23, 1, 0.03125, 0.0625
24, 0, 0.03125, 0.0625
25, 0.5, 0, 0.0625
26, 1, 0.015625, 0.0625
27, 0.5, 0.03125, 0.0625
28, 0, 0.015625, 0.0625
29, 0, 0, 0.046875
30, 1, 0, 0.046875
31, 1, 0.03125, 0.046875
32, 0, 0.03125, 0.046875
33, 0, 0, 0.09375
34, 1, 0, 0.09375
35, 1, 0.03125, 0.09375
36, 0, 0.03125, 0.09375
37, 0.5, 0, 0.09375
38, 1, 0.015625, 0.09375
39, 0.5, 0.03125, 0.09375
40, 0, 0.015625, 0.09375
41, 0, 0, 0.078125
42, 1, 0, 0.078125
43, 1, 0.03125, 0.078125
44, 0, 0.03125, 0.078125
45, 0, 0, 0.125
46, 1, 0, 0.125
47, 1, 0.03125, 0.125
48, 0, 0.03125, 0.125
49, 0.5, 0, 0.125
50, 1, 0.015625, 0.125
51, 0.5, 0.03125, 0.125
52, 0, 0.015625, 0.125
53, 0, 0, 0.109375
54, 1, 0, 0.109375
55, 1, 0.03125, 0.109375
56, 0, 0.03125, 0.109375
57, 0, 0, 0.15625
58, 1, 0, 0.15625
59, 1, 0.03125, 0.15625
60, 0, 0.03125, 0.15625
61, 0.5, 0, 0.15625
62, 1, 0.015625, 0.15625
63, 0.5, 0.03125, 0.15625
64, 0, 0.015625, 0.15625
65, 0, 0, 0.140625
66, 1, 0, 0.140625
67, 1, 0.03125, 0.140625
68, 0, 0.03125, 0.140625
69, 0, 0, 0.1875
70, 1, 0, 0.1875
71, 1, 0.03125, 0.1875
72, 0, 0.03125, 0.1875
73, 0.5, 0, 0.1875
74, 1, 0.015625, 0.1875
75, 0.5, 0.03125, 0.1875
76, 0, 0.015625, 0.1875
77, 0, 0, 0.171875
78, 1, 0, 0.171875
79, 1, 0.03125, 0.171875
80, 0, 0.03125, 0.171875
81, 0, 0, 0.21875
82, 1, 0, 0.21875
83, 1, 0.03125, 0.21875
84, 0, 0.03125, 0.21875
85, 0.5, 0, 0.21875
86, 1, 0.015625, 0.21875
87, 0.5, 0.03125, 0.21875
88, 0, 0.015625, 0.21875
89, 0, 0, 0.203125
90, 1, 0, 0.203125
91, 1, 0.03125, 0.203125
92, 0, 0.03125, 0.203125
93, 0, 0, 0.25
94, 1, 0, 0.25
95, 1, 0.03125, 0.25
96, 0, 0.03125, 0.25
97, 0.5, 0, 0.25
98, 1, 0.015625, 0.25
99, 0.5, 0.03125, 0.25
100, 0, 0.015625, 0.25
101, 0, 0, 0.234375
102, 1, 0, 0.234375
103, 1, 0.03125, 0.234375
104, 0, 0.03125, 0.234375
105, 0, 0, 0.28125
106, 1, 0, 0.28125
107, 1, 0.03125, 0.28125
108, 0, 0.03125, 0.28125
109, 0.5, 0, 0.28125
110, 1, 0.015625, 0.28125
111, 0.5, 0.03125, 0.28125
112, 0, 0.015625, 0.28125
113, 0, 0, 0.265625
114, 1, 0, 0.265625
115, 1, 0.03125, 0.265625
116, 0, 0.03125, 0.265625
117, 0, 0, 0.3125
118, 1, 0, 0.3125
119, 1, 0.03125, 0.3125
120, 0, 0.03125, 0.3125
121, 0.5, 0, 0.3125
122, 1, 0.015625, 0.3125
123, 0.5, 0.03125, 0.3125
124, 0, 0.015625, 0.3125
125, 0, 0, 0.296875
126, 1, 0, 0.296875
127, 1, 0.03125, 0.296875
128, 0, 0.03125, 0.296875
129, 0, 0, 0.34375
130, 1, 0, 0.34375
131, 1, 0.03125, 0.34375
132, 0, 0.03125, 0.34375
133, 0.5, 0, 0.34375
134, 1, 0.015625, 0.34375
135, 0.5, 0.03125, 0.34375
136, 0, 0.015625, 0.34375
137, 0, 0, 0.328125
138, 1, 0, 0.328125
139, 1, 0.03125, 0.328125
140, 0, 0.03125, 0.328125
141, 0, 0, 0.375
142, 1, 0, 0.375
143, 1, 0.03125, 0.375
144, 0, 0.03125, 0.375
145, 0.5, 0, 0.375
146, 1, 0.015625, 0.375
147, 0.5, 0.03125, 0.375
148, 0, 0.015625, 0.375
149, 0, 0, 0.359375
150, 1, 0, 0.359375
151, 1, 0.03125, 0.359375
152, 0, 0.03125, 0.359375
153, 0, 0, 0.40625
154, 1, 0, 0.40625
155, 1, 0.03125, 0.40625
156, 0, 0.03125, 0.40625
157, 0.5, 0, 0.40625
158, 1, 0.015625, 0.40625
159, 0.5, 0.03125, 0.40625
160, 0, 0.015625, 0.40625
161, 0, 0, 0.390625
162, 1, 0, 0.390625
163, 1, 0.03125, 0.390625
164, 0, 0.03125, 0.390625
165, 0, 0, 0.4375
166, 1, 0, 0.4375
167, 1, 0.03125, 0.4375
168, 0, 0.03125, 0.4375
169, 0.5, 0, 0.4375
170, 1, 0.015625, 0.4375
171, 0.5, 0.03125, 0.4375
172, 0, 0.015625, 0.4375
173, 0, 0, 0.421875
174, 1, 0, 0.421875
175, 1, 0.03125, 0.421875
176, 0, 0.03125, 0.421875
177, 0, 0, 0.46875
178, 1, 0, 0.46875
179, 1, 0.03125, 0.46875
180, 0, 0.03125, 0.46875
181, 0.5, 0, 0.46875
182, 1, 0.015625, 0.46875
183, 0.5, 0.03125, 0.46875
184, 0, 0.015625, 0.46875
185, 0, 0, 0.453125
186, 1, 0, 0.453125
187, 1, 0.03125, 0.453125
188, 0, 0.03125, 0.453125
189, 0, 0, 0.5
190, 1, 0, 0.5
191, 1, 0.03125, 0.5
192, 0, 0.03125, 0.5
193, 0.5, 0, 0.5
194, 1, 0.015625, 0.5
195, 0.5, 0.03125, 0.5
196, 0, 0.015625, 0.5
197, 0, 0, 0.484375
198, 1, 0, 0.484375
199, 1, 0.03125, 0.484375
200, 0, 0.03125, 0.484375
201, 0, 0, 0.53125
202, 1, 0, 0.53125
203, 1, 0.03125, 0.53125
204, 0, 0.03125, 0.53125
205, 0.5, 0, 0.53125
206, 1, 0.015625, 0.53125
207, 0.5, 0.03125, 0.53125
208, 0, 0.015625, 0.53125
209, 0, 0, 0.515625
210, 1, 0, 0.515625
211, 1, 0.03125, 0.515625
212, 0, 0.03125, 0.515625
213, 0, 0, 0.5625
214, 1, 0, 0.5625
215, 1, 0.03125, 0.5625
216, 0, 0.03125, 0.5625
217, 0.5, 0, 0.5625
218, 1, 0.015625, 0.5625
219, 0.5, 0.03125, 0.5625
220, 0, 0.015625, 0.5625
221, 0, 0, 0.546875
222, 1, 0, 0.546875
223, 1, 0.03125, 0.546875
224, 0, 0.03125, 0.546875
225, 0, 0, 0.59375
226, 1, 0, 0.59375
227, 1, 0.03125, 0.59375
228, 0, 0.03125, 0.59375
229, 0.5, 0, 0.59375
230, 1, 0.015625, 0.59375
231, 0.5, 0.03125, 0.59375
232, 0, 0.015625, 0.59375
233, 0, 0, 0.578125
234, 1, 0, 0.578125
235, 1, 0.03125, 0.578125
236, 0, 0.03125, 0.578125
237, 0, 0, 0.625
238, 1, 0, 0.625
239, 1, 0.03125, 0.625
240, 0, 0.03125, 0.625
241, 0.5, 0, 0.625
242, 1, 0.015625, 0.625
243, 0.5, 0.03125, 0.625
244, 0, 0.015625, 0.625
245, 0, 0, 0.609375
246, 1, 0, 0.609375
247, 1, 0.03125, 0.609375
248, 0, 0.03125, 0.609375
249, 0, 0, 0.65625
250, 1, 0, 0.65625
251, 1, 0.03125, 0.65625
252, 0, 0.03125, 0.65625
253, 0.5, 0, 0.65625
254, 1, 0.015625, 0.65625
255, 0.5, 0.03125, 0.65625
256, 0, 0.015625, 0.65625
257, 0, 0, 0.640625
258, 1, 0, 0.640625
259, 1, 0.03125, 0.640625
260, 0, 0.03125, 0.640625
261, 0, 0, 0.6875
262, 1, 0, 0.6875
263, 1, 0.03125, 0.6875
264, 0, 0.03125, 0.6875
265, 0.5, 0, 0.6875
266, 1, 0.015625, 0.6875
267, 0.5, 0.03125, 0.6875
268, 0, 0.015625, 0.6875
269, 0, 0, 0.671875
270, 1, 0, 0.671875
271, 1, 0.03125, 0.671875
272, 0, 0.03125, 0.671875
273, 0, 0, 0.71875
274, 1, 0, 0.71875
275, 1, 0.03125, 0.71875
276, 0, 0.03125, 0.71875
277, 0.5, 0, 0.71875
278, 1, 0.015625, 0.71875
279, 0.5, 0.03125, 0.71875
280, 0, 0.015625, 0.71875
281, 0, 0, 0.703125
282, 1, 0, 0.703125
283, 1, 0.03125, 0.703125
284, 0, 0.03125, 0.703125
285, 0, 0, 0.75
286, 1, 0, 0.75
287, 1, 0.03125, 0.75
288, 0, 0.03125, 0.75
289, 0.5, 0, 0.75
290, 1, 0.015625, 0.75
291, 0.5, 0.03125, 0.75
292, 0, 0.015625, 0.75
293, 0, 0, 0.734375
294, 1, 0, 0.734375
295, 1, 0.03125, 0.734375
296, 0, 0.03125, 0.734375
297, 0, 0, 0.78125
298, 1, 0, 0.78125
299, 1, 0.03125, 0.78125
300, 0, 0.03125, 0.78125
301, 0.5, 0, 0.78125
302, 1, 0.015625, 0.78125
303, 0.5, 0.03125, 0.78125
304, 0, 0.015625, 0.78125
305, 0, 0, 0.765625
306, 1, 0, 0.765625
307, 1, 0.03125, 0.765625
308, 0, 0.03125, 0.765625
309, 0, 0, 0.8125
310, 1, 0, 0.8125
311, 1, 0.03125, 0.8125
312, 0, 0.03125, 0.8125
313, 0.5, 0, 0.8125
314, 1, 0.015625, 0.8125
315, 0.5, 0.03125, 0.8125
316, 0, 0.015625, 0.8125
317, 0, 0, 0.796875
318, 1, 0, 0.796875
319, 1, 0.03125, 0.796875
320, 0, 0.03125, 0.796875
321, 0, 0, 0.84375
322, 1, 0, 0.84375
323, 1, 0.03125, 0.84375
324, 0, 0.03125, 0.84375
325, 0.5, 0, 0.84375
326, 1, 0.015625, 0.84375
327, 0.5, 0.03125, 0.84375
328, 0, 0.015625, 0.84375
329, 0, 0, 0.828125
330, 1, 0, 0.828125
331, 1, 0.03125, 0.828125
332, 0, 0.03125, 0.828125
333, 0, 0, 0.875
334, 1, 0, 0.875
335, 1, 0.03125, 0.875
336, 0, 0.03125, 0.875
337, 0.5, 0, 0.875
338, 1, 0.015625, 0.875
339, 0.5, 0.03125, 0.875
340, 0, 0.015625, 0.875
341, 0, 0, 0.859375
342, 1, 0, 0.859375
343, 1, 0.03125, 0.859375
344, 0, 0.03125, 0.859375
345, 0, 0, 0.90625
346, 1, 0, 0.90625
347, 1, 0.03125, 0.90625
348, 0, 0.03125, 0.90625
349, 0.5, 0, 0.90625
350, 1, 0.015625, 0.90625
351, 0.5, 0.03125, 0.90625
352, 0, 0.015625, 0.90625
353, 0, 0, 0.890625
354, 1, 0, 0.890625
355, 1, 0.03125, 0.890625
356, 0, 0.03125, 0.890625
357, 0, 0, 0.9375
358, 1, 0, 0.9375
359, 1, 0.03125, 0.9375
360, 0, 0.03125, 0.9375
361, 0.5, 0, 0.9375
362, 1, 0.015625, 0.9375
363, 0.5, 0.03125, 0.9375
364, 0, 0.015625, 0.9375
365, 0, 0, 0.921875
366, 1, 0, 0.921875
367, 1, 0.03125, 0.921875
368, 0, 0.03125, 0.921875
369, 0, 0, 0.96875
370, 1, 0, 0.96875
371, 1, 0.03125, 0.96875
372, 0, 0.03125, 0.96875
373, 0.5, 0, 0.96875
374, 1, 0.015625, 0.96875
375, 0.5, 0.03125, 0.96875
376, 0, 0.015625, 0.96875
377, 0, 0, 0.953125
378, 1, 0, 0.953125
379, 1, 0.03125, 0.953125
380, 0, 0.03125, 0.953125
381, 0, 0, 1
382, 1, 0, 1
383, 1, 0.03125, 1
384, 0, 0.03125, 1
385, 0.5, 0, 1
386, 1, 0.015625, 1
387, 0.5, 0.03125, 1
388, 0, 0.015625, 1
389, 0, 0, 0.984375
390, 1, 0, 0.984375
391, 1, 0.03125, 0.984375
392, 0, 0.03125, 0.984375
393, 1, 0.0625, 0
394, 0, 0.0625, 0
395, 1, 0.0625, 0.03125
396, 0, 0.0625, 0.03125
397, 1, 0.046875, 0
398, 0.5, 0.0625, 0
399, 0, 0.046875, 0
400, 1, 0.046875, 0.03125
401, 0.5, 0.0625, 0.03125
402, 0, 0.046875, 0.03125
403, 1, 0.0625, 0.015625
404, 0, 0.0625, 0.015625
405, 1, 0.0625, 0.0625
406, 0, 0.0625, 0.0625
407, 1, 0.046875, 0.0625
408, 0.5, 0.0625, 0.0625
409, 0, 0.046875, 0.0625
410, 1, 0.0625, 0.046875
411, 0, 0.0625, 0.046875
412, 1, 0.0625, 0.09375
413, 0, 0.0625, 0.09375
414, 1, 0.046875, 0.09375
415, 0.5, 0.0625, 0.09375
416, 0, 0.046875, 0.09375
417, 1, 0.0625, 0.078125
418, 0, 0.0625, 0.078125
419, 1, 0.0625, 0.125
420, 0, 0.0625, 0.125
421, 1, 0.046875, 0.125
422, 0.5, 0.0625, 0.125
423, 0, 0.046875, 0.125
424, 1, 0.0625, 0.109375
425, 0, 0.0625, 0.109375
426, 1, 0.0625, 0.15625
427, 0, 0.0625, 0.15625
428, 1, 0.046875, 0.15625
429, 0.5, 0.0625, 0.15625
430, 0, 0.046875, 0.15625
431, 1, 0.0625, 0.140625
432, 0, 0.0625, 0.140625
433, 1, 0.0625, 0.1875
434, 0, 0.0625, 0.1875
435, 1, 0.046875, 0.1875
436, 0.5, 0.0625, 0.1875
437, 0, 0.046875, 0.1875
438, 1, 0.0625, 0.171875
439, 0, 0.0625, 0.171875
440, 1, 0.0625, 0.21875
441, 0, 0.0625, 0.21875
442, 1, 0.046875, 0.21875
443, 0.5, 0.0625, 0.21875
444, 0, 0.046875, 0.21875
445, 1, 0.0625, 0.203125
446, 0, 0.0625, 0.203125
447, 1, 0.0625, 0.25
448, 0, 0.0625, 0.25
449, 1, 0.046875, 0.25
450, 0.5, 0.0625, 0.25
451, 0, 0.046875, 0.25
452, 1, 0.0625, 0.234375
453, 0, 0.0625, 0.234375
454, 1, 0.0625, 0.28125
455, 0, 0.0625, 0.28125
456, 1, 0.046875, 0.28125
457, 0.5, 0.0625, 0.28125
458, 0, 0.046875, 0.28125
459, 1, 0.0625, 0.265625
460, 0, 0.0625, 0.265625
461, 1, 0.0625, 0.3125
462, 0, 0.0625, 0.3125
463, 1, 0.046875, 0.3125
464, 0.5, 0.0625, 0.3125
465, 0, 0.046875, 0.3125
466, 1, 0.0625, 0.296875
467, 0, 0.0625, 0.296875
468, 1, 0.0625, 0.34375
469, 0, 0.0625, 0.34375
470, 1, 0.046875, 0.34375
471, 0.5, 0.0625, 0.34375
472, 0, 0.046875, 0.34375
473, 1, 0.0625, 0.328125
474, 0, 0.0625, 0.328125
475, 1, 0.0625, 0.375
476, 0, 0.0625, 0.375
477, 1, 0.046875, 0.375
478, 0.5, 0.0625, 0.375
479, 0, 0.046875, 0.375
480, 1, 0.0625, 0.359375
481, 0, 0.0625, 0.359375
482, 1, 0.0625, 0.40625
483, 0, 0.0625, 0.40625
484, 1, 0.046875, 0.40625
485, 0.5, 0.0625, 0.40625
486, 0, 0.046875, 0.40625
487, 1, 0.0625, 0.390625
488, 0, 0.0625, 0.390625
489, 1, 0.0625, 0.4375
490, 0, 0.0625, 0.4375
491, 1, 0.046875, 0.4375
492, 0.5, 0.0625, 0.4375
493, 0, 0.046875, 0.4375
494, 1, 0.0625, 0.421875
495, 0, 0.0625, 0.421875
496, 1, 0.0625, 0.46875
497, 0, 0.0625, 0.46875
498, 1, 0.046875, 0.46875
499, 0.5, 0.0625, 0.46875
500, 0, 0.046875, 0.46875
501, 1, 0.0625, 0.453125
502, 0, 0.0625, 0.453125
503, 1, 0.0625, 0.5
504, 0, 0.0625, 0.5
505, 1, 0.046875, 0.5
506, 0.5, 0.0625, 0.5
507, 0, 0.046875, 0.5
508, 1, 0.0625, 0.484375
509, 0, 0.0625, 0.484375
510, 1, 0.0625, 0.53125
511, 0, 0.0625, 0.53125
512, 1, 0.046875, 0.53125
513, 0.5, 0.0625, 0.53125
514, 0, 0.046875, 0.53125
515, 1, 0.0625, 0.515625
516, 0, 0.0625, 0.515625
517, 1, 0.0625, 0.5625
518, 0, 0.0625, 0.5625
519, 1, 0.046875, 0.5625
520, 0.5, 0.0625, 0.5625
521, 0, 0.046875, 0.5625
522, 1, 0.0625, 0.546875
523, 0, 0.0625, 0.546875
524, 1, 0.0625, 0.59375
525, 0, 0.0625, 0.59375
526, 1, 0.046875, 0.59375
527, 0.5, 0.0625, 0.59375
528, 0, 0.046875, 0.59375
529, 1, 0.0625, 0.578125
530, 0, 0.0625, 0.578125
531, 1, 0.0625, 0.625
532, 0, 0.0625, 0.625
533, 1, 0.046875, 0.625
534, 0.5, 0.0625, 0.625
535, 0, 0.046875, 0.625
536, 1, 0.0625, 0.609375
537, 0, 0.0625, 0.609375
538, 1, 0.0625, 0.65625
539, 0, 0.0625, 0.65625
540, 1, 0.046875, 0.65625
541, 0.5, 0.0625, 0.65625
542, 0, 0.046875, 0.65625
543, 1, 0.0625, 0.640625
544, 0, 0.0625, 0.640625
545, 1, 0.0625, 0.6875
546, 0, 0.0625, 0.6875
547, 1, 0.046875, 0.6875
548, 0.5, 0.0625, 0.6875
549, 0, 0.046875, 0.6875
550, 1, 0.0625, 0.671875
551, 0, 0.0625, 0.671875
552, 1, 0.0625, 0.71875
553, 0, 0.0625, 0.71875
554, 1, 0.046875, 0.71875
555, 0.5, 0.0625, 0.71875
556, 0, 0.046875, 0.71875
557, 1, 0.0625, 0.703125
558, 0, 0.0625, 0.703125
559, 1, 0.0625, 0.75
560, 0, 0.0625, 0.75
561, 1, 0.046875, 0.75
562, 0.5, 0.0625, 0.75
563, 0, 0.046875, 0.75
564, 1, 0.0625, 0.734375
565, 0, 0.0625, 0.734375
566, 1, 0.0625, 0.78125
567, 0, 0.0625, 0.78125
568, 1, 0.046875, 0.78125
569, 0.5, 0.0625, 0.78125
570, 0, 0.046875, 0.78125
571, 1, 0.0625, 0.765625
572, 0, 0.0625, 0.765625
573, 1, 0.0625, 0.8125
574, 0, 0.0625, 0.8125
575, 1, 0.046875, 0.8125
576, 0.5, 0.0625, 0.8125
577, 0, 0.046875, 0.8125
578, 1, 0.0625, 0.796875
579, 0, 0.0625, 0.796875
580, 1, 0.0625, 0.84375
581, 0, 0.0625, 0.84375
582, 1, 0.046875, 0.84375
583, 0.5, 0.0625, 0.84375
584, 0, 0.046875, 0.84375
585, 1, 0.0625, 0.828125
586, 0, 0.0625, 0.828125
587, 1, 0.0625, 0.875
588, 0, 0.0625, 0.875
589, 1, 0.046875, 0.875
590, 0.5, 0.0625, 0.875
591, 0, 0.046875, 0.875
592, 1, 0.0625, 0.859375
593, 0, 0.0625, 0.859375
594, 1, 0.0625, 0.90625
595, 0, 0.0625, 0.90625
596, 1, 0.046875, 0.90625
597, 0.5, 0.0625, 0.90625
598, 0, 0.046875, 0.90625
599, 1, 0.0625, 0.890625
600, 0, 0.0625, 0.890625
601, 1, 0.0625, 0.9375
602, 0, 0.0625, 0.9375
603, 1, 0.046875, 0.9375
604, 0.5, 0.0625, 0.9375
605, 0, 0.046875, 0.9375
606, 1, 0.0625, 0.921875
607, 0, 0.0625, 0.921875
608, 1, 0.0625, 0.96875
609, 0, 0.0625, 0.96875
610, 1, 0.046875, 0.96875
611, 0.5, 0.0625, 0.96875
612, 0, 0.046875, 0.96875
613, 1, 0.0625, 0.953125
614, 0, 0.0625, 0.953125
615, 1, 0.0625, 1
616, 0, 0.0625, 1
617, 1, 0.046875, 1
618, 0.5, 0.0625, 1
619, 0, 0.046875, 1
620, 1, 0.0625, 0.984375
621, 0, 0.0625, 0.984375
622, 1, 0.09375, 0
623, 0, 0.09375, 0
624, 1, 0.09375, 0.03125
625, 0, 0.09375, 0.03125
626, 1, 0.078125, 0
627, 0.5, 0.09375, 0
628, 0, 0.078125, 0
629, 1, 0.078125, 0.03125
630, 0.5, 0.09375, 0.03125
631, 0, 0.078125, 0.03125
632, 1, 0.09375, 0.015625
633, 0, 0.09375, 0.015625
634, 1, 0.09375, 0.0625
635, 0, 0.09375, 0.0625
636, 1, 0.078125, 0.0625
637, 0.5, 0.09375, 0.0625
638, 0, 0.078125, 0.0625
639, 1, 0.09375, 0.046875
640, 0, 0.09375, 0.046875
641, 1, 0.09375, 0.09375
642, 0, 0.09375, 0.09375
643, 1, 0.078125, 0.09375
644, 0.5, 0.09375, 0.09375
645, 0, 0.078125, 0.09375
646, 1, 0.09375, 0.078125
647, 0, 0.09375, 0.078125
648, 1, 0.09375, 0.125
649, 0, 0.09375, 0.125
650, 1, 0.078125, 0.125
651, 0.5, 0.09375, 0.125
652, 0, 0.078125, 0.125
653, 1, 0.09375, 0.109375
654, 0, 0.09375, 0.109375
655, 1, 0.09375, 0.15625
656, 0, 0.09375, 0.15625
657, 1, 0.078125, 0.15625
658, 0.5, 0.09375, 0.15625
659, 0, 0.078125, 0.15625
660, 1, 0.09375, 0.140625
661, 0, 0.09375, 0.140625
662, 1, 0.09375, 0.1875
663, 0, 0.09375, 0.1875
664, 1, 0.078125, 0.1875
665, 0.5, 0.09375, 0.1875
666, 0, 0.078125, 0.1875
667, 1, 0.09375, 0.171875
668, 0, 0.09375, 0.171875
669, 1, 0.09375, 0.21875
670, 0, 0.09375, 0.21875
671, 1, 0.078125, 0.21875
672, 0.5, 0.09375, 0.21875
673, 0, 0.078125, 0.21875
674, 1, 0.09375, 0.203125
675, 0, 0.09375, 0.203125
676, 1, 0.09375, 0.25
677, 0, 0.09375, 0.25
678, 1, 0.078125, 0.25
679, 0.5, 0.09375, 0.25
680, 0, 0.078125, 0.25
681, 1, 0.09375, 0.234375
682, 0, 0.09375, 0.234375
683, 1, 0.09375, 0.28125
684, 0, 0.09375, 0.28125
685, 1, 0.078125, 0.28125
686, 0.5, 0.09375, 0.28125
687, 0, 0.078125, 0.28125
688, 1, 0.09375, 0.265625
689, 0, 0.09375, 0.265625
690, 1, 0.09375, 0.3125
691, 0, 0.09375, 0.3125
692, 1, 0.078125, 0.3125
693, 0.5, 0.09375, 0.3125
694, 0, 0.078125, 0.3125
695, 1, 0.09375, 0.296875
696, 0, 0.09375, 0.296875
697, 1, 0.09375, 0.34375
698, 0, 0.09375, 0.34375
699, 1, 0.078125, 0.34375
700, 0.5, 0.09375, 0.34375
701, 0, 0.078125, 0.34375
702, 1, 0.09375, 0.328125
703, 0, 0.09375, 0.328125
704, 1, 0.09375, 0.375
705, 0, 0.09375, 0.375
706, 1, 0.078125, 0.375
707, 0.5, 0.09375, 0.375
708, 0, 0.078125, 0.375
709, 1, 0.09375, 0.359375
710, 0, 0.09375, 0.359375
711, 1, 0.09375, 0.40625
712, 0, 0.09375, 0.40625
713, 1, 0.078125, 0.40625
714, 0.5, 0.09375, 0.40625
715, 0, 0.078125, 0.40625
716, 1, 0.09375, 0.390625
717, 0, 0.09375, 0.390625
718, 1, 0.09375, 0.4375
719, 0, 0.09375, 0.4375
720, 1, 0.078125, 0.4375
721, 0.5, 0.09375, 0.4375
722, 0, 0.078125, 0.4375
723, 1, 0.09375, 0.421875
724, 0, 0.09375, 0.421875
725, 1, 0.09375, 0.46875
726, 0, 0.09375, 0.46875
727, 1, 0.078125, 0.46875
728, 0.5, 0.09375, 0.46875
729, 0, 0.078125, 0.46875
730, 1, 0.09375, 0.453125
731, 0, 0.09375, 0.453125
732, 1, 0.09375, 0.5
733, 0, 0.09375, 0.5
734, 1, 0.078125, 0.5
735, 0.5, 0.09375, 0.5
736, 0, 0.078125, 0.5
737, 1, 0.09375, 0.484375
738, 0, 0.09375, 0.484375
739, 1, 0.09375, 0.53125
740, 0, 0.09375, 0.53125
741, 1, 0.078125, 0.53125
742, 0.5, 0.09375, 0.53125
743, 0, 0.078125, 0.53125
744, 1, 0.09375, 0.515625
745, 0, 0.09375, 0.515625
746, 1, 0.09375, 0.5625
747, 0, 0.09375, 0.5625
748, 1, 0.078125, 0.5625
749, 0.5, 0.09375, 0.5625
750, 0, 0.078125, 0.5625
751, 1, 0.09375, 0.546875
752, 0, 0.09375, 0.546875
753, 1, 0.09375, 0.59375
754, 0, 0.09375, 0.59375
755, 1, 0.078125, 0.59375
756, 0.5, 0.09375, 0.59375
757, 0, 0.078125, 0.59375
758, 1, 0.09375, 0.578125
759, 0, 0.09375, 0.578125
760, 1, 0.09375, 0.625
761, 0, 0.09375, 0.625
762, 1, 0.078125, 0.625
763, 0.5, 0.09375, 0.625
764, 0, 0.078125, 0.625
765, 1, 0.09375, 0.609375
766, 0, 0.09375, 0.609375
767, 1, 0.09375, 0.65625
768, 0, 0.09375, 0.65625
769, 1, 0.078125, 0.65625
770, 0.5, 0.09375, 0.65625
771, 0, 0.078125, 0.65625
772, 1, 0.09375, 0.640625
773, 0, 0.09375, 0.640625
774, 1, 0.09375, 0.6875
775, 0, 0.09375, 0.6875
776, 1, 0.078125, 0.6875
777, 0.5, 0.09375, 0.6875
778, 0, 0.078125, 0.6875
779, 1, 0.09375, 0.671875
780, 0, 0.09375, 0.671875
781, 1, 0.09375, 0.71875
782, 0, 0.09375, 0.71875
783, 1, 0.078125, 0.71875
784, 0.5, 0.09375, 0.71875
785, 0, 0.078125, 0.71875
786, 1, 0.09375, 0.703125
787, 0, 0.09375, 0.703125
788, 1, 0.09375, 0.75
789, 0, 0.09375, 0.75
790, 1, 0.078125, 0.75
791, 0.5, 0.09375, 0.75
792, 0, 0.078125, 0.75
793, 1, 0.09375, 0.734375
794, 0, 0.09375, 0.734375
795, 1, 0.09375, 0.78125
796, 0, 0.09375, 0.78125
797, 1, 0.078125, 0.78125
798, 0.5, 0.09375, 0.78125
799, 0, 0.078125, 0.78125
800, 1, 0.09375, 0.765625
801, 0, 0.09375, 0.765625
802, 1, 0.09375, 0.8125
803, 0, 0.09375, 0.8125
804, 1, 0.078125, 0.8125
805, 0.5, 0.09375, 0.8125
806, 0, 0.078125, 0.8125
807, 1, 0.09375, 0.796875
808, 0, 0.09375, 0.796875
809, 1, 0.09375, 0.84375
810, 0, 0.09375, 0.84375
811, 1, 0.078125, 0.84375
812, 0.5, 0.09375, 0.84375
813, 0, 0.078125, 0.84375
814, 1, 0.09375, 0.828125
815, 0, 0.09375, 0.828125
816, 1, 0.09375, 0.875
817, 0, 0.09375, 0.875
818, 1, 0.078125, 0.875
819, 0.5, 0.09375, 0.875
820, 0, 0.078125, 0.875
821, 1, 0.09375, 0.859375
822, 0, 0.09375, 0.859375
823, 1, 0.09375, 0.90625
824, 0, 0.09375, 0.90625
825, 1, 0.078125, 0.90625
826, 0.5, 0.09375, 0.90625
827, 0, 0.078125, 0.90625
828, 1, 0.09375, 0.890625
829, 0, 0.09375, 0.890625
830, 1, 0.09375, 0.9375
831, 0, 0.09375, 0.9375
832, 1, 0.078125, 0.9375
833, 0.5, 0.09375, 0.9375
834, 0, 0.078125, 0.9375
835, 1, 0.09375, 0.921875
836, 0, 0.09375, 0.921875
837, 1, 0.09375, 0.96875
838, 0, 0.09375, 0.96875
839, 1, 0.078125, 0.96875
840, 0.5, 0.09375, 0.96875
841, 0, 0.078125, 0.96875
842, 1, 0.09375, 0.953125
843, 0, 0.09375, 0.953125
844, 1, 0.09375, 1
845, 0, 0.09375, 1
846, 1, 0.078125, 1
847, 0.5, 0.09375, 1
848, 0, 0.078125, 1
849, 1, 0.09375, 0.984375
850, 0, 0.09375, 0.984375
851, 1, 0.125, 0
852, 0, 0.125, 0
853, 1, 0.125, 0.03125
854, 0, 0.125, 0.03125
855, 1, 0.109375, 0
856, 0.5, 0.125, 0
857, 0, 0.109375, 0
858, 1, 0.109375, 0.03125
859, 0.5, 0.125, 0.03125
860, 0, 0.109375, 0.03125
861, 1, 0.125, 0.015625
862, 0, 0.125, 0.015625
863, 1, 0.125, 0.0625
864, 0, 0.125, 0.0625
865, 1, 0.109375, 0.0625
866, 0.5, 0.125, 0.0625
867, 0, 0.109375, 0.0625
868, 1, 0.125, 0.046875
869, 0, 0.125, 0.046875
870, 1, 0.125, 0.09375
871, 0, 0.125, 0.09375
872, 1, 0.109375, 0.09375
873, 0.5, 0.125, 0.09375
874, 0, 0.109375, 0.09375
875, 1, 0.125, 0.078125
876, 0, 0.125, 0.078125
877, 1, 0.125, 0.125
878, 0, 0.125, 0.125
879, 1, 0.109375, 0.125
880, 0.5, 0.125, 0.125
881, 0, 0.109375, 0.125
882, 1, 0.125, 0.109375
883, 0, 0.125, 0.109375
884, 1, 0.125, 0.15625
885, 0, 0.125, 0.15625
886, 1, 0.109375, 0.15625
887, 0.5, 0.125, 0.15625
888, 0, 0.109375, 0.15625
889, 1, 0.125, 0.140625
890, 0, 0.125, 0.140625
891, 1, 0.125, 0.1875
892, 0, 0.125, 0.1875
893, 1, 0.109375, 0.1875
894, 0.5, 0.125, 0.1875
895, 0, 0.109375, 0.1875
896, 1, 0.125, 0.171875
897, 0, 0.125, 0.171875
898, 1, 0.125, 0.21875
899, 0, 0.125, 0.21875
900, 1, 0.109375, 0.21875
901, 0.5, 0.125, 0.21875
902, 0, 0.109375, 0.21875
903, 1, 0.125, 0.203125
904, 0, 0.125, 0.203125
905, 1, 0.125, 0.25
906, 0, 0.125, 0.25
907, 1, 0.109375, 0.25
908, 0.5, 0.125, 0.25
909, 0, 0.109375, 0.25
910, 1, 0.125, 0.234375
911, 0, 0.125, 0.234375
912, 1, 0.125, 0.28125
913, 0, 0.125, 0.28125
914, 1, 0.109375, 0.28125
915, 0.5, 0.125, 0.28125
916, 0, 0.109375, 0.28125
917, 1, 0.125, 0.265625
918, 0, 0.125, 0.265625
919, 1, 0.125, 0.3125
920, 0, 0.125, 0.3125
921, 1, 0.109375, 0.3125
922, 0.5, 0.125, 0.3125
923, 0, 0.109375, 0.3125
924, 1, 0.125, 0.296875
925, 0, 0.125, 0.296875
926, 1, 0.125, 0.34375
927, 0, 0.125, 0.34375
928, 1, 0.109375, 0.34375
929, 0.5, 0.125, 0.34375
930, 0, 0.109375, 0.34375
931, 1, 0.125, 0.328125
932, 0, 0.125, 0.328125
933, 1, 0.125, 0.375
934, 0, 0.125, 0.375
935, 1, 0.109375, 0.375
936, 0.5, 0.125, 0.375
937, 0, 0.109375, 0.375
938, 1, 0.125, 0.359375
939, 0, 0.125, 0.359375
940, 1, 0.125, 0.40625
941, 0, 0.125, 0.40625
942, 1, 0.109375, 0.40625
943, 0.5, 0.125, 0.40625
944, 0, 0.109375, 0.40625
945, 1, 0.125, 0.390625
946, 0, 0.125, 0.390625
947, 1, 0.125, 0.4375
948, 0, 0.125, 0.4375
949, 1, 0.109375, 0.4375
950, 0.5, 0.125, 0.4375
951, 0, 0.109375, 0.4375
952, 1, 0.125, 0.421875
953, 0, 0.125, 0.421875
954, 1, 0.125, 0.46875
955, 0, 0.125, 0.46875
956, 1, 0.109375, 0.46875
957, 0.5, 0.125, 0.46875
958, 0, 0.109375, 0.46875
959, 1, 0.125, 0.453125
960, 0, 0.125, 0.453125
961, 1, 0.125, 0.5
962, 0, 0.125, 0.5
963, 1, 0.109375, 0.5
964, 0.5, 0.125, 0.5
965, 0, 0.109375, 0.5
966, 1, 0.125, 0.484375
967, 0, 0.125, 0.484375
968, 1, 0.125, 0.53125
969, 0, 0.125, 0.53125
970, 1, 0.109375, 0.53125
971, 0.5, 0.125, 0.53125
972, 0, 0.109375, 0.53125
973, 1, 0.125, 0.515625
974, 0, 0.125, 0.515625
975, 1, 0.125, 0.5625
976, 0, 0.125, 0.5625
977, 1, 0.109375, 0.5625
978, 0.5, 0.125, 0.5625
979, 0, 0.109375, 0.5625
980, 1, 0.125, 0.546875
981, 0, 0.125, 0.546875
982, 1, 0.125, 0.59375
983, 0, 0.125, 0.59375
984, 1, 0.109375, 0.59375
985, 0.5, 0.125, 0.59375
986, 0, 0.109375, 0.59375
987, 1, 0.125, 0.578125
988, 0, 0.125, 0.578125
989, 1, 0.125, 0.625
990, 0, 0.125, 0.625
991, 1, 0.109375, 0.625
992, 0.5, 0.125, 0.625
993, 0, 0.109375, 0.625
994, 1, 0.125, 0.609375
995, 0, 0.125, 0.609375
996, 1, 0.125, 0.65625
997, 0, 0.125, 0.65625
998, 1, 0.109375, 0.65625
999, 0.5, 0.125, 0.65625
1000, 0, 0.109375, 0.65625
1001, 1, 0.125, 0.640625
1002, 0, 0.125, 0.640625
1003, 1, 0.125, 0.6875
1004, 0, 0.125, 0.6875
1005, 1, 0.109375, 0.6875
1006, 0.5, 0.125, 0.6875
1007, 0, 0.109375, 0.6875
1008, 1, 0.125, 0.671875
1009, 0, 0.125, 0.671875
1010, 1, 0.125, 0.71875
1011, 0, 0.125, 0.71875
1012, 1, 0.109375, 0.71875
1013, 0.5, 0.125, 0.71875
1014, 0, 0.109375, 0.71875
1015, 1, 0.125, 0.703125
1016, 0, 0.125, 0.703125
1017, 1, 0.125, 0.75
1018, 0, 0.125, 0.75
1019, 1, 0.109375, 0.75
1020, 0.5, 0.125, 0.75
1021, 0, 0.109375, 0.75
1022, 1, 0.125, 0.734375
1023, 0, 0.125, 0.734375
1024, 1, 0.125, 0.78125
1025, 0, 0.125, 0.78125
1026, 1, 0.109375, 0.78125
1027, 0.5, 0.125, 0.78125
1028, 0, 0.109375, 0.78125
1029, 1, 0.125, 0.765625
1030, 0, 0.125, 0.765625
1031, 1, 0.125, 0.8125
1032, 0, 0.125, 0.8125
1033, 1, 0.109375, 0.8125
1034, 0.5, 0.125, 0.8125
1035, 0, 0.109375, 0.8125
1036, 1, 0.125, 0.796875
1037, 0, 0.125, 0.796875
1038, 1, 0.125, 0.84375
1039, 0, 0.125, 0.84375
1040, 1, 0.109375, 0.84375
1041, 0.5, 0.125, 0.84375
1042, 0, 0.109375, 0.84375
1043, 1, 0.125, 0.828125
1044, 0, 0.125, 0.828125
1045, 1, 0.125, 0.875
1046, 0, 0.125, 0.875
1047, 1, 0.109375, 0.875
1048, 0.5, 0.125, 0.875
1049, 0, 0.109375, 0.875
1050, 1, 0.125, 0.859375
1051, 0, 0.125, 0.859375
1052, 1, 0.125, 0.90625
1053, 0, 0.125, 0.90625
1054, 1, 0.109375, 0.90625
1055, 0.5, 0.125, 0.90625
1056, 0, 0.109375, 0.90625
1057, 1, 0.125, 0.890625
1058, 0, 0.125, 0.890625
1059, 1, 0.125, 0.9375
1060, 0, 0.125, 0.9375
1061, 1, 0.109375, 0.9375
1062, 0.5, 0.125, 0.9375
1063, 0, 0.109375, 0.9375
1064, 1, 0.125, 0.921875
1065, 0, 0.125, 0.921875
1066, 1, 0.125, 0.96875
1067, 0, 0.125, 0.96875
1068, 1, 0.109375, 0.96875
1069, 0.5, 0.125, 0.96875
1070, 0, 0.109375, 0.96875
1071, 1, 0.125, 0.953125
1072, 0, 0.125, 0.953125
1073, 1, 0.125, 1
1074, 0, 0.125, 1
1075, 1, 0.109375, 1
1076, 0.5, 0.125, 1
1077, 0, 0.109375, 1
1078, 1, 0.125, 0.984375
1079, 0, 0.125, 0.984375
1080, 1, 0.15625, 0
1081, 0, 0.15625, 0
1082, 1, 0.15625, 0.03125
1083, 0, 0.15625, 0.03125
1084, 1, 0.140625, 0
1085, 0.5, 0.15625, 0
1086, 0, 0.140625, 0
1087, 1, 0.140625, 0.03125
1088, 0.5, 0.15625, 0.03125
1089, 0, 0.140625, 0.03125
1090, 1, 0.15625, 0.015625
1091, 0, 0.15625, 0.015625
1092, 1, 0.15625, 0.0625
1093, 0, 0.15625, 0.0625
1094, 1, 0.140625, 0.0625
1095, 0.5, 0.15625, 0.0625
1096, 0, 0.140625, 0.0625
1097, 1, 0.15625, 0.046875
1098, 0, 0.15625, 0.046875
1099, 1, 0.15625, 0.09375
1100, 0, 0.15625, 0.09375
1101, 1, 0.140625, 0.09375
1102, 0.5, 0.15625, 0.09375
1103, 0, 0.140625, 0.09375
1104, 1, 0.15625, 0.078125
1105, 0, 0.15625, 0.078125
1106, 1, 0.15625, 0.125
1107, 0, 0.15625, 0.125
1108, 1, 0.140625, 0.125
1109, 0.5, 0.15625, 0.125
1110, 0, 0.140625, 0.125
1111, 1, 0.15625, 0.109375
1112, 0, 0.15625, 0.109375
1113, 1, 0.15625, 0.15625
1114, 0, 0.15625, 0.15625
1115, 1, 0.140625, 0.15625
1116, 0.5, 0.15625, 0.15625
1117, 0, 0.140625, 0.15625
1118, 1, 0.15625, 0.140625
1119, 0, 0.15625, 0.140625
1120, 1, 0.15625, 0.1875
1121, 0, 0.15625, 0.1875
1122, 1, 0.140625, 0.1875
1123, 0.5, 0.15625, 0.1875
1124, 0, 0.140625, 0.1875
1125, 1, 0.15625, 0.171875
1126, 0, 0.15625, 0.171875
1127, 1, 0.15625, 0.21875
1128, 0, 0.15625, 0.21875
1129, 1, 0.140625, 0.21875
1130, 0.5, 0.15625, 0.21875
1131, 0, 0.140625, 0.21875
1132, 1, 0.15625, 0.203125
1133, 0, 0.15625, 0.203125
1134, 1, 0.15625, 0.25
1135, 0, 0.15625, 0.25
1136, 1, 0.140625, 0.25
1137, 0.5, 0.15625, 0.25
1138, 0, 0.140625, 0.25
1139, 1, 0.15625, 0.234375
1140, 0, 0.15625, 0.234375
1141, 1, 0.15625, 0.28125
1142, 0, 0.15625, 0.28125
1143, 1, 0.140625, 0.28125
1144, 0.5, 0.15625, 0.28125
1145, 0, 0.140625, 0.28125
1146, 1, 0.15625, 0.265625
1147, 0, 0.15625, 0.265625
1148, 1, 0.15625, 0.3125
1149, 0, 0.15625, 0.3125
1150, 1, 0.140625, 0.3125
1151, 0.5, 0.15625, 0.3125
1152, 0, 0.140625, 0.3125
1153, 1, 0.15625, 0.296875
1154, 0, 0.15625, 0.296875
1155, 1, 0.15625, 0.34375
1156, 0, 0.15625, 0.34375
1157, 1, 0.140625, 0.34375
1158, 0.5, 0.15625, 0.34375
1159, 0, 0.140625, 0.34375
1160, 1, 0.15625, 0.328125
1161, 0, 0.15625, 0.328125
1162, 1, 0.15625, 0.375
1163, 0, 0.15625, 0.375
1164, 1, 0.140625, 0.375
1165, 0.5, 0.15625, 0.375
1166, 0, 0.140625, 0.375
1167, 1, 0.15625, 0.359375
1168, 0, 0.15625, 0.359375
1169, 1, 0.15625, 0.40625
1170, 0, 0.15625, 0.40625
1171, 1, 0.140625, 0.40625
1172, 0.5, 0.15625, 0.40625
1173, 0, 0.140625, 0.40625
1174, 1, 0.15625, 0.390625
1175, 0, 0.15625, 0.390625
1176, 1, 0.15625, 0.4375
1177, 0, 0.15625, 0.4375
1178, 1, 0.140625, 0.4375
1179, 0.5, 0.15625, 0.4375
1180, 0, 0.140625, 0.4375
1181, 1, 0.15625, 0.421875
1182, 0, 0.15625, 0.421875
1183, 1, 0.15625, 0.46875
1184, 0, 0.15625, 0.46875
1185, 1, 0.140625, 0.46875
1186, 0.5, 0.15625, 0.46875
1187, 0, 0.140625, 0.46875
1188, 1, 0.15625, 0.453125
1189, 0, 0.15625, 0.453125
1190, 1, 0.15625, 0.5
1191, 0, 0.15625, 0.5
1192, 1, 0.140625, 0.5
1193, 0.5, 0.15625, 0.5
1194, 0, 0.140625, 0.5
1195, 1, 0.15625, 0.484375
1196, 0, 0.15625, 0.484375
1197, 1, 0.15625, 0.53125
1198, 0, 0.15625, 0.53125
1199, 1, 0.140625, 0.53125
1200, 0.5, 0.15625, 0.53125
1201, 0, 0.140625, 0.53125
1202, 1, 0.15625, 0.515625
1203, 0, 0.15625, 0.515625
1204, 1, 0.15625, 0.5625
1205, 0, 0.15625, 0.5625
1206, 1, 0.140625, 0.5625
1207, 0.5, 0.15625, 0.5625
1208, 0, 0.140625, 0.5625
1209, 1, 0.15625, 0.546875
1210, 0, 0.15625, 0.546875
1211, 1, 0.15625, 0.59375
1212, 0, 0.15625, 0.59375
1213, 1, 0.140625, 0.59375
1214, 0.5, 0.15625, 0.59375
1215, 0, 0.140625, 0.59375
1216, 1, 0.15625, 0.578125
1217, 0, 0.15625, 0.578125
1218, 1, 0.15625, 0.625
1219, 0, 0.15625, 0.625
1220, 1, 0.140625, 0.625
1221, 0.5, 0.15625, 0.625
1222, 0, 0.140625, 0.625
1223, 1, 0.15625, 0.609375
1224, 0, 0.15625, 0.609375
1225, 1, 0.15625, 0.65625
1226, 0, 0.15625, 0.65625
1227, 1, 0.140625, 0.65625
1228, 0.5, 0.15625, 0.65625
1229, 0, 0.140625, 0.65625
1230, 1, 0.15625, 0.640625
1231, 0, 0.15625, 0.640625
1232, 1, 0.15625, 0.6875
1233, 0, 0.15625, 0.6875
1234, 1, 0.140625, 0.6875
1235, 0.5, 0.15625, 0.6875
1236, 0, 0.140625, 0.6875
1237, 1, 0.15625, 0.671875
1238, 0, 0.15625, 0.671875
1239, 1, 0.15625, 0.71875
1240, 0, 0.15625, 0.71875
1241, 1, 0.140625, 0.71875
1242, 0.5, 0.15625, 0.71875
1243, 0, 0.140625, 0.71875
1244, 1, 0.15625, 0.703125
1245, 0, 0.15625, 0.703125
1246, 1, 0.15625, 0.75
1247, 0, 0.15625, 0.75
1248, 1, 0.140625, 0.75
1249, 0.5, 0.15625, 0.75
1250, 0, 0.140625, 0.75
1251, 1, 0.15625, 0.734375
1252, 0, 0.15625, 0.734375
1253, 1, 0.15625, 0.78125
1254, 0, 0.15625, 0.78125
1255, 1, 0.140625, 0.78125
1256, 0.5, 0.15625, 0.78125
1257, 0, 0.140625, 0.78125
1258, 1, 0.15625, 0.765625
1259, 0, 0.15625, 0.765625
1260, 1, 0.15625, 0.8125
1261, 0, 0.15625, 0.8125
1262, 1, 0.140625, 0.8125
1263, 0.5, 0.15625, 0.8125
1264, 0, 0.140625, 0.8125
1265, 1, 0.15625, 0.796875
1266, 0, 0.15625, 0.796875
1267, 1, 0.15625, 0.84375
1268, 0, 0.15625, 0.84375
1269, 1, 0.140625, 0.84375
1270, 0.5, 0.15625, 0.84375
1271, 0, 0.140625, 0.84375
1272, 1, 0.15625, 0.828125
1273, 0, 0.15625, 0.828125
1274, 1, 0.15625, 0.875
1275, 0, 0.15625, 0.875
1276, 1, 0.140625, 0.875
1277, 0.5, 0.15625, 0.875
1278, 0, 0.140625, 0.875
1279, 1, 0.15625, 0.859375
1280, 0, 0.15625, 0.859375
1281, 1, 0.15625, 0.90625
1282, 0, 0.15625, 0.90625
1283, 1, 0.140625, 0.90625
1284, 0.5, 0.15625, 0.90625
1285, 0, 0.140625, 0.90625
1286, 1, 0.15625, 0.890625
1287, 0, 0.15625, 0.890625
1288, 1, 0.15625, 0.9375
1289, 0, 0.15625, 0.9375
1290, 1, 0.140625, 0.9375
1291, 0.5, 0.15625, 0.9375
1292, 0, 0.140625, 0.9375
1293, 1, 0.15625, 0.921875
1294, 0, 0.15625, 0.921875
1295, 1, 0.15625, 0.96875
1296, 0, 0.15625, 0.96875
1297, 1, 0.140625, 0.96875
1298, 0.5, 0.15625, 0.96875
1299, 0, 0.140625, 0.96875
1300, 1, 0.15625, 0.953125
1301, 0, 0.15625, 0.953125
1302, 1, 0.15625, 1
1303, 0, 0.15625, 1
1304, 1, 0.140625, 1
1305, 0.5, 0.15625, 1
1306, 0, 0.140625, 1
1307, 1, 0.15625, 0.984375
1308, 0, 0.15625, 0.984375
1309, 1, 0.1875, 0
1310, 0, 0.1875, 0
1311, 1, 0.1875, 0.03125
1312, 0, 0.1875, 0.03125
1313, 1, 0.171875, 0
1314, 0.5, 0.1875, 0
1315, 0, 0.171875, 0
1316, 1, 0.171875, 0.03125
1317, 0.5, 0.1875, 0.03125
1318, 0, 0.171875, 0.03125
1319, 1, 0.1875, 0.015625
1320, 0, 0.1875, 0.015625
1321, 1, 0.1875, 0.0625
1322, 0, 0.1875, 0.0625
1323, 1, 0.171875, 0.0625
1324, 0.5, 0.1875, 0.0625
1325, 0, 0.171875, 0.0625
1326, 1, 0.1875, 0.046875
1327, 0, 0.1875, 0.046875
1328, 1, 0.1875, 0.09375
1329, 0, 0.1875, 0.09375
1330, 1, 0.171875, 0.09375
1331, 0.5, 0.1875, 0.09375
1332, 0, 0.171875, 0.09375
1333, 1, 0.1875, 0.078125
1334, 0, 0.1875, 0.078125
1335, 1, 0.1875, 0.125
1336, 0, 0.1875, 0.125
1337, 1, 0.171875, 0.125
1338, 0.5, 0.1875, 0.125
1339, 0, 0.171875, 0.125
1340, 1, 0.1875, 0.109375
1341, 0, 0.1875, 0.109375
1342, 1, 0.1875, 0.15625
1343, 0, 0.1875, 0.15625
1344, 1, 0.171875, 0.15625
1345, 0.5, 0.1875, 0.15625
1346, 0, 0.171875, 0.15625
1347, 1, 0.1875, 0.140625
1348, 0, 0.1875, 0.140625
1349, 1, 0.1875, 0.1875
1350, 0, 0.1875, 0.1875
1351, 1, 0.171875, 0.1875
1352, 0.5, 0.1875, 0.1875
1353, 0, 0.171875, 0.1875
1354, 1, 0.1875, 0.171875
1355, 0, 0.1875, 0.171875
1356, 1, 0.1875, 0.21875
1357, 0, 0.1875, 0.21875
1358, 1, 0.171875, 0.21875
1359, 0.5, 0.1875, 0.21875
1360, 0, 0.171875, 0.21875
1361, 1, 0.1875, 0.203125
1362, 0, 0.1875, 0.203125
1363, 1, 0.1875, 0.25
1364, 0, 0.1875, 0.25
1365, 1, 0.171875, 0.25
1366, 0.5, 0.1875, 0.25
1367, 0, 0.171875, 0.25
1368, 1, 0.1875, 0.234375
1369, 0, 0.1875, 0.234375
1370, 1, 0.1875, 0.28125
1371, 0, 0.1875, 0.28125
1372, 1, 0.171875, 0.28125
1373, 0.5, 0.1875, 0.28125
1374, 0, 0.171875, 0.28125
1375, 1, 0.1875, 0.265625
1376, 0, 0.1875, 0.265625
1377, 1, 0.1875, 0.3125
1378, 0, 0.1875, 0.3125
1379, 1, 0.171875, 0.3125
1380, 0.5, 0.1875, 0.3125
1381, 0, 0.171875, 0.3125
1382, 1, 0.1875, 0.296875
1383, 0, 0.1875, 0.296875
1384, 1, 0.1875, 0.34375
1385, 0, 0.1875, 0.34375
1386, 1, 0.171875, 0.34375
1387, 0.5, 0.1875, 0.34375
1388, 0, 0.171875, 0.34375
1389, 1, 0.1875, 0.328125
1390, 0, 0.1875, 0.328125
1391, 1, 0.1875, 0.375
1392, 0, 0.1875, 0.375
1393, 1, 0.171875, 0.375
1394, 0.5, 0.1875, 0.375
1395, 0, 0.171875, 0.375
1396, 1, 0.1875, 0.359375
1397, 0, 0.1875, 0.359375
1398, 1, 0.1875, 0.40625
1399, 0, 0.1875, 0.40625
1400, 1, 0.171875, 0.40625
1401, 0.5, 0.1875, 0.40625
1402, 0, 0.171875, 0.40625
1403, 1, 0.1875, 0.390625
1404, 0, 0.1875, 0.390625
1405, 1, 0.1875, 0.4375
1406, 0, 0.1875, 0.4375
1407, 1, 0.171875, 0.4375
1408, 0.5, 0.1875, 0.4375
1409, 0, 0.171875, 0.4375
1410, 1, 0.1875, 0.421875
1411, 0, 0.1875, 0.421875
1412, 1, 0.1875, 0.46875
1413, 0, 0.1875, 0.46875
1414, 1, 0.171875, 0.46875
1415, 0.5, 0.1875, 0.46875
1416, 0, 0.171875, 0.46875
1417, 1, 0.1875, 0.453125
1418, 0, 0.1875, 0.453125
1419, 1, 0.1875, 0.5
1420, 0, 0.1875, 0.5
1421, 1, 0.171875, 0.5
1422, 0.5, 0.1875, 0.5
1423, 0, 0.171875, 0.5
1424, 1, 0.1875, 0.484375
1425, 0, 0.1875, 0.484375
1426, 1, 0.1875, 0.53125
1427, 0, 0.1875, 0.53125
1428, 1, 0.171875, 0.53125
1429, 0.5, 0.1875, 0.53125
1430, 0, 0.171875, 0.53125
1431, 1, 0.1875, 0.515625
1432, 0, 0.1875, 0.515625
1433, 1, 0.1875, 0.5625
1434, 0, 0.1875, 0.5625
1435, 1, 0.171875, 0.5625
1436, 0.5, 0.1875, 0.5625
1437, 0, 0.171875, 0.5625
1438, 1, 0.1875, 0.546875
1439, 0, 0.1875, 0.546875
1440, 1, 0.1875, 0.59375
1441, 0, 0.1875, 0.59375
1442, 1, 0.171875, 0.59375
1443, 0.5, 0.1875, 0.59375
1444, 0, 0.171875, 0.59375
1445, 1, 0.1875, 0.578125
1446, 0, 0.1875, 0.578125
1447, 1, 0.1875, 0.625
1448, 0, 0.1875, 0.625
1449, 1, 0.171875, 0.625
1450, 0.5, 0.1875, 0.625
1451, 0, 0.171875, 0.625
1452, 1, 0.1875, 0.609375
1453, 0, 0.1875, 0.609375
1454, 1, 0.1875, 0.65625
1455, 0, 0.1875, 0.65625
1456, 1, 0.171875, 0.65625
1457, 0.5, 0.1875, 0.65625
1458, 0, 0.171875, 0.65625
1459, 1, 0.1875, 0.640625
1460, 0, 0.1875, 0.640625
1461, 1, 0.1875, 0.6875
1462, 0, 0.1875, 0.6875
1463, 1, 0.171875, 0.6875
1464, 0.5, 0.1875, 0.6875
1465, 0, 0.171875, 0.6875
1466, 1, 0.1875, 0.671875
1467, 0, 0.1875, 0.671875
1468, 1, 0.1875, 0.71875
1469, 0, 0.1875, 0.71875
1470, 1, 0.171875, 0.71875
1471, 0.5, 0.1875, 0.71875
1472, 0, 0.171875, 0.71875
1473, 1, 0.1875, 0.703125
1474, 0, 0.1875, 0.703125
1475, 1, 0.1875, 0.75
1476, 0, 0.1875, 0.75
1477, 1, 0.171875, 0.75
1478, 0.5, 0.1875, 0.75
1479, 0, 0.171875, 0.75
1480, 1, 0.1875, 0.734375
1481, 0, 0.1875, 0.734375
1482, 1, 0.1875, 0.78125
1483, 0, 0.1875, 0.78125
1484, 1, 0.171875, 0.78125
1485, 0.5, 0.1875, 0.78125
1486, 0, 0.171875, 0.78125
1487, 1, 0.1875, 0.765625
1488, 0, 0.1875, 0.765625
1489, 1, 0.1875, 0.8125
1490, 0, 0.1875, 0.8125
1491, 1, 0.171875, 0.8125
1492, 0.5, 0.1875, 0.8125
1493, 0, 0.171875, 0.8125
1494, 1, 0.1875, 0.796875
1495, 0, 0.1875, 0.796875
1496, 1, 0.1875, 0.84375
1497, 0, 0.1875, 0.84375
1498, 1, 0.171875, 0.84375
1499, 0.5, 0.1875, 0.84375
1500, 0, 0.171875, 0.84375
1501, 1, 0.1875, 0.828125
1502, 0, 0.1875, 0.828125
1503, 1, 0.1875, 0.875
1504, 0, 0.1875, 0.875
1505, 1, 0.171875, 0.875
1506, 0.5, 0.1875, 0.875
1507, 0, 0.171875, 0.875
1508, 1, 0.1875, 0.859375
1509, 0, 0.1875, 0.859375
1510, 1, 0.1875, 0.90625
1511, 0, 0.1875, 0.90625
1512, 1, 0.171875, 0.90625
1513, 0.5, 0.1875, 0.90625
1514, 0, 0.171875, 0.90625
1515, 1, 0.1875, 0.890625
1516, 0, 0.1875, 0.890625
1517, 1, 0.1875, 0.9375
1518, 0, 0.1875, 0.9375
1519, 1, 0.171875, 0.9375
1520, 0.5, 0.1875, 0.9375
1521, 0, 0.171875, 0.9375
1522, 1, 0.1875, 0.921875
1523, 0, 0.1875, 0.921875
1524, 1, 0.1875, 0.96875
1525, 0, 0.1875, 0.96875
1526, 1, 0.171875, 0.96875
1527, 0.5, 0.1875, 0.96875
1528, 0, 0.171875, 0.96875
1529, 1, 0.1875, 0.953125
1530, 0, 0.1875, 0.953125
1531, 1, 0.1875, 1
1532, 0, 0.1875, 1
1533, 1, 0.171875, 1
1534, 0.5, 0.1875, 1
1535, 0, 0.171875, 1
1536, 1, 0.1875, 0.984375
1537, 0, 0.1875, 0.984375
1538, 1, 0.21875, 0
1539, 0, 0.21875, 0
1540, 1, 0.21875, 0.03125
1541, 0, 0.21875, 0.03125
1542, 1, 0.203125, 0
1543, 0.5, 0.21875, 0
1544, 0, 0.203125, 0
1545, 1, 0.203125, 0.03125
1546, 0.5, 0.21875, 0.03125
1547, 0, 0.203125, 0.03125
1548, 1, 0.21875, 0.015625
1549, 0, 0.21875, 0.015625
1550, 1, 0.21875, 0.0625
1551, 0, 0.21875, 0.0625
1552, 1, 0.203125, 0.0625
1553, 0.5, 0.21875, 0.0625
1554, 0, 0.203125, 0.0625
1555, 1, 0.21875, 0.046875
1556, 0, 0.21875, 0.046875
1557, 1, 0.21875, 0.09375
1558, 0, 0.21875, 0.09375
1559, 1, 0.203125, 0.09375
1560, 0.5, 0.21875, 0.09375
1561, 0, 0.203125, 0.09375
1562, 1, 0.21875, 0.078125
1563, 0, 0.21875, 0.078125
1564, 1, 0.21875, 0.125
1565, 0, 0.21875, 0.125
1566, 1, 0.203125, 0.125
1567, 0.5, 0.21875, 0.125
1568, 0, 0.203125, 0.125
1569, 1, 0.21875, 0.109375
1570, 0, 0.21875, 0.109375
1571, 1, 0.21875, 0.15625
1572, 0, 0.21875, 0.15625
1573, 1, 0.203125, 0.15625
1574, 0.5, 0.21875, 0.15625
1575, 0, 0.203125, 0.15625
1576, 1, 0.21875, 0.140625
1577, 0, 0.21875, 0.140625
1578, 1, 0.21875, 0.1875
1579, 0, 0.21875, 0.1875
1580, 1, 0.203125, 0.1875
1581, 0.5, 0.21875, 0.1875
1582, 0, 0.203125, 0.1875
1583, 1, 0.21875, 0.171875
1584, 0, 0.21875, 0.171875
1585, 1, 0.21875, 0.21875
1586, 0, 0.21875, 0.21875
1587, 1, 0.203125, 0.21875
1588, 0.5, 0.21875, 0.21875
1589, 0, 0.203125, 0.21875
1590, 1, 0.21875, 0.203125
1591, 0, 0.21875, 0.203125
1592, 1, 0.21875, 0.25
1593, 0, 0.21875, 0.25
1594, 1, 0.203125, 0.25
1595, 0.5, 0.21875, 0.25
1596, 0, 0.203125, 0.25
1597, 1, 0.21875, 0.234375
1598, 0, 0.21875, 0.234375
1599, 1, 0.21875, 0.28125
1600, 0, 0.21875, 0.28125
1601, 1, 0.203125, 0.28125
1602, 0.5, 0.21875, 0.28125
1603, 0, 0.203125, 0.28125
1604, 1, 0.21875, 0.265625
1605, 0, 0.21875, 0.265625
1606, 1, 0.21875, 0.3125
1607, 0, 0.21875, 0.3125
1608, 1, 0.203125, 0.3125
1609, 0.5, 0.21875, 0.3125
1610, 0, 0.203125, 0.3125
1611, 1, 0.21875, 0.296875
1612, 0, 0.21875, 0.296875
1613, 1, 0.21875, 0.34375
1614, 0, 0.21875, 0.34375
1615, 1, 0.203125, 0.34375
1616, 0.5, 0.21875, 0.34375
1617, 0, 0.203125, 0.34375
1618, 1, 0.21875, 0.328125
1619, 0, 0.21875, 0.328125
1620, 1, 0.21875, 0.375
1621, 0, 0.21875, 0.375
1622, 1, 0.203125, 0.375
1623, 0.5, 0.21875, 0.375
1624, 0, 0.203125, 0.375
1625, 1, 0.21875, 0.359375
1626, 0, 0.21875, 0.359375
1627, 1, 0.21875, 0.40625
1628, 0, 0.21875, 0.40625
1629, 1, 0.203125, 0.40625
1630, 0.5, 0.21875, 0.40625
1631, 0, 0.203125, 0.40625
1632, 1, 0.21875, 0.390625
1633, 0, 0.21875, 0.390625
1634, 1, 0.21875, 0.4375
1635, 0, 0.21875, 0.4375
1636, 1, 0.203125, 0.4375
1637, 0.5, 0.21875, 0.4375
1638, 0, 0.203125, 0.4375
1639, 1, 0.21875, 0.421875
1640, 0, 0.21875, 0.421875
1641, 1, 0.21875, 0.46875
1642, 0, 0.21875, 0.46875
1643, 1, 0.203125, 0.46875
1644, 0.5, 0.21875, 0.46875
1645, 0, 0.203125, 0.46875
1646, 1, 0.21875, 0.453125
1647, 0, 0.21875, 0.453125
1648, 1, 0.21875, 0.5
1649, 0, 0.21875, 0.5
1650, 1, 0.203125, 0.5
1651, 0.5, 0.21875, 0.5
1652, 0, 0.203125, 0.5
1653, 1, 0.21875, 0.484375
1654, 0, 0.21875, 0.484375
1655, 1, 0.21875, 0.53125
1656, 0, 0.21875, 0.53125
1657, 1, 0.203125, 0.53125
1658, 0.5, 0.21875, 0.53125
1659, 0, 0.203125, 0.53125
1660, 1, 0.21875, 0.515625
1661, 0, 0.21875, 0.515625
1662, 1, 0.21875, 0.5625
1663, 0, 0.21875, 0.5625
1664, 1, 0.203125, 0.5625
1665, 0.5, 0.21875, 0.5625
1666, 0, 0.203125, 0.5625
1667, 1, 0.21875, 0.546875
1668, 0, 0.21875, 0.546875
1669, 1, 0.21875, 0.59375
1670, 0, 0.21875, 0.59375
1671, 1, 0.203125, 0.59375
1672, 0.5, 0.21875, 0.59375
1673, 0, 0.203125, 0.59375
1674, 1, 0.21875, 0.578125
1675, 0, 0.21875, 0.578125
1676, 1, 0.21875, 0.625
1677, 0, 0.21875, 0.625
1678, 1, 0.203125, 0.625
1679, 0.5, 0.21875, 0.625
1680, 0, 0.203125, 0.625
1681, 1, 0.21875, 0.609375
1682, 0, 0.21875, 0.609375
1683, 1, 0.21875, 0.65625
1684, 0, 0.21875, 0.65625
1685, 1, 0.203125, 0.65625
1686, 0.5, 0.21875, 0.65625
1687, 0, 0.203125, 0.65625
1688, 1, 0.21875, 0.640625
1689, 0, 0.21875, 0.640625
1690, 1, 0.21875, 0.6875
1691, 0, 0.21875, 0.6875
1692, 1, 0.203125, 0.6875
1693, 0.5, 0.21875, 0.6875
1694, 0, 0.203125, 0.6875
1695, 1, 0.21875, 0.671875
1696, 0, 0.21875, 0.671875
1697, 1, 0.21875, 0.71875
1698, 0, 0.21875, 0.71875
1699, 1, 0.203125, 0.71875
1700, 0.5, 0.21875, 0.71875
1701, 0, 0.203125, 0.71875
1702, 1, 0.21875, 0.703125
1703, 0, 0.21875, 0.703125
1704, 1, 0.21875, 0.75
1705, 0, 0.21875, 0.75
1706, 1, 0.203125, 0.75
1707, 0.5, 0.21875, 0.75
1708, 0, 0.203125, 0.75
1709, 1, 0.21875, 0.734375
1710, 0, 0.21875, 0.734375
1711, 1, 0.21875, 0.78125
1712, 0, 0.21875, 0.78125
1713, 1, 0.203125, 0.78125
1714, 0.5, 0.21875, 0.78125
1715, 0, 0.203125, 0.78125
1716, 1, 0.21875, 0.765625
1717, 0, 0.21875, 0.765625
1718, 1, 0.21875, 0.8125
1719, 0, 0.21875, 0.8125
1720, 1, 0.203125, 0.8125
1721, 0.5, 0.21875, 0.8125
1722, 0, 0.203125, 0.8125
1723, 1, 0.21875, 0.796875
1724, 0, 0.21875, 0.796875
1725, 1, 0.21875, 0.84375
1726, 0, 0.21875, 0.84375
1727, 1, 0.203125, 0.84375
1728, 0.5, 0.21875, 0.84375
1729, 0, 0.203125, 0.84375
1730, 1, 0.21875, 0.828125
1731, 0, 0.21875, 0.828125
1732, 1, 0.21875, 0.875
1733, 0, 0.21875, 0.875
1734, 1, 0.203125, 0.875
1735, 0.5, 0.21875, 0.875
1736, 0, 0.203125, 0.875
1737, 1, 0.21875, 0.859375
1738, 0, 0.21875, 0.859375
1739, 1, 0.21875, 0.90625
1740, 0, 0.21875, 0.90625
1741, 1, 0.203125, 0.90625
1742, 0.5, 0.21875, 0.90625
1743, 0, 0.203125, 0.90625
1744, 1, 0.21875, 0.890625
1745, 0, 0.21875, 0.890625
1746, 1, 0.21875, 0.9375
1747, 0, 0.21875, 0.9375
1748, 1, 0.203125, 0.9375
1749, 0.5, 0.21875, 0.9375
1750, 0, 0.203125, 0.9375
1751, 1, 0.21875, 0.921875
1752, 0, 0.21875, 0.921875
1753, 1, 0.21875, 0.96875
1754, 0, 0.21875, 0.96875
1755, 1, 0.203125, 0.96875
1756, 0.5, 0.21875, 0.96875
1757, 0, 0.203125, 0.96875
1758, 1, 0.21875, 0.953125
1759, 0, 0.21875, 0.953125
1760, 1, 0.21875, 1
1761, 0, 0.21875, 1
1762, 1, 0.203125, 1
1763, 0.5, 0.21875, 1
1764, 0, 0.203125, 1
1765, 1, 0.21875, 0.984375
1766, 0, 0.21875, 0.984375
1767, 1, 0.25, 0
1768, 0, 0.25, 0
1769, 1, 0.25, 0.03125
1770, 0, 0.25, 0.03125
1771, 1, 0.234375, 0
1772, 0.5, 0.25, 0
1773, 0, 0.234375, 0
1774, 1, 0.234375, 0.03125
1775, 0.5, 0.25, 0.03125
1776, 0, 0.234375, 0.03125
1777, 1, 0.25, 0.015625
1778, 0, 0.25, 0.015625
1779, 1, 0.25, 0.0625
1780, 0, 0.25, 0.0625
1781, 1, 0.234375, 0.0625
1782, 0.5, 0.25, 0.0625
1783, 0, 0.234375, 0.0625
1784, 1, 0.25, 0.046875
1785, 0, 0.25, 0.046875
1786, 1, 0.25, 0.09375
1787, 0, 0.25, 0.09375
1788, 1, 0.234375, 0.09375
1789, 0.5, 0.25, 0.09375
1790, 0, 0.234375, 0.09375
1791, 1, 0.25, 0.078125
1792, 0, 0.25, 0.078125
1793, 1, 0.25, 0.125
1794, 0, 0.25, 0.125
1795, 1, 0.234375, 0.125
1796, 0.5, 0.25, 0.125
1797, 0, 0.234375, 0.125
1798, 1, 0.25, 0.109375
1799, 0, 0.25, 0.109375
1800, 1, 0.25, 0.15625
1801, 0, 0.25, 0.15625
1802, 1, 0.234375, 0.15625
1803, 0.5, 0.25, 0.15625
1804, 0, 0.234375, 0.15625
1805, 1, 0.25, 0.140625
1806, 0, 0.25, 0.140625
1807, 1, 0.25, 0.1875
1808, 0, 0.25, 0.1875
1809, 1, 0.234375, 0.1875
1810, 0.5, 0.25, 0.1875
1811, 0, 0.234375, 0.1875
1812, 1, 0.25, 0.171875
1813, 0, 0.25, 0.171875
1814, 1, 0.25, 0.21875
1815, 0, 0.25, 0.21875
1816, 1, 0.234375, 0.21875
1817, 0.5, 0.25, 0.21875
1818, 0, 0.234375, 0.21875
1819, 1, 0.25, 0.203125
1820, 0, 0.25, 0.203125
1821, 1, 0.25, 0.25
1822, 0, 0.25, 0.25
1823, 1, 0.234375, 0.25
1824, 0.5, 0.25, 0.25
1825, 0, 0.234375, 0.25
1826, 1, 0.25, 0.234375
1827, 0, 0.25, 0.234375
1828, 1, 0.25, 0.28125
1829, 0, 0.25, 0.28125
1830, 1, 0.234375, 0.28125
1831, 0.5, 0.25, 0.28125
1832, 0, 0.234375, 0.28125
1833, 1, 0.25, 0.265625
1834, 0, 0.25, 0.265625
1835, 1, 0.25, 0.3125
1836, 0, 0.25, 0.3125
1837, 1, 0.234375, 0.3125
1838, 0.5, 0.25, 0.3125
1839, 0, 0.234375, 0.3125
1840, 1, 0.25, 0.296875
1841, 0, 0.25, 0.296875
1842, 1, 0.25, 0.34375
1843, 0, 0.25, 0.34375
1844, 1, 0.234375, 0.34375
1845, 0.5, 0.25, 0.34375
1846, 0, 0.234375, 0.34375
1847, 1, 0.25, 0.328125
1848, 0, 0.25, 0.328125
1849, 1, 0.25, 0.375
1850, 0, 0.25, 0.375
1851, 1, 0.234375, 0.375
1852, 0.5, 0.25, 0.375
1853, 0, 0.234375, 0.375
1854, 1, 0.25, 0.359375
1855, 0, 0.25, 0.359375
1856, 1, 0.25, 0.40625
1857, 0, 0.25, 0.40625
1858, 1, 0.234375, 0.40625
1859, 0.5, 0.25, 0.40625
1860, 0, 0.234375, 0.40625
1861, 1, 0.25, 0.390625
1862, 0, 0.25, 0.390625
1863, 1, 0.25, 0.4375
1864, 0, 0.25, 0.4375
1865, 1, 0.234375, 0.4375
1866, 0.5, 0.25, 0.4375
1867, 0, 0.234375, 0.4375
1868, 1, 0.25, 0.421875
1869, 0, 0.25, 0.421875
1870, 1, 0.25, 0.46875
1871, 0, 0.25, 0.46875
1872, 1, 0.234375, 0.46875
1873, 0.5, 0.25, 0.46875
1874, 0, 0.234375, 0.46875
1875, 1, 0.25, 0.453125
1876, 0, 0.25, 0.453125
1877, 1, 0.25, 0.5
1878, 0, 0.25, 0.5
1879, 1, 0.234375, 0.5
1880, 0.5, 0.25, 0.5
1881, 0, 0.234375, 0.5
1882, 1, 0.25, 0.484375
1883, 0, 0.25, 0.484375
1884, 1, 0.25, 0.53125
1885, 0, 0.25, 0.53125
1886, 1, 0.234375, 0.53125
1887, 0.5, 0.25, 0.53125
1888, 0, 0.234375, 0.53125
1889, 1, 0.25, 0.515625
1890, 0, 0.25, 0.515625
1891, 1, 0.25, 0.5625
1892, 0, 0.25, 0.5625
1893, 1, 0.234375, 0.5625
1894, 0.5, 0.25, 0.5625
1895, 0, 0.234375, 0.5625
1896, 1, 0.25, 0.546875
1897, 0, 0.25, 0.546875
1898, 1, 0.25, 0.59375
1899, 0, 0.25, 0.59375
1900, 1, 0.234375, 0.59375
1901, 0.5, 0.25, 0.59375
1902, 0, 0.234375, 0.59375
1903, 1, 0.25, 0.578125
1904, 0, 0.25, 0.578125
1905, 1, 0.25, 0.625
1906, 0, 0.25, 0.625
1907, 1, 0.234375, 0.625
1908, 0.5, 0.25, 0.625
1909, 0, 0.234375, 0.625
1910, 1, 0.25, 0.609375
1911, 0, 0.25, 0.609375
1912, 1, 0.25, 0.65625
1913, 0, 0.25, 0.65625
1914, 1, 0.234375, 0.65625
1915, 0.5, 0.25, 0.65625
1916, 0, 0.234375, 0.65625
1917, 1, 0.25, 0.640625
1918, 0, 0.25, 0.640625
1919, 1, 0.25, 0.6875
1920, 0, 0.25, 0.6875
1921, 1, 0.234375, 0.6875
1922, 0.5, 0.25, 0.6875
1923, 0, 0.234375, 0.6875
1924, 1, 0.25, 0.671875
1925, 0, 0.25, 0.671875
1926, 1, 0.25, 0.71875
1927, 0, 0.25, 0.71875
1928, 1, 0.234375, 0.71875
1929, 0.5, 0.25, 0.71875
1930, 0, 0.234375, 0.71875
1931, 1, 0.25, 0.703125
1932, 0, 0.25, 0.703125
1933, 1, 0.25, 0.75
1934, 0, 0.25, 0.75
1935, 1, 0.234375, 0.75
1936, 0.5, 0.25, 0.75
1937, 0, 0.234375, 0.75
1938, 1, 0.25, 0.734375
1939, 0, 0.25, 0.734375
1940, 1, 0.25, 0.78125
1941, 0, 0.25, 0.78125
1942, 1, 0.234375, 0.78125
1943, 0.5, 0.25, 0.78125
1944, 0, 0.234375, 0.78125
1945, 1, 0.25, 0.765625
1946, 0, 0.25, 0.765625
1947, 1, 0.25, 0.8125
1948, 0, 0.25, 0.8125
1949, 1, 0.234375, 0.8125
1950, 0.5, 0.25, 0.8125
1951, 0, 0.234375, 0.8125
1952, 1, 0.25, 0.796875
1953, 0, 0.25, 0.796875
1954, 1, 0.25, 0.84375
1955, 0, 0.25, 0.84375
1956, 1, 0.234375, 0.84375
1957, 0.5, 0.25, 0.84375
1958, 0, 0.234375, 0.84375
1959, 1, 0.25, 0.828125
1960, 0, 0.25, 0.828125
1961, 1, 0.25, 0.875
1962, 0, 0.25, 0.875
1963, 1, 0.234375, 0.875
1964, 0.5, 0.25, 0.875
1965, 0, 0.234375, 0.875
1966, 1, 0.25, 0.859375
1967, 0, 0.25, 0.859375
1968, 1, 0.25, 0.90625
1969, 0, 0.25, 0.90625
1970, 1, 0.234375, 0.90625
1971, 0.5, 0.25, 0.90625
1972, 0, 0.234375, 0.90625
1973, 1, 0.25, 0.890625
1974, 0, 0.25, 0.890625
1975, 1, 0.25, 0.9375
1976, 0, 0.25, 0.9375
1977, 1, 0.234375, 0.9375
1978, 0.5, 0.25, 0.9375
1979, 0, 0.234375, 0.9375
1980, 1, 0.25, 0.921875
1981, 0, 0.25, 0.921875
1982, 1, 0.25, 0.96875
1983, 0, 0.25, 0.96875
1984, 1, 0.234375, 0.96875
1985, 0.5, 0.25, 0.96875
1986, 0, 0.234375, 0.96875
1987, 1, 0.25, 0.953125
1988, 0, 0.25, 0.953125
1989, 1, 0.25, 1
1990, 0, 0.25, 1
1991, 1, 0.234375, 1
1992, 0.5, 0.25, 1
1993, 0, 0.234375, 1
1994, 1, 0.25, 0.984375
1995, 0, 0.25, 0.984375
1996, 1, 0.28125, 0
1997, 0, 0.28125, 0
1998, 1, 0.28125, 0.03125
1999, 0, 0.28125, 0.03125
2000, 1, 0.265625, 0
2001, 0.5, 0.28125, 0
2002, 0, 0.265625, 0
2003, 1, 0.265625, 0.03125
2004, 0.5, 0.28125, 0.03125
2005, 0, 0.265625, 0.03125
2006, 1, 0.28125, 0.015625
2007, 0, 0.28125, 0.015625
2008, 1, 0.28125, 0.0625
2009, 0, 0.28125, 0.0625
2010, 1, 0.265625, 0.0625
2011, 0.5, 0.28125, 0.0625
2012, 0, 0.265625, 0.0625
2013, 1, 0.28125, 0.046875
2014, 0, 0.28125, 0.046875
2015, 1, 0.28125, 0.09375
2016, 0, 0.28125, 0.09375
2017, 1, 0.265625, 0.09375
2018, 0.5, 0.28125, 0.09375
2019, 0, 0.265625, 0.09375
2020, 1, 0.28125, 0.078125
2021, 0, 0.28125, 0.078125
2022, 1, 0.28125, 0.125
2023, 0, 0.28125, 0.125
2024, 1, 0.265625, 0.125
2025, 0.5, 0.28125, 0.125
2026, 0, 0.265625, 0.125
2027, 1, 0.28125, 0.109375
2028, 0, 0.28125, 0.109375
2029, 1, 0.28125, 0.15625
2030, 0, 0.28125, 0.15625
2031, 1, 0.265625, 0.15625
2032, 0.5, 0.28125, 0.15625
2033, 0, 0.265625, 0.15625
2034, 1, 0.28125, 0.140625
2035, 0, 0.28125, 0.140625
2036, 1, 0.28125, 0.1875
2037, 0, 0.28125, 0.1875
2038, 1, 0.265625, 0.1875
2039, 0.5, 0.28125, 0.1875
2040, 0, 0.265625, 0.1875
2041, 1, 0.28125, 0.171875
2042, 0, 0.28125, 0.171875
2043, 1, 0.28125, 0.21875
2044, 0, 0.28125, 0.21875
2045, 1, 0.265625, 0.21875
2046, 0.5, 0.28125, 0.21875
2047, 0, 0.265625, 0.21875
2048, 1, 0.28125, 0.203125
2049, 0, 0.28125, 0.203125
2050, 1, 0.28125, 0.25
2051, 0, 0.28125, 0.25
2052, 1, 0.265625, 0.25
2053, 0.5, 0.28125, 0.25
2054, 0, 0.265625, 0.25
2055, 1, 0.28125, 0.234375
2056, 0, 0.28125, 0.234375
2057, 1, 0.28125, 0.28125
2058, 0, 0.28125, 0.28125
2059, 1, 0.265625, 0.28125
2060, 0.5, 0.28125, 0.28125
2061, 0, 0.265625, 0.28125
2062, 1, 0.28125, 0.265625
2063, 0, 0.28125, 0.265625
2064, 1, 0.28125, 0.3125
2065, 0, 0.28125, 0.3125
2066, 1, 0.265625, 0.3125
2067, 0.5, 0.28125, 0.3125
2068, 0, 0.265625, 0.3125
2069, 1, 0.28125, 0.296875
2070, 0, 0.28125, 0.296875
2071, 1, 0.28125, 0.34375
2072, 0, 0.28125, 0.34375
2073, 1, 0.265625, 0.34375
2074, 0.5, 0.28125, 0.34375
2075, 0, 0.265625, 0.34375
2076, 1, 0.28125, 0.328125
2077, 0, 0.28125, 0.328125
2078, 1, 0.28125, 0.375
2079, 0, 0.28125, 0.375
2080, 1, 0.265625, 0.375
2081, 0.5, 0.28125, 0.375
2082, 0, 0.265625, 0.375
2083, 1, 0.28125, 0.359375
2084, 0, 0.28125, 0.359375
2085, 1, 0.28125, 0.40625
2086, 0, 0.28125, 0.40625
2087, 1, 0.265625, 0.40625
2088, 0.5, 0.28125, 0.40625
2089, 0, 0.265625, 0.40625
2090, 1, 0.28125, 0.390625
2091, 0, 0.28125, 0.390625
2092, 1, 0.28125, 0.4375
2093, 0, 0.28125, 0.4375
2094, 1, 0.265625, 0.4375
2095, 0.5, 0.28125, 0.4375
2096, 0, 0.265625, 0.4375
2097, 1, 0.28125, 0.421875
2098, 0, 0.28125, 0.421875
2099, 1, 0.28125, 0.46875
2100, 0, 0.28125, 0.46875
2101, 1, 0.265625, 0.46875
2102, 0.5, 0.28125, 0.46875
2103, 0, 0.265625, 0.46875
2104, 1, 0.28125, 0.453125
2105, 0, 0.28125, 0.453125
2106, 1, 0.28125, 0.5
2107, 0, 0.28125, 0.5
2108, 1, 0.265625, 0.5
2109, 0.5, 0.28125, 0.5
2110, 0, 0.265625, 0.5
2111, 1, 0.28125, 0.484375
2112, 0, 0.28125, 0.484375
2113, 1, 0.28125, 0.53125
2114, 0, 0.28125, 0.53125
2115, 1, 0.265625, 0.53125
2116, 0.5, 0.28125, 0.53125
2117, 0, 0.265625, 0.53125
2118, 1, 0.28125, 0.515625
2119, 0, 0.28125, 0.515625
2120, 1, 0.28125, 0.5625
2121, 0, 0.28125, 0.5625
2122, 1, 0.265625, 0.5625
2123, 0.5, 0.28125, 0.5625
2124, 0, 0.265625, 0.5625
2125, 1, 0.28125, 0.546875
2126, 0, 0.28125, 0.546875
2127, 1, 0.28125, 0.59375
2128, 0, 0.28125, 0.59375
2129, 1, 0.265625, 0.59375
2130, 0.5, 0.28125, 0.59375
2131, 0, 0.265625, 0.59375
2132, 1, 0.28125, 0.578125
2133, 0, 0.28125, 0.578125
2134, 1, 0.28125, 0.625
2135, 0, 0.28125, 0.625
2136, 1, 0.265625, 0.625
2137, 0.5, 0.28125, 0.625
2138, 0, 0.265625, 0.625
2139, 1, 0.28125, 0.609375
2140, 0, 0.28125, 0.609375
2141, 1, 0.28125, 0.65625
2142, 0, 0.28125, 0.65625
2143, 1, 0.265625, 0.65625
2144, 0.5, 0.28125, 0.65625
2145, 0, 0.265625, 0.65625
2146, 1, 0.28125, 0.640625
2147, 0, 0.28125, 0.640625
2148, 1, 0.28125, 0.6875
2149, 0, 0.28125, 0.6875
2150, 1, 0.265625, 0.6875
2151, 0.5, 0.28125, 0.6875
2152, 0, 0.265625, 0.6875
2153, 1, 0.28125, 0.671875
2154, 0, 0.28125, 0.671875
2155, 1, 0.28125, 0.71875
2156, 0, 0.28125, 0.71875
2157, 1, 0.265625, 0.71875
2158, 0.5, 0.28125, 0.71875
2159, 0, 0.265625, 0.71875
2160, 1, 0.28125, 0.703125
2161, 0, 0.28125, 0.703125
2162, 1, 0.28125, 0.75
2163, 0, 0.28125, 0.75
2164, 1, 0.265625, 0.75
2165, 0.5, 0.28125, 0.75
2166, 0, 0.265625, 0.75
2167, 1, 0.28125, 0.734375
2168, 0, 0.28125, 0.734375
2169, 1, 0.28125, 0.78125
2170, 0, 0.28125, 0.78125
2171, 1, 0.265625, 0.78125
2172, 0.5, 0.28125, 0.78125
2173, 0, 0.265625, 0.78125
2174, 1, 0.28125, 0.765625
2175, 0, 0.28125, 0.765625
2176, 1, 0.28125, 0.8125
2177, 0, 0.28125, 0.8125
2178, 1, 0.265625, 0.8125
2179, 0.5, 0.28125, 0.8125
2180, 0, 0.265625, 0.8125
2181, 1, 0.28125, 0.796875
2182, 0, 0.28125, 0.796875
2183, 1, 0.28125, 0.84375
2184, 0, 0.28125, 0.84375
2185, 1, 0.265625, 0.84375
2186, 0.5, 0.28125, 0.84375
2187, 0, 0.265625, 0.84375
2188, 1, 0.28125, 0.828125
2189, 0, 0.28125, 0.828125
2190, 1, 0.28125, 0.875
2191, 0, 0.28125, 0.875
2192, 1, 0.265625, 0.875
2193, 0.5, 0.28125, 0.875
2194, 0, 0.265625, 0.875
2195, 1, 0.28125, 0.859375
2196, 0, 0.28125, 0.859375
2197, 1, 0.28125, 0.90625
2198, 0, 0.28125, 0.90625
2199, 1, 0.265625, 0.90625
2200, 0.5, 0.28125, 0.90625
2201, 0, 0.265625, 0.90625
2202, 1, 0.28125, 0.890625
2203, 0, 0.28125, 0.890625
2204, 1, 0.28125, 0.9375
2205, 0, 0.28125, 0.9375
2206, 1, 0.265625, 0.9375
2207, 0.5, 0.28125, 0.9375
2208, 0, 0.265625, 0.9375
2209, 1, 0.28125, 0.921875
2210, 0, 0.28125, 0.921875
2211, 1, 0.28125, 0.96875
2212, 0, 0.28125, 0.96875
2213, 1, 0.265625, 0.96875
2214, 0.5, 0.28125, 0.96875
2215, 0, 0.265625, 0.96875
2216, 1, 0.28125, 0.953125
2217, 0, 0.28125, 0.953125
2218, 1, 0.28125, 1
2219, 0, 0.28125, 1
2220, 1, 0.265625, 1
2221, 0.5, 0.28125, 1
2222, 0, 0.265625, 1
2223, 1, 0.28125, 0.984375
2224, 0, 0.28125, 0.984375
2225, 1, 0.3125, 0
2226, 0, 0.3125, 0
2227, 1, 0.3125, 0.03125
2228, 0, 0.3125, 0.03125
2229, 1, 0.296875, 0
2230, 0.5, 0.3125, 0
2231, 0, 0.296875, 0
2232, 1, 0.296875, 0.03125
2233, 0.5, 0.3125, 0.03125
2234, 0, 0.296875, 0.03125
2235, 1, 0.3125, 0.015625
2236, 0, 0.3125, 0.015625
2237, 1, 0.3125, 0.0625
2238, 0, 0.3125, 0.0625
2239, 1, 0.296875, 0.0625
2240, 0.5, 0.3125, 0.0625
2241, 0, 0.296875, 0.0625
2242, 1, 0.3125, 0.046875
2243, 0, 0.3125, 0.046875
2244, 1, 0.3125, 0.09375
2245, 0, 0.3125, 0.09375
2246, 1, 0.296875, 0.09375
2247, 0.5, 0.3125, 0.09375
2248, 0, 0.296875, 0.09375
2249, 1, 0.3125, 0.078125
2250, 0, 0.3125, 0.078125
2251, 1, 0.3125, 0.125
2252, 0, 0.3125, 0.125
2253, 1, 0.296875, 0.125
2254, 0.5, 0.3125, 0.125
2255, 0, 0.296875, 0.125
2256, 1, 0.3125, 0.109375
2257, 0, 0.3125, 0.109375
2258, 1, 0.3125, 0.15625
2259, 0, 0.3125, 0.15625
2260, 1, 0.296875, 0.15625
2261, 0.5, 0.3125, 0.15625
2262, 0, 0.296875, 0.15625
2263, 1, 0.3125, 0.140625
2264, 0, 0.3125, 0.140625
2265, 1, 0.3125, 0.1875
2266, 0, 0.3125, 0.1875
2267, 1, 0.296875, 0.1875
2268, 0.5, 0.3125, 0.1875
2269, 0, 0.296875, 0.1875
2270, 1, 0.3125, 0.171875
2271, 0, 0.3125, 0.171875
2272, 1, 0.3125, 0.21875
2273, 0, 0.3125, 0.21875
2274, 1, 0.296875, 0.21875
2275, 0.5, 0.3125, 0.21875
2276, 0, 0.296875, 0.21875
2277, 1, 0.3125, 0.203125
2278, 0, 0.3125, 0.203125
2279, 1, 0.3125, 0.25
2280, 0, 0.3125, 0.25
2281, 1, 0.296875, 0.25
2282, 0.5, 0.3125, 0.25
2283, 0, 0.296875, 0.25
2284, 1, 0.3125, 0.234375
2285, 0, 0.3125, 0.234375
2286, 1, 0.3125, 0.28125
2287, 0, 0.3125, 0.28125
2288, 1, 0.296875, 0.28125
2289, 0.5, 0.3125, 0.28125
2290, 0, 0.296875, 0.28125
2291, 1, 0.3125, 0.265625
2292, 0, 0.3125, 0.265625
2293, 1, 0.3125, 0.3125
2294, 0, 0.3125, 0.3125
2295, 1, 0.296875, 0.3125
2296, 0.5, 0.3125, 0.3125
2297, 0, 0.296875, 0.3125
2298, 1, 0.3125, 0.296875
2299, 0, 0.3125, 0.296875
2300, 1, 0.3125, 0.34375
2301, 0, 0.3125, 0.34375
2302, 1, 0.296875, 0.34375
2303, 0.5, 0.3125, 0.34375
2304, 0, 0.296875, 0.34375
2305, 1, 0.3125, 0.328125
2306, 0, 0.3125, 0.328125
2307, 1, 0.3125, 0.375
2308, 0, 0.3125, 0.375
2309, 1, 0.296875, 0.375
2310, 0.5, 0.3125, 0.375
2311, 0, 0.296875, 0.375
2312, 1, 0.3125, 0.359375
2313, 0, 0.3125, 0.359375
2314, 1, 0.3125, 0.40625
2315, 0, 0.3125, 0.40625
2316, 1, 0.296875, 0.40625
2317, 0.5, 0.3125, 0.40625
2318, 0, 0.296875, 0.40625
2319, 1, 0.3125, 0.390625
2320, 0, 0.3125, 0.390625
2321, 1, 0.3125, 0.4375
2322, 0, 0.3125, 0.4375
2323, 1, 0.296875, 0.4375
2324, 0.5, 0.3125, 0.4375
2325, 0, 0.296875, 0.4375
2326, 1, 0.3125, 0.421875
2327, 0, 0.3125, 0.421875
2328, 1, 0.3125, 0.46875
2329, 0, 0.3125, 0.46875
2330, 1, 0.296875, 0.46875
2331, 0.5, 0.3125, 0.46875
2332, 0, 0.296875, 0.46875
2333, 1, 0.3125, 0.453125
2334, 0, 0.3125, 0.453125
2335, 1, 0.3125, 0.5
2336, 0, 0.3125, 0.5
2337, 1, 0.296875, 0.5
2338, 0.5, 0.3125, 0.5
2339, 0, 0.296875, 0.5
2340, 1, 0.3125, 0.484375
2341, 0, 0.3125, 0.484375
2342, 1, 0.3125, 0.53125
2343, 0, 0.3125, 0.53125
2344, 1, 0.296875, 0.53125
2345, 0.5, 0.3125, 0.53125
2346, 0, 0.296875, 0.53125
2347, 1, 0.3125, 0.515625
2348, 0, 0.3125, 0.515625
2349, 1, 0.3125, 0.5625
2350, 0, 0.3125, 0.5625
2351, 1, 0.296875, 0.5625
2352, 0.5, 0.3125, 0.5625
2353, 0, 0.296875, 0.5625
2354, 1, 0.3125, 0.546875
2355, 0, 0.3125, 0.546875
2356, 1, 0.3125, 0.59375
2357, 0, 0.3125, 0.59375
2358, 1, 0.296875, 0.59375
2359, 0.5, 0.3125, 0.59375
2360, 0, 0.296875, 0.59375
2361, 1, 0.3125, 0.578125
2362, 0, 0.3125, 0.578125
2363, 1, 0.3125, 0.625
2364, 0, 0.3125, 0.625
2365, 1, 0.296875, 0.625
2366, 0.5, 0.3125, 0.625
2367, 0, 0.296875, 0.625
2368, 1, 0.3125, 0.609375
2369, 0, 0.3125, 0.609375
2370, 1, 0.3125, 0.65625
2371, 0, 0.3125, 0.65625
2372, 1, 0.296875, 0.65625
2373, 0.5, 0.3125, 0.65625
2374, 0, 0.296875, 0.65625
2375, 1, 0.3125, 0.640625
2376, 0, 0.3125, 0.640625
2377, 1, 0.3125, 0.6875
2378, 0, 0.3125, 0.6875
2379, 1, 0.296875, 0.6875
2380, 0.5, 0.3125, 0.6875
2381, 0, 0.296875, 0.6875
2382, 1, 0.3125, 0.671875
2383, 0, 0.3125, 0.671875
2384, 1, 0.3125, 0.71875
2385, 0, 0.3125, 0.71875
2386, 1, 0.296875, 0.71875
2387, 0.5, 0.3125, 0.71875
2388, 0, 0.296875, 0.71875
2389, 1, 0.3125, 0.703125
2390, 0, 0.3125, 0.703125
2391, 1, 0.3125, 0.75
2392, 0, 0.3125, 0.75
2393, 1, 0.296875, 0.75
2394, 0.5, 0.3125, 0.75
2395, 0, 0.296875, 0.75
2396, 1, 0.3125, 0.734375
2397, 0, 0.3125, 0.734375
2398, 1, 0.3125, 0.78125
2399, 0, 0.3125, 0.78125
2400, 1, 0.296875, 0.78125
2401, 0.5, 0.3125, 0.78125
2402, 0, 0.296875, 0.78125
2403, 1, 0.3125, 0.765625
2404, 0, 0.3125, 0.765625
2405, 1, 0.3125, 0.8125
2406, 0, 0.3125, 0.8125
2407, 1, 0.296875, 0.8125
2408, 0.5, 0.3125, 0.8125
2409, 0, 0.296875, 0.8125
2410, 1, 0.3125, 0.796875
2411, 0, 0.3125, 0.796875
2412, 1, 0.3125, 0.84375
2413, 0, 0.3125, 0.84375
2414, 1, 0.296875, 0.84375
2415, 0.5, 0.3125, 0.84375
2416, 0, 0.296875, 0.84375
2417, 1, 0.3125, 0.828125
2418, 0, 0.3125, 0.828125
2419, 1, 0.3125, 0.875
2420, 0, 0.3125, 0.875
2421, 1, 0.296875, 0.875
2422, 0.5, 0.3125, 0.875
2423, 0, 0.296875, 0.875
2424, 1, 0.3125, 0.859375
2425, 0, 0.3125, 0.859375
2426, 1, 0.3125, 0.90625
2427, 0, 0.3125, 0.90625
2428, 1, 0.296875, 0.90625
2429, 0.5, 0.3125, 0.90625
2430, 0, 0.296875, 0.90625
2431, 1, 0.3125, 0.890625
2432, 0, 0.3125, 0.890625
2433, 1, 0.3125, 0.9375
2434, 0, 0.3125, 0.9375
2435, 1, 0.296875, 0.9375
2436, 0.5, 0.3125, 0.9375
2437, 0, 0.296875, 0.9375
2438, 1, 0.3125, 0.921875
2439, 0, 0.3125, 0.921875
2440, 1, 0.3125, 0.96875
2441, 0, 0.3125, 0.96875
2442, 1, 0.296875, 0.96875
2443, 0.5, 0.3125, 0.96875
2444, 0, 0.296875, 0.96875
2445, 1, 0.3125, 0.953125
2446, 0, 0.3125, 0.953125
2447, 1, 0.3125, 1
2448, 0, 0.3125, 1
2449, 1, 0.296875, 1
2450, 0.5, 0.3125, 1
2451, 0, 0.296875, 1
2452, 1, 0.3125, 0.984375
2453, 0, 0.3125, 0.984375
2454, 1, 0.34375, 0
2455, 0, 0.34375, 0
2456, 1, 0.34375, 0.03125
2457, 0, 0.34375, 0.03125
2458, 1, 0.328125, 0
2459, 0.5, 0.34375, 0
2460, 0, 0.328125, 0
2461, 1, 0.328125, 0.03125
2462, 0.5, 0.34375, 0.03125
2463, 0, 0.328125, 0.03125
2464, 1, 0.34375, 0.015625
2465, 0, 0.34375, 0.015625
2466, 1, 0.34375, 0.0625
2467, 0, 0.34375, 0.0625
2468, 1, 0.328125, 0.0625
2469, 0.5, 0.34375, 0.0625
2470, 0, 0.328125, 0.0625
2471, 1, 0.34375, 0.046875
2472, 0, 0.34375, 0.046875
2473, 1, 0.34375, 0.09375
2474, 0, 0.34375, 0.09375
2475, 1, 0.328125, 0.09375
2476, 0.5, 0.34375, 0.09375
2477, 0, 0.328125, 0.09375
2478, 1, 0.34375, 0.078125
2479, 0, 0.34375, 0.078125
2480, 1, 0.34375, 0.125
2481, 0, 0.34375, 0.125
2482, 1, 0.328125, 0.125
2483, 0.5, 0.34375, 0.125
2484, 0, 0.328125, 0.125
2485, 1, 0.34375, 0.109375
2486, 0, 0.34375, 0.109375
2487, 1, 0.34375, 0.15625
2488, 0, 0.34375, 0.15625
2489, 1, 0.328125, 0.15625
2490, 0.5, 0.34375, 0.15625
2491, 0, 0.328125, 0.15625
2492, 1, 0.34375, 0.140625
2493, 0, 0.34375, 0.140625
2494, 1, 0.34375, 0.1875
2495, 0, 0.34375, 0.1875
2496, 1, 0.328125, 0.1875
2497, 0.5, 0.34375, 0.1875
2498, 0, 0.328125, 0.1875
2499, 1, 0.34375, 0.171875
2500, 0, 0.34375, 0.171875
2501, 1, 0.34375, 0.21875
2502, 0, 0.34375, 0.21875
2503, 1, 0.328125, 0.21875
2504, 0.5, 0.34375, 0.21875
2505, 0, 0.328125, 0.21875
2506, 1, 0.34375, 0.203125
2507, 0, 0.34375, 0.203125
2508, 1, 0.34375, 0.25
2509, 0, 0.34375, 0.25
2510, 1, 0.328125, 0.25
2511, 0.5, 0.34375, 0.25
2512, 0, 0.328125, 0.25
2513, 1, 0.34375, 0.234375
2514, 0, 0.34375, 0.234375
2515, 1, 0.34375, 0.28125
2516, 0, 0.34375, 0.28125
2517, 1, 0.328125, 0.28125
2518, 0.5, 0.34375, 0.28125
2519, 0, 0.328125, 0.28125
2520, 1, 0.34375, 0.265625
2521, 0, 0.34375, 0.265625
2522, 1, 0.34375, 0.3125
2523, 0, 0.34375, 0.3125
2524, 1, 0.328125, 0.3125
2525, 0.5, 0.34375, 0.3125
2526, 0, 0.328125, 0.3125
2527, 1, 0.34375, 0.296875
2528, 0, 0.34375, 0.296875
2529, 1, 0.34375, 0.34375
2530, 0, 0.34375, 0.34375
2531, 1, 0.328125, 0.34375
2532, 0.5, 0.34375, 0.34375
2533, 0, 0.328125, 0.34375
2534, 1, 0.34375, 0.328125
2535, 0, 0.34375, 0.328125
2536, 1, 0.34375, 0.375
2537, 0, 0.34375, 0.375
2538, 1, 0.328125, 0.375
2539, 0.5, 0.34375, 0.375
2540, 0, 0.328125, 0.375
2541, 1, 0.34375, 0.359375
2542, 0, 0.34375, 0.359375
2543, 1, 0.34375, 0.40625
2544, 0, 0.34375, 0.40625
2545, 1, 0.328125, 0.40625
2546, 0.5, 0.34375, 0.40625
2547, 0, 0.328125, 0.40625
2548, 1, 0.34375, 0.390625
2549, 0, 0.34375, 0.390625
2550, 1, 0.34375, 0.4375
2551, 0, 0.34375, 0.4375
2552, 1, 0.328125, 0.4375
2553, 0.5, 0.34375, 0.4375
2554, 0, 0.328125, 0.4375
2555, 1, 0.34375, 0.421875
2556, 0, 0.34375, 0.421875
2557, 1, 0.34375, 0.46875
2558, 0, 0.34375, 0.46875
2559, 1, 0.328125, 0.46875
2560, 0.5, 0.34375, 0.46875
2561, 0, 0.328125, 0.46875
2562, 1, 0.34375, 0.453125
2563, 0, 0.34375, 0.453125
2564, 1, 0.34375, 0.5
2565, 0, 0.34375, 0.5
2566, 1, 0.328125, 0.5
2567, 0.5, 0.34375, 0.5
2568, 0, 0.328125, 0.5
2569, 1, 0.34375, 0.484375
2570, 0, 0.34375, 0.484375
2571, 1, 0.34375, 0.53125
2572, 0, 0.34375, 0.53125
2573, 1, 0.328125, 0.53125
2574, 0.5, 0.34375, 0.53125
2575, 0, 0.328125, 0.53125
2576, 1, 0.34375, 0.515625
2577, 0, 0.34375, 0.515625
2578, 1, 0.34375, 0.5625
2579, 0, 0.34375, 0.5625
2580, 1, 0.328125, 0.5625
2581, 0.5, 0.34375, 0.5625
2582, 0, 0.328125, 0.5625
2583, 1, 0.34375, 0.546875
2584, 0, 0.34375, 0.546875
2585, 1, 0.34375, 0.59375
2586, 0, 0.34375, 0.59375
2587, 1, 0.328125, 0.59375
2588, 0.5, 0.34375, 0.59375
2589, 0, 0.328125, 0.59375
2590, 1, 0.34375, 0.578125
2591, 0, 0.34375, 0.578125
2592, 1, 0.34375, 0.625
2593, 0, 0.34375, 0.625
2594, 1, 0.328125, 0.625
2595, 0.5, 0.34375, 0.625
2596, 0, 0.328125, 0.625
2597, 1, 0.34375, 0.609375
2598, 0, 0.34375, 0.609375
2599, 1, 0.34375, 0.65625
2600, 0, 0.34375, 0.65625
2601, 1, 0.328125, 0.65625
2602, 0.5, 0.34375, 0.65625
2603, 0, 0.328125, 0.65625
2604, 1, 0.34375, 0.640625
2605, 0, 0.34375, 0.640625
2606, 1, 0.34375, 0.6875
2607, 0, 0.34375, 0.6875
2608, 1, 0.328125, 0.6875
2609, 0.5, 0.34375, 0.6875
2610, 0, 0.328125, 0.6875
2611, 1, 0.34375, 0.671875
2612, 0, 0.34375, 0.671875
2613, 1, 0.34375, 0.71875
2614, 0, 0.34375, 0.71875
2615, 1, 0.328125, 0.71875
2616, 0.5, 0.34375, 0.71875
2617, 0, 0.328125, 0.71875
2618, 1, 0.34375, 0.703125
2619, 0, 0.34375, 0.703125
2620, 1, 0.34375, 0.75
2621, 0, 0.34375, 0.75
2622, 1, 0.328125, 0.75
2623, 0.5, 0.34375, 0.75
2624, 0, 0.328125, 0.75
2625, 1, 0.34375, 0.734375
2626, 0, 0.34375, 0.734375
2627, 1, 0.34375, 0.78125
2628, 0, 0.34375, 0.78125
2629, 1, 0.328125, 0.78125
2630, 0.5, 0.34375, 0.78125
2631, 0, 0.328125, 0.78125
2632, 1, 0.34375, 0.765625
2633, 0, 0.34375, 0.765625
2634, 1, 0.34375, 0.8125
2635, 0, 0.34375, 0.8125
2636, 1, 0.328125, 0.8125
2637, 0.5, 0.34375, 0.8125
2638, 0, 0.328125, 0.8125
2639, 1, 0.34375, 0.796875
2640, 0, 0.34375, 0.796875
2641, 1, 0.34375, 0.84375
2642, 0, 0.34375, 0.84375
2643, 1, 0.328125, 0.84375
2644, 0.5, 0.34375, 0.84375
2645, 0, 0.328125, 0.84375
2646, 1, 0.34375, 0.828125
2647, 0, 0.34375, 0.828125
2648, 1, 0.34375, 0.875
2649, 0, 0.34375, 0.875
2650, 1, 0.328125, 0.875
2651, 0.5, 0.34375, 0.875
2652, 0, 0.328125, 0.875
2653, 1, 0.34375, 0.859375
2654, 0, 0.34375, 0.859375
2655, 1, 0.34375, 0.90625
2656, 0, 0.34375, 0.90625
2657, 1, 0.328125, 0.90625
2658, 0.5, 0.34375, 0.90625
2659, 0, 0.328125, 0.90625
2660, 1, 0.34375, 0.890625
2661, 0, 0.34375, 0.890625
2662, 1, 0.34375, 0.9375
2663, 0, 0.34375, 0.9375
2664, 1, 0.328125, 0.9375
2665, 0.5, 0.34375, 0.9375
2666, 0, 0.328125, 0.9375
2667, 1, 0.34375, 0.921875
2668, 0, 0.34375, 0.921875
2669, 1, 0.34375, 0.96875
2670, 0, 0.34375, 0.96875
2671, 1, 0.328125, 0.96875
2672, 0.5, 0.34375, 0.96875
2673, 0, 0.328125, 0.96875
2674, 1, 0.34375, 0.953125
2675, 0, 0.34375, 0.953125
2676, 1, 0.34375, 1
2677, 0, 0.34375, 1
2678, 1, 0.328125, 1
2679, 0.5, 0.34375, 1
2680, 0, 0.328125, 1
2681, 1, 0.34375, 0.984375
2682, 0, 0.34375, 0.984375
2683, 1, 0.375, 0
2684, 0, 0.375, 0
2685, 1, 0.375, 0.03125
2686, 0, 0.375, 0.03125
2687, 1, 0.359375, 0
2688, 0.5, 0.375, 0
2689, 0, 0.359375, 0
2690, 1, 0.359375, 0.03125
2691, 0.5, 0.375, 0.03125
2692, 0, 0.359375, 0.03125
2693, 1, 0.375, 0.015625
2694, 0, 0.375, 0.015625
2695, 1, 0.375, 0.0625
2696, 0, 0.375, 0.0625
2697, 1, 0.359375, 0.0625
2698, 0.5, 0.375, 0.0625
2699, 0, 0.359375, 0.0625
2700, 1, 0.375, 0.046875
2701, 0, 0.375, 0.046875
2702, 1, 0.375, 0.09375
2703, 0, 0.375, 0.09375
2704, 1, 0.359375, 0.09375
2705, 0.5, 0.375, 0.09375
2706, 0, 0.359375, 0.09375
2707, 1, 0.375, 0.078125
2708, 0, 0.375, 0.078125
2709, 1, 0.375, 0.125
2710, 0, 0.375, 0.125
2711, 1, 0.359375, 0.125
2712, 0.5, 0.375, 0.125
2713, 0, 0.359375, 0.125
2714, 1, 0.375, 0.109375
2715, 0, 0.375, 0.109375
2716, 1, 0.375, 0.15625
2717, 0, 0.375, 0.15625
2718, 1, 0.359375, 0.15625
2719, 0.5, 0.375, 0.15625
2720, 0, 0.359375, 0.15625
2721, 1, 0.375, 0.140625
2722, 0, 0.375, 0.140625
2723, 1, 0.375, 0.1875
2724, 0, 0.375, 0.1875
2725, 1, 0.359375, 0.1875
2726, 0.5, 0.375, 0.1875
2727, 0, 0.359375, 0.1875
2728, 1, 0.375, 0.171875
2729, 0, 0.375, 0.171875
2730, 1, 0.375, 0.21875
2731, 0, 0.375, 0.21875
2732, 1, 0.359375, 0.21875
2733, 0.5, 0.375, 0.21875
2734, 0, 0.359375, 0.21875
2735, 1, 0.375, 0.203125
2736, 0, 0.375, 0.203125
2737, 1, 0.375, 0.25
2738, 0, 0.375, 0.25
2739, 1, 0.359375, 0.25
2740, 0.5, 0.375, 0.25
2741, 0, 0.359375, 0.25
2742, 1, 0.375, 0.234375
2743, 0, 0.375, 0.234375
2744, 1, 0.375, 0.28125
2745, 0, 0.375, 0.28125
2746, 1, 0.359375, 0.28125
2747, 0.5, 0.375, 0.28125
2748, 0, 0.359375, 0.28125
2749, 1, 0.375, 0.265625
2750, 0, 0.375, 0.265625
2751, 1, 0.375, 0.3125
2752, 0, 0.375, 0.3125
2753, 1, 0.359375, 0.3125
2754, 0.5, 0.375, 0.3125
2755, 0, 0.359375, 0.3125
2756, 1, 0.375, 0.296875
2757, 0, 0.375, 0.296875
2758, 1, 0.375, 0.34375
2759, 0, 0.375, 0.34375
2760, 1, 0.359375, 0.34375
2761, 0.5, 0.375, 0.34375
2762, 0, 0.359375, 0.34375
2763, 1, 0.375, 0.328125
2764, 0, 0.375, 0.328125
2765, 1, 0.375, 0.375
2766, 0, 0.375, 0.375
2767, 1, 0.359375, 0.375
2768, 0.5, 0.375, 0.375
2769, 0, 0.359375, 0.375
2770, 1, 0.375, 0.359375
2771, 0, 0.375, 0.359375
2772, 1, 0.375, 0.40625
2773, 0, 0.375, 0.40625
2774, 1, 0.359375, 0.40625
2775, 0.5, 0.375, 0.40625
2776, 0, 0.359375, 0.40625
2777, 1, 0.375, 0.390625
2778, 0, 0.375, 0.390625
2779, 1, 0.375, 0.4375
2780, 0, 0.375, 0.4375
2781, 1, 0.359375, 0.4375
2782, 0.5, 0.375, 0.4375
2783, 0, 0.359375, 0.4375
2784, 1, 0.375, 0.421875
2785, 0, 0.375, 0.421875
2786, 1, 0.375, 0.46875
2787, 0, 0.375, 0.46875
2788, 1, 0.359375, 0.46875
2789, 0.5, 0.375, 0.46875
2790, 0, 0.359375, 0.46875
2791, 1, 0.375, 0.453125
2792, 0, 0.375, 0.453125
2793, 1, 0.375, 0.5
2794, 0, 0.375, 0.5
2795, 1, 0.359375, 0.5
2796, 0.5, 0.375, 0.5
2797, 0, 0.359375, 0.5
2798, 1, 0.375, 0.484375
2799, 0, 0.375, 0.484375
2800, 1, 0.375, 0.53125
2801, 0, 0.375, 0.53125
2802, 1, 0.359375, 0.53125
2803, 0.5, 0.375, 0.53125
2804, 0, 0.359375, 0.53125
2805, 1, 0.375, 0.515625
2806, 0, 0.375, 0.515625
2807, 1, 0.375, 0.5625
2808, 0, 0.375, 0.5625
2809, 1, 0.359375, 0.5625
2810, 0.5, 0.375, 0.5625
2811, 0, 0.359375, 0.5625
2812, 1, 0.375, 0.546875
2813, 0, 0.375, 0.546875
2814, 1, 0.375, 0.59375
2815, 0, 0.375, 0.59375
2816, 1, 0.359375, 0.59375
2817, 0.5, 0.375, 0.59375
2818, 0, 0.359375, 0.59375
2819, 1, 0.375, 0.578125
2820, 0, 0.375, 0.578125
2821, 1, 0.375, 0.625
2822, 0, 0.375, 0.625
2823, 1, 0.359375, 0.625
2824, 0.5, 0.375, 0.625
2825, 0, 0.359375, 0.625
2826, 1, 0.375, 0.609375
2827, 0, 0.375, 0.609375
2828, 1, 0.375, 0.65625
2829, 0, 0.375, 0.65625
2830, 1, 0.359375, 0.65625
2831, 0.5, 0.375, 0.65625
2832, 0, 0.359375, 0.65625
2833, 1, 0.375, 0.640625
2834, 0, 0.375, 0.640625
2835, 1, 0.375, 0.6875
2836, 0, 0.375, 0.6875
2837, 1, 0.359375, 0.6875
2838, 0.5, 0.375, 0.6875
2839, 0, 0.359375, 0.6875
2840, 1, 0.375, 0.671875
2841, 0, 0.375, 0.671875
2842, 1, 0.375, 0.71875
2843, 0, 0.375, 0.71875
2844, 1, 0.359375, 0.71875
2845, 0.5, 0.375, 0.71875
2846, 0, 0.359375, 0.71875
2847, 1, 0.375, 0.703125
2848, 0, 0.375, 0.703125
2849, 1, 0.375, 0.75
2850, 0, 0.375, 0.75
2851, 1, 0.359375, 0.75
2852, 0.5, 0.375, 0.75
2853, 0, 0.359375, 0.75
2854, 1, 0.375, 0.734375
2855, 0, 0.375, 0.734375
2856, 1, 0.375, 0.78125
2857, 0, 0.375, 0.78125
2858, 1, 0.359375, 0.78125
2859, 0.5, 0.375, 0.78125
2860, 0, 0.359375, 0.78125
2861, 1, 0.375, 0.765625
2862, 0, 0.375, 0.765625
2863, 1, 0.375, 0.8125
2864, 0, 0.375, 0.8125
2865, 1, 0.359375, 0.8125
2866, 0.5, 0.375, 0.8125
2867, 0, 0.359375, 0.8125
2868, 1, 0.375, 0.796875
2869, 0, 0.375, 0.796875
2870, 1, 0.375, 0.84375
2871, 0, 0.375, 0.84375
2872, 1, 0.359375, 0.84375
2873, 0.5, 0.375, 0.84375
2874, 0, 0.359375, 0.84375
2875, 1, 0.375, 0.828125
2876, 0, 0.375, 0.828125
2877, 1, 0.375, 0.875
2878, 0, 0.375, 0.875
2879, 1, 0.359375, 0.875
2880, 0.5, 0.375, 0.875
2881, 0, 0.359375, 0.875
2882, 1, 0.375, 0.859375
2883, 0, 0.375, 0.859375
2884, 1, 0.375, 0.90625
2885, 0, 0.375, 0.90625
2886, 1, 0.359375, 0.90625
2887, 0.5, 0.375, 0.90625
2888, 0, 0.359375, 0.90625
2889, 1, 0.375, 0.890625
2890, 0, 0.375, 0.890625
2891, 1, 0.375, 0.9375
2892, 0, 0.375, 0.9375
2893, 1, 0.359375, 0.9375
2894, 0.5, 0.375, 0.9375
2895, 0, 0.359375, 0.9375
2896, 1, 0.375, 0.921875
2897, 0, 0.375, 0.921875
2898, 1, 0.375, 0.96875
2899, 0, 0.375, 0.96875
2900, 1, 0.359375, 0.96875
2901, 0.5, 0.375, 0.96875
2902, 0, 0.359375, 0.96875
2903, 1, 0.375, 0.953125
2904, 0, 0.375, 0.953125
2905, 1, 0.375, 1
2906, 0, 0.375, 1
2907, 1, 0.359375, 1
2908, 0.5, 0.375, 1
2909, 0, 0.359375, 1
2910, 1, 0.375, 0.984375
2911, 0, 0.375, 0.984375
2912, 1, 0.40625, 0
2913, 0, 0.40625, 0
2914, 1, 0.40625, 0.03125
2915, 0, 0.40625, 0.03125
2916, 1, 0.390625, 0
2917, 0.5, 0.40625, 0
2918, 0, 0.390625, 0
2919, 1, 0.390625, 0.03125
2920, 0.5, 0.40625, 0.03125
2921, 0, 0.390625, 0.03125
2922, 1, 0.40625, 0.015625
2923, 0, 0.40625, 0.015625
2924, 1, 0.40625, 0.0625
2925, 0, 0.40625, 0.0625
2926, 1, 0.390625, 0.0625
2927, 0.5, 0.40625, 0.0625
2928, 0, 0.390625, 0.0625
2929, 1, 0.40625, 0.046875
2930, 0, 0.40625, 0.046875
2931, 1, 0.40625, 0.09375
2932, 0, 0.40625, 0.09375
2933, 1, 0.390625, 0.09375
2934, 0.5, 0.40625, 0.09375
2935, 0, 0.390625, 0.09375
2936, 1, 0.40625, 0.078125
2937, 0, 0.40625, 0.078125
2938, 1, 0.40625, 0.125
2939, 0, 0.40625, 0.125
2940, 1, 0.390625, 0.125
2941, 0.5, 0.40625, 0.125
2942, 0, 0.390625, 0.125
2943, 1, 0.40625, 0.109375
2944, 0, 0.40625, 0.109375
2945, 1, 0.40625, 0.15625
2946, 0, 0.40625, 0.15625
2947, 1, 0.390625, 0.15625
2948, 0.5, 0.40625, 0.15625
2949, 0, 0.390625, 0.15625
2950, 1, 0.40625, 0.140625
2951, 0, 0.40625, 0.140625
2952, 1, 0.40625, 0.1875
2953, 0, 0.40625, 0.1875
2954, 1, 0.390625, 0.1875
2955, 0.5, 0.40625, 0.1875
2956, 0, 0.390625, 0.1875
2957, 1, 0.40625, 0.171875
2958, 0, 0.40625, 0.171875
2959, 1, 0.40625, 0.21875
2960, 0, 0.40625, 0.21875
2961, 1, 0.390625, 0.21875
2962, 0.5, 0.40625, 0.21875
2963, 0, 0.390625, 0.21875
2964, 1, 0.40625, 0.203125
2965, 0, 0.40625, 0.203125
2966, 1, 0.40625, 0.25
2967, 0, 0.40625, 0.25
2968, 1, 0.390625, 0.25
2969, 0.5, 0.40625, 0.25
2970, 0, 0.390625, 0.25
2971, 1, 0.40625, 0.234375
2972, 0, 0.40625, 0.234375
2973, 1, 0.40625, 0.28125
2974, 0, 0.40625, 0.28125
2975, 1, 0.390625, 0.28125
2976, 0.5, 0.40625, 0.28125
2977, 0, 0.390625, 0.28125
2978, 1, 0.40625, 0.265625
2979, 0, 0.40625, 0.265625
2980, 1, 0.40625, 0.3125
2981, 0, 0.40625, 0.3125
2982, 1, 0.390625, 0.3125
2983, 0.5, 0.40625, 0.3125
2984, 0, 0.390625, 0.3125
2985, 1, 0.40625, 0.296875
2986, 0, 0.40625, 0.296875
2987, 1, 0.40625, 0.34375
2988, 0, 0.40625, 0.34375
2989, 1, 0.390625, 0.34375
2990, 0.5, 0.40625, 0.34375
2991, 0, 0.390625, 0.34375
2992, 1, 0.40625, 0.328125
2993, 0, 0.40625, 0.328125
2994, 1, 0.40625, 0.375
2995, 0, 0.40625, 0.375
2996, 1, 0.390625, 0.375
2997, 0.5, 0.40625, 0.375
2998, 0, 0.390625, 0.375
2999, 1, 0.40625, 0.359375
3000, 0, 0.40625, 0.359375
3001, 1, 0.40625, 0.40625
3002, 0, 0.40625, 0.40625
3003, 1, 0.390625, 0.40625
3004, 0.5, 0.40625, 0.40625
3005, 0, 0.390625, 0.40625
3006, 1, 0.40625, 0.390625
3007, 0, 0.40625, 0.390625
3008, 1, 0.40625, 0.4375
3009, 0, 0.40625, 0.4375
3010, 1, 0.390625, 0.4375
3011, 0.5, 0.40625, 0.4375
3012, 0, 0.390625, 0.4375
3013, 1, 0.40625, 0.421875
3014, 0, 0.40625, 0.421875
3015, 1, 0.40625, 0.46875
3016, 0, 0.40625, 0.46875
3017, 1, 0.390625, 0.46875
3018, 0.5, 0.40625, 0.46875
3019, 0, 0.390625, 0.46875
3020, 1, 0.40625, 0.453125
3021, 0, 0.40625, 0.453125
3022, 1, 0.40625, 0.5
3023, 0, 0.40625, 0.5
3024, 1, 0.390625, 0.5
3025, 0.5, 0.40625, 0.5
3026, 0, 0.390625, 0.5
3027, 1, 0.40625, 0.484375
3028, 0, 0.40625, 0.484375
3029, 1, 0.40625, 0.53125
3030, 0, 0.40625, 0.53125
3031, 1, 0.390625, 0.53125
3032, 0.5, 0.40625, 0.53125
3033, 0, 0.390625, 0.53125
3034, 1, 0.40625, 0.515625
3035, 0, 0.40625, 0.515625
3036, 1, 0.40625, 0.5625
3037, 0, 0.40625, 0.5625
3038, 1, 0.390625, 0.5625
3039, 0.5, 0.40625, 0.5625
3040, 0, 0.390625, 0.5625
3041, 1, 0.40625, 0.546875
3042, 0, 0.40625, 0.546875
3043, 1, 0.40625, 0.59375
3044, 0, 0.40625, 0.59375
3045, 1, 0.390625, 0.59375
3046, 0.5, 0.40625, 0.59375
3047, 0, 0.390625, 0.59375
3048, 1, 0.40625, 0.578125
3049, 0, 0.40625, 0.578125
3050, 1, 0.40625, 0.625
3051, 0, 0.40625, 0.625
3052, 1, 0.390625, 0.625
3053, 0.5, 0.40625, 0.625
3054, 0, 0.390625, 0.625
3055, 1, 0.40625, 0.609375
3056, 0, 0.40625, 0.609375
3057, 1, 0.40625, 0.65625
3058, 0, 0.40625, 0.65625
3059, 1, 0.390625, 0.65625
3060, 0.5, 0.40625, 0.65625
3061, 0, 0.390625, 0.65625
3062, 1, 0.40625, 0.640625
3063, 0, 0.40625, 0.640625
3064, 1, 0.40625, 0.6875
3065, 0, 0.40625, 0.6875
3066, 1, 0.390625, 0.6875
3067, 0.5, 0.40625, 0.6875
3068, 0, 0.390625, 0.6875
3069, 1, 0.40625, 0.671875
3070, 0, 0.40625, 0.671875
3071, 1, 0.40625, 0.71875
3072, 0, 0.40625, 0.71875
3073, 1, 0.390625, 0.71875
3074, 0.5, 0.40625, 0.71875
3075, 0, 0.390625, 0.71875
3076, 1, 0.40625, 0.703125
3077, 0, 0.40625, 0.703125
3078, 1, 0.40625, 0.75
3079, 0, 0.40625, 0.75
3080, 1, 0.390625, 0.75
3081, 0.5, 0.40625, 0.75
3082, 0, 0.390625, 0.75
3083, 1, 0.40625, 0.734375
3084, 0, 0.40625, 0.734375
3085, 1, 0.40625, 0.78125
3086, 0, 0.40625, 0.78125
3087, 1, 0.390625, 0.78125
3088, 0.5, 0.40625, 0.78125
3089, 0, 0.390625, 0.78125
3090, 1, 0.40625, 0.765625
3091, 0, 0.40625, 0.765625
3092, 1, 0.40625, 0.8125
3093, 0, 0.40625, 0.8125
3094, 1, 0.390625, 0.8125
3095, 0.5, 0.40625, 0.8125
3096, 0, 0.390625, 0.8125
3097, 1, 0.40625, 0.796875
3098, 0, 0.40625, 0.796875
3099, 1, 0.40625, 0.84375
3100, 0, 0.40625, 0.84375
3101, 1, 0.390625, 0.84375
3102, 0.5, 0.40625, 0.84375
3103, 0, 0.390625, 0.84375
3104, 1, 0.40625, 0.828125
3105, 0, 0.40625, 0.828125
3106, 1, 0.40625, 0.875
3107, 0, 0.40625, 0.875
3108, 1, 0.390625, 0.875
3109, 0.5, 0.40625, 0.875
3110, 0, 0.390625, 0.875
3111, 1, 0.40625, 0.859375
3112, 0, 0.40625, 0.859375
3113, 1, 0.40625, 0.90625
3114, 0, 0.40625, 0.90625
3115, 1, 0.390625, 0.90625
3116, 0.5, 0.40625, 0.90625
3117, 0, 0.390625, 0.90625
3118, 1, 0.40625, 0.890625
3119, 0, 0.40625, 0.890625
3120, 1, 0.40625, 0.9375
3121, 0, 0.40625, 0.9375
3122, 1, 0.390625, 0.9375
3123, 0.5, 0.40625, 0.9375
3124, 0, 0.390625, 0.9375
3125, 1, 0.40625, 0.921875
3126, 0, 0.40625, 0.921875
3127, 1, 0.40625, 0.96875
3128, 0, 0.40625, 0.96875
3129, 1, 0.390625, 0.96875
3130, 0.5, 0.40625, 0.96875
3131, 0, 0.390625, 0.96875
3132, 1, 0.40625, 0.953125
3133, 0, 0.40625, 0.953125
3134, 1, 0.40625, 1
3135, 0, 0.40625, 1
3136, 1, 0.390625, 1
3137, 0.5, 0.40625, 1
3138, 0, 0.390625, 1
3139, 1, 0.40625, 0.984375
3140, 0, 0.40625, 0.984375
3141, 1, 0.4375, 0
3142, 0, 0.4375, 0
3143, 1, 0.4375, 0.03125
3144, 0, 0.4375, 0.03125
3145, 1, 0.421875, 0
3146, 0.5, 0.4375, 0
3147, 0, 0.421875, 0
3148, 1, 0.421875, 0.03125
3149, 0.5, 0.4375, 0.03125
3150, 0, 0.421875, 0.03125
3151, 1, 0.4375, 0.015625
3152, 0, 0.4375, 0.015625
3153, 1, 0.4375, 0.0625
3154, 0, 0.4375, 0.0625
3155, 1, 0.421875, 0.0625
3156, 0.5, 0.4375, 0.0625
3157, 0, 0.421875, 0.0625
3158, 1, 0.4375, 0.046875
3159, 0, 0.4375, 0.046875
3160, 1, 0.4375, 0.09375
3161, 0, 0.4375, 0.09375
3162, 1, 0.421875, 0.09375
3163, 0.5, 0.4375, 0.09375
3164, 0, 0.421875, 0.09375
3165, 1, 0.4375, 0.078125
3166, 0, 0.4375, 0.078125
3167, 1, 0.4375, 0.125
3168, 0, 0.4375, 0.125
3169, 1, 0.421875, 0.125
3170, 0.5, 0.4375, 0.125
3171, 0, 0.421875, 0.125
3172, 1, 0.4375, 0.109375
3173, 0, 0.4375, 0.109375
3174, 1, 0.4375, 0.15625
3175, 0, 0.4375, 0.15625
3176, 1, 0.421875, 0.15625
3177, 0.5, 0.4375, 0.15625
3178, 0, 0.421875, 0.15625
3179, 1, 0.4375, 0.140625
3180, 0, 0.4375, 0.140625
3181, 1, 0.4375, 0.1875
3182, 0, 0.4375, 0.1875
3183, 1, 0.421875, 0.1875
3184, 0.5, 0.4375, 0.1875
3185, 0, 0.421875, 0.1875
3186, 1, 0.4375, 0.171875
3187, 0, 0.4375, 0.171875
3188, 1, 0.4375, 0.21875
3189, 0, 0.4375, 0.21875
3190, 1, 0.421875, 0.21875
3191, 0.5, 0.4375, 0.21875
3192, 0, 0.421875, 0.21875
3193, 1, 0.4375, 0.203125
3194, 0, 0.4375, 0.203125
3195, 1, 0.4375, 0.25
3196, 0, 0.4375, 0.25
3197, 1, 0.421875, 0.25
3198, 0.5, 0.4375, 0.25
3199, 0, 0.421875, 0.25
3200, 1, 0.4375, 0.234375
3201, 0, 0.4375, 0.234375
3202, 1, 0.4375, 0.28125
3203, 0, 0.4375, 0.28125
3204, 1, 0.421875, 0.28125
3205, 0.5, 0.4375, 0.28125
3206, 0, 0.421875, 0.28125
3207, 1, 0.4375, 0.265625
3208, 0, 0.4375, 0.265625
3209, 1, 0.4375, 0.3125
3210, 0, 0.4375, 0.3125
3211, 1, 0.421875, 0.3125
3212, 0.5, 0.4375, 0.3125
3213, 0, 0.421875, 0.3125
3214, 1, 0.4375, 0.296875
3215, 0, 0.4375, 0.296875
3216, 1, 0.4375, 0.34375
3217, 0, 0.4375, 0.34375
3218, 1, 0.421875, 0.34375
3219, 0.5, 0.4375, 0.34375
3220, 0, 0.421875, 0.34375
3221, 1, 0.4375, 0.328125
3222, 0, 0.4375, 0.328125
3223, 1, 0.4375, 0.375
3224, 0, 0.4375, 0.375
3225, 1, 0.421875, 0.375
3226, 0.5, 0.4375, 0.375
3227, 0, 0.421875, 0.375
3228, 1, 0.4375, 0.359375
3229, 0, 0.4375, 0.359375
3230, 1, 0.4375, 0.40625
3231, 0, 0.4375, 0.40625
3232, 1, 0.421875, 0.40625
3233, 0.5, 0.4375, 0.40625
3234, 0, 0.421875, 0.40625
3235, 1, 0.4375, 0.390625
3236, 0, 0.4375, 0.390625
3237, 1, 0.4375, 0.4375
3238, 0, 0.4375, 0.4375
3239, 1, 0.421875, 0.4375
3240, 0.5, 0.4375, 0.4375
3241, 0, 0.421875, 0.4375
3242, 1, 0.4375, 0.421875
3243, 0, 0.4375, 0.421875
3244, 1, 0.4375, 0.46875
3245, 0, 0.4375, 0.46875
3246, 1, 0.421875, 0.46875
3247, 0.5, 0.4375, 0.46875
3248, 0, 0.421875, 0.46875
3249, 1, 0.4375, 0.453125
3250, 0, 0.4375, 0.453125
3251, 1, 0.4375, 0.5
3252, 0, 0.4375, 0.5
3253, 1, 0.421875, 0.5
3254, 0.5, 0.4375, 0.5
3255, 0, 0.421875, 0.5
3256, 1, 0.4375, 0.484375
3257, 0, 0.4375, 0.484375
3258, 1, 0.4375, 0.53125
3259, 0, 0.4375, 0.53125
3260, 1, 0.421875, 0.53125
3261, 0.5, 0.4375, 0.53125
3262, 0, 0.421875, 0.53125
3263, 1, 0.4375, 0.515625
3264, 0, 0.4375, 0.515625
3265, 1, 0.4375, 0.5625
3266, 0, 0.4375, 0.5625
3267, 1, 0.421875, 0.5625
3268, 0.5, 0.4375, 0.5625
3269, 0, 0.421875, 0.5625
3270, 1, 0.4375, 0.546875
3271, 0, 0.4375, 0.546875
3272, 1, 0.4375, 0.59375
3273, 0, 0.4375, 0.59375
3274, 1, 0.421875, 0.59375
3275, 0.5, 0.4375, 0.59375
3276, 0, 0.421875, 0.59375
3277, 1, 0.4375, 0.578125
3278, 0, 0.4375, 0.578125
3279, 1, 0.4375, 0.625
3280, 0, 0.4375, 0.625
3281, 1, 0.421875, 0.625
3282, 0.5, 0.4375, 0.625
3283, 0, 0.421875, 0.625
3284, 1, 0.4375, 0.609375
3285, 0, 0.4375, 0.609375
3286, 1, 0.4375, 0.65625
3287, 0, 0.4375, 0.65625
3288, 1, 0.421875, 0.65625
3289, 0.5, 0.4375, 0.65625
3290, 0, 0.421875, 0.65625
3291, 1, 0.4375, 0.640625
3292, 0, 0.4375, 0.640625
3293, 1, 0.4375, 0.6875
3294, 0, 0.4375, 0.6875
3295, 1, 0.421875, 0.6875
3296, 0.5, 0.4375, 0.6875
3297, 0, 0.421875, 0.6875
3298, 1, 0.4375, 0.671875
3299, 0, 0.4375, 0.671875
3300, 1, 0.4375, 0.71875
3301, 0, 0.4375, 0.71875
3302, 1, 0.421875, 0.71875
3303, 0.5, 0.4375, 0.71875
3304, 0, 0.421875, 0.71875
3305, 1, 0.4375, 0.703125
3306, 0, 0.4375, 0.703125
3307, 1, 0.4375, 0.75
3308, 0, 0.4375, 0.75
3309, 1, 0.421875, 0.75
3310, 0.5, 0.4375, 0.75
3311, 0, 0.421875, 0.75
3312, 1, 0.4375, 0.734375
3313, 0, 0.4375, 0.734375
3314, 1, 0.4375, 0.78125
3315, 0, 0.4375, 0.78125
3316, 1, 0.421875, 0.78125
3317, 0.5, 0.4375, 0.78125
3318, 0, 0.421875, 0.78125
3319, 1, 0.4375, 0.765625
3320, 0, 0.4375, 0.765625
3321, 1, 0.4375, 0.8125
3322, 0, 0.4375, 0.8125
3323, 1, 0.421875, 0.8125
3324, 0.5, 0.4375, 0.8125
3325, 0, 0.421875, 0.8125
3326, 1, 0.4375, 0.796875
3327, 0, 0.4375, 0.796875
3328, 1, 0.4375, 0.84375
3329, 0, 0.4375, 0.84375
3330, 1, 0.421875, 0.84375
3331, 0.5, 0.4375, 0.84375
3332, 0, 0.421875, 0.84375
3333, 1, 0.4375, 0.828125
3334, 0, 0.4375, 0.828125
3335, 1, 0.4375, 0.875
3336, 0, 0.4375, 0.875
3337, 1, 0.421875, 0.875
3338, 0.5, 0.4375, 0.875
3339, 0, 0.421875, 0.875
3340, 1, 0.4375, 0.859375
3341, 0, 0.4375, 0.859375
3342, 1, 0.4375, 0.90625
3343, 0, 0.4375, 0.90625
3344, 1, 0.421875, 0.90625
3345, 0.5, 0.4375, 0.90625
3346, 0, 0.421875, 0.90625
3347, 1, 0.4375, 0.890625
3348, 0, 0.4375, 0.890625
3349, 1, 0.4375, 0.9375
3350, 0, 0.4375, 0.9375
3351, 1, 0.421875, 0.9375
3352, 0.5, 0.4375, 0.9375
3353, 0, 0.421875, 0.9375
3354, 1, 0.4375, 0.921875
3355, 0, 0.4375, 0.921875
3356, 1, 0.4375, 0.96875
3357, 0, 0.4375, 0.96875
3358, 1, 0.421875, 0.96875
3359, 0.5, 0.4375, 0.96875
3360, 0, 0.421875, 0.96875
3361, 1, 0.4375, 0.953125
3362, 0, 0.4375, 0.953125
3363, 1, 0.4375, 1
3364, 0, 0.4375, 1
3365, 1, 0.421875, 1
3366, 0.5, 0.4375, 1
3367, 0, 0.421875, 1
3368, 1, 0.4375, 0.984375
3369, 0, 0.4375, 0.984375
3370, 1, 0.46875, 0
3371, 0, 0.46875, 0
3372, 1, 0.46875, 0.03125
3373, 0, 0.46875, 0.03125
3374, 1, 0.453125, 0
3375, 0.5, 0.46875, 0
3376, 0, 0.453125, 0
3377, 1, 0.453125, 0.03125
3378, 0.5, 0.46875, 0.03125
3379, 0, 0.453125, 0.03125
3380, 1, 0.46875, 0.015625
3381, 0, 0.46875, 0.015625
3382, 1, 0.46875, 0.0625
3383, 0, 0.46875, 0.0625
3384, 1, 0.453125, 0.0625
3385, 0.5, 0.46875, 0.0625
3386, 0, 0.453125, 0.0625
3387, 1, 0.46875, 0.046875
3388, 0, 0.46875, 0.046875
3389, 1, 0.46875, 0.09375
3390, 0, 0.46875, 0.09375
3391, 1, 0.453125, 0.09375
3392, 0.5, 0.46875, 0.09375
3393, 0, 0.453125, 0.09375
3394, 1, 0.46875, 0.078125
3395, 0, 0.46875, 0.078125
3396, 1, 0.46875, 0.125
3397, 0, 0.46875, 0.125
3398, 1, 0.453125, 0.125
3399, 0.5, 0.46875, 0.125
3400, 0, 0.453125, 0.125
3401, 1, 0.46875, 0.109375
3402, 0, 0.46875, 0.109375
3403, 1, 0.46875, 0.15625
3404, 0, 0.46875, 0.15625
3405, 1, 0.453125, 0.15625
3406, 0.5, 0.46875, 0.15625
3407, 0, 0.453125, 0.15625
3408, 1, 0.46875, 0.140625
3409, 0, 0.46875, 0.140625
3410, 1, 0.46875, 0.1875
3411, 0, 0.46875, 0.1875
3412, 1, 0.453125, 0.1875
3413, 0.5, 0.46875, 0.1875
3414, 0, 0.453125, 0.1875
3415, 1, 0.46875, 0.171875
3416, 0, 0.46875, 0.171875
3417, 1, 0.46875, 0.21875
3418, 0, 0.46875, 0.21875
3419, 1, 0.453125, 0.21875
3420, 0.5, 0.46875, 0.21875
3421, 0, 0.453125, 0.21875
3422, 1, 0.46875, 0.203125
3423, 0, 0.46875, 0.203125
3424, 1, 0.46875, 0.25
3425, 0, 0.46875, 0.25
3426, 1, 0.453125, 0.25
3427, 0.5, 0.46875, 0.25
3428, 0, 0.453125, 0.25
3429, 1, 0.46875, 0.234375
3430, 0, 0.46875, 0.234375
3431, 1, 0.46875, 0.28125
3432, 0, 0.46875, 0.28125
3433, 1, 0.453125, 0.28125
3434, 0.5, 0.46875, 0.28125
3435, 0, 0.453125, 0.28125
3436, 1, 0.46875, 0.265625
3437, 0, 0.46875, 0.265625
3438, 1, 0.46875, 0.3125
3439, 0, 0.46875, 0.3125
3440, 1, 0.453125, 0.3125
3441, 0.5, 0.46875, 0.3125
3442, 0, 0.453125, 0.3125
3443, 1, 0.46875, 0.296875
3444, 0, 0.46875, 0.296875
3445, 1, 0.46875, 0.34375
3446, 0, 0.46875, 0.34375
3447, 1, 0.453125, 0.34375
3448, 0.5, 0.46875, 0.34375
3449, 0, 0.453125, 0.34375
3450, 1, 0.46875, 0.328125
3451, 0, 0.46875, 0.328125
3452, 1, 0.46875, 0.375
3453, 0, 0.46875, 0.375
3454, 1, 0.453125, 0.375
3455, 0.5, 0.46875, 0.375
3456, 0, 0.453125, 0.375
3457, 1, 0.46875, 0.359375
3458, 0, 0.46875, 0.359375
3459, 1, 0.46875, 0.40625
3460, 0, 0.46875, 0.40625
3461, 1, 0.453125, 0.40625
3462, 0.5, 0.46875, 0.40625
3463, 0, 0.453125, 0.40625
3464, 1, 0.46875, 0.390625
3465, 0, 0.46875, 0.390625
3466, 1, 0.46875, 0.4375
3467, 0, 0.46875, 0.4375
3468, 1, 0.453125, 0.4375
3469, 0.5, 0.46875, 0.4375
3470, 0, 0.453125, 0.4375
3471, 1, 0.46875, 0.421875
3472, 0, 0.46875, 0.421875
3473, 1, 0.46875, 0.46875
3474, 0, 0.46875, 0.46875
3475, 1, 0.453125, 0.46875
3476, 0.5, 0.46875, 0.46875
3477, 0, 0.453125, 0.46875
3478, 1, 0.46875, 0.453125
3479, 0, 0.46875, 0.453125
3480, 1, 0.46875, 0.5
3481, 0, 0.46875, 0.5
3482, 1, 0.453125, 0.5
3483, 0.5, 0.46875, 0.5
3484, 0, 0.453125, 0.5
3485, 1, 0.46875, 0.484375
3486, 0, 0.46875, 0.484375
3487, 1, 0.46875, 0.53125
3488, 0, 0.46875, 0.53125
3489, 1, 0.453125, 0.53125
3490, 0.5, 0.46875, 0.53125
3491, 0, 0.453125, 0.53125
3492, 1, 0.46875, 0.515625
3493, 0, 0.46875, 0.515625
3494, 1, 0.46875, 0.5625
3495, 0, 0.46875, 0.5625
3496, 1, 0.453125, 0.5625
3497, 0.5, 0.46875, 0.5625
3498, 0, 0.453125, 0.5625
3499, 1, 0.46875, 0.546875
3500, 0, 0.46875, 0.546875
3501, 1, 0.46875, 0.59375
3502, 0, 0.46875, 0.59375
3503, 1, 0.453125, 0.59375
3504, 0.5, 0.46875, 0.59375
3505, 0, 0.453125, 0.59375
3506, 1, 0.46875, 0.578125
3507, 0, 0.46875, 0.578125
3508, 1, 0.46875, 0.625
3509, 0, 0.46875, 0.625
3510, 1, 0.453125, 0.625
3511, 0.5, 0.46875, 0.625
3512, 0, 0.453125, 0.625
3513, 1, 0.46875, 0.609375
3514, 0, 0.46875, 0.609375
3515, 1, 0.46875, 0.65625
3516, 0, 0.46875, 0.65625
3517, 1, 0.453125, 0.65625
3518, 0.5, 0.46875, 0.65625
3519, 0, 0.453125, 0.65625
3520, 1, 0.46875, 0.640625
3521, 0, 0.46875, 0.640625
3522, 1, 0.46875, 0.6875
3523, 0, 0.46875, 0.6875
3524, 1, 0.453125, 0.6875
3525, 0.5, 0.46875, 0.6875
3526, 0, 0.453125, 0.6875
3527, 1, 0.46875, 0.671875
3528, 0, 0.46875, 0.671875
3529, 1, 0.46875, 0.71875
3530, 0, 0.46875, 0.71875
3531, 1, 0.453125, 0.71875
3532, 0.5, 0.46875, 0.71875
3533, 0, 0.453125, 0.71875
3534, 1, 0.46875, 0.703125
3535, 0, 0.46875, 0.703125
3536, 1, 0.46875, 0.75
3537, 0, 0.46875, 0.75
3538, 1, 0.453125, 0.75
3539, 0.5, 0.46875, 0.75
3540, 0, 0.453125, 0.75
3541, 1, 0.46875, 0.734375
3542, 0, 0.46875, 0.734375
3543, 1, 0.46875, 0.78125
3544, 0, 0.46875, 0.78125
3545, 1, 0.453125, 0.78125
3546, 0.5, 0.46875, 0.78125
3547, 0, 0.453125, 0.78125
3548, 1, 0.46875, 0.765625
3549, 0, 0.46875, 0.765625
3550, 1, 0.46875, 0.8125
3551, 0, 0.46875, 0.8125
3552, 1, 0.453125, 0.8125
3553, 0.5, 0.46875, 0.8125
3554, 0, 0.453125, 0.8125
3555, 1, 0.46875, 0.796875
3556, 0, 0.46875, 0.796875
3557, 1, 0.46875, 0.84375
3558, 0, 0.46875, 0.84375
3559, 1, 0.453125, 0.84375
3560, 0.5, 0.46875, 0.84375
3561, 0, 0.453125, 0.84375
3562, 1, 0.46875, 0.828125
3563, 0, 0.46875, 0.828125
3564, 1, 0.46875, 0.875
3565, 0, 0.46875, 0.875
3566, 1, 0.453125, 0.875
3567, 0.5, 0.46875, 0.875
3568, 0, 0.453125, 0.875
3569, 1, 0.46875, 0.859375
3570, 0, 0.46875, 0.859375
3571, 1, 0.46875, 0.90625
3572, 0, 0.46875, 0.90625
3573, 1, 0.453125, 0.90625
3574, 0.5, 0.46875, 0.90625
3575, 0, 0.453125, 0.90625
3576, 1, 0.46875, 0.890625
3577, 0, 0.46875, 0.890625
3578, 1, 0.46875, 0.9375
3579, 0, 0.46875, 0.9375
3580, 1, 0.453125, 0.9375
3581, 0.5, 0.46875, 0.9375
3582, 0, 0.453125, 0.9375
3583, 1, 0.46875, 0.921875
3584, 0, 0.46875, 0.921875
3585, 1, 0.46875, 0.96875
3586, 0, 0.46875, 0.96875
3587, 1, 0.453125, 0.96875
3588, 0.5, 0.46875, 0.96875
3589, 0, 0.453125, 0.96875
3590, 1, 0.46875, 0.953125
3591, 0, 0.46875, 0.953125
3592, 1, 0.46875, 1
3593, 0, 0.46875, 1
3594, 1, 0.453125, 1
3595, 0.5, 0.46875, 1
3596, 0, 0.453125, 1
3597, 1, 0.46875, 0.984375
3598, 0, 0.46875, 0.984375
3599, 1, 0.5, 0
3600, 0, 0.5, 0
3601, 1, 0.5, 0.03125
3602, 0, 0.5, 0.03125
3603, 1, 0.484375, 0
3604, 0.5, 0.5, 0
3605, 0, 0.484375, 0
3606, 1, 0.484375, 0.03125
3607, 0.5, 0.5, 0.03125
3608, 0, 0.484375, 0.03125
3609, 1, 0.5, 0.015625
3610, 0, 0.5, 0.015625
3611, 1, 0.5, 0.0625
3612, 0, 0.5, 0.0625
3613, 1, 0.484375, 0.0625
3614, 0.5, 0.5, 0.0625
3615, 0, 0.484375, 0.0625
3616, 1, 0.5, 0.046875
3617, 0, 0.5, 0.046875
3618, 1, 0.5, 0.09375
3619, 0, 0.5, 0.09375
3620, 1, 0.484375, 0.09375
3621, 0.5, 0.5, 0.09375
3622, 0, 0.484375, 0.09375
3623, 1, 0.5, 0.078125
3624, 0, 0.5, 0.078125
3625, 1, 0.5, 0.125
3626, 0, 0.5, 0.125
3627, 1, 0.484375, 0.125
3628, 0.5, 0.5, 0.125
3629, 0, 0.484375, 0.125
3630, 1, 0.5, 0.109375
3631, 0, 0.5, 0.109375
3632, 1, 0.5, 0.15625
3633, 0, 0.5, 0.15625
3634, 1, 0.484375, 0.15625
3635, 0.5, 0.5, 0.15625
3636, 0, 0.484375, 0.15625
3637, 1, 0.5, 0.140625
3638, 0, 0.5, 0.140625
3639, 1, 0.5, 0.1875
3640, 0, 0.5, 0.1875
3641, 1, 0.484375, 0.1875
3642, 0.5, 0.5, 0.1875
3643, 0, 0.484375, 0.1875
3644, 1, 0.5, 0.171875
3645, 0, 0.5, 0.171875
3646, 1, 0.5, 0.21875
3647, 0, 0.5, 0.21875
3648, 1, 0.484375, 0.21875
3649, 0.5, 0.5, 0.21875
3650, 0, 0.484375, 0.21875
3651, 1, 0.5, 0.203125
3652, 0, 0.5, 0.203125
3653, 1, 0.5, 0.25
3654, 0, 0.5, 0.25
3655, 1, 0.484375, 0.25
3656, 0.5, 0.5, 0.25
3657, 0, 0.484375, 0.25
3658, 1, 0.5, 0.234375
3659, 0, 0.5, 0.234375
3660, 1, 0.5, 0.28125
3661, 0, 0.5, 0.28125
3662, 1, 0.484375, 0.28125
3663, 0.5, 0.5, 0.28125
3664, 0, 0.484375, 0.28125
3665, 1, 0.5, 0.265625
3666, 0, 0.5, 0.265625
3667, 1, 0.5, 0.3125
3668, 0, 0.5, 0.3125
3669, 1, 0.484375, 0.3125
3670, 0.5, 0.5, 0.3125
3671, 0, 0.484375, 0.3125
3672, 1, 0.5, 0.296875
3673, 0, 0.5, 0.296875
3674, 1, 0.5, 0.34375
3675, 0, 0.5, 0.34375
3676, 1, 0.484375, 0.34375
3677, 0.5, 0.5, 0.34375
3678, 0, 0.484375, 0.34375
3679, 1, 0.5, 0.328125
3680, 0, 0.5, 0.328125
3681, 1, 0.5, 0.375
3682, 0, 0.5, 0.375
3683, 1, 0.484375, 0.375
3684, 0.5, 0.5, 0.375
3685, 0, 0.484375, 0.375
3686, 1, 0.5, 0.359375
3687, 0, 0.5, 0.359375
3688, 1, 0.5, 0.40625
3689, 0, 0.5, 0.40625
3690, 1, 0.484375, 0.40625
3691, 0.5, 0.5, 0.40625
3692, 0, 0.484375, 0.40625
3693, 1, 0.5, 0.390625
3694, 0, 0.5, 0.390625
3695, 1, 0.5, 0.4375
3696, 0, 0.5, 0.4375
3697, 1, 0.484375, 0.4375
3698, 0.5, 0.5, 0.4375
3699, 0, 0.484375, 0.4375
3700, 1, 0.5, 0.421875
3701, 0, 0.5, 0.421875
3702, 1, 0.5, 0.46875
3703, 0, 0.5, 0.46875
3704, 1, 0.484375, 0.46875
3705, 0.5, 0.5, 0.46875
3706, 0, 0.484375, 0.46875
3707, 1, 0.5, 0.453125
3708, 0, 0.5, 0.453125
3709, 1, 0.5, 0.5
3710, 0, 0.5, 0.5
3711, 1, 0.484375, 0.5
3712, 0.5, 0.5, 0.5
3713, 0, 0.484375, 0.5
3714, 1, 0.5, 0.484375
3715, 0, 0.5, 0.484375
3716, 1, 0.5, 0.53125
3717, 0, 0.5, 0.53125
3718, 1, 0.484375, 0.53125
3719, 0.5, 0.5, 0.53125
3720, 0, 0.484375, 0.53125
3721, 1, 0.5, 0.515625
3722, 0, 0.5, 0.515625
3723, 1, 0.5, 0.5625
3724, 0, 0.5, 0.5625
3725, 1, 0.484375, 0.5625
3726, 0.5, 0.5, 0.5625
3727, 0, 0.484375, 0.5625
3728, 1, 0.5, 0.546875
3729, 0, 0.5, 0.546875
3730, 1, 0.5, 0.59375
3731, 0, 0.5, 0.59375
3732, 1, 0.484375, 0.59375
3733, 0.5, 0.5, 0.59375
3734, 0, 0.484375, 0.59375
3735, 1, 0.5, 0.578125
3736, 0, 0.5, 0.578125
3737, 1, 0.5, 0.625
3738, 0, 0.5, 0.625
3739, 1, 0.484375, 0.625
3740, 0.5, 0.5, 0.625
3741, 0, 0.484375, 0.625
3742, 1, 0.5, 0.609375
3743, 0, 0.5, 0.609375
3744, 1, 0.5, 0.65625
3745, 0, 0.5, 0.65625
3746, 1, 0.484375, 0.65625
3747, 0.5, 0.5, 0.65625
3748, 0, 0.484375, 0.65625
3749, 1, 0.5, 0.640625
3750, 0, 0.5, 0.640625
3751, 1, 0.5, 0.6875
3752, 0, 0.5, 0.6875
3753, 1, 0.484375, 0.6875
3754, 0.5, 0.5, 0.6875
3755, 0, 0.484375, 0.6875
3756, 1, 0.5, 0.671875
3757, 0, 0.5, 0.671875
3758, 1, 0.5, 0.71875
3759, 0, 0.5, 0.71875
3760, 1, 0.484375, 0.71875
3761, 0.5, 0.5, 0.71875
3762, 0, 0.484375, 0.71875
3763, 1, 0.5, 0.703125
3764, 0, 0.5, 0.703125
3765, 1, 0.5, 0.75
3766, 0, 0.5, 0.75
3767, 1, 0.484375, 0.75
3768, 0.5, 0.5, 0.75
3769, 0, 0.484375, 0.75
3770, 1, 0.5, 0.734375
3771, 0, 0.5, 0.734375
3772, 1, 0.5, 0.78125
3773, 0, 0.5, 0.78125
3774, 1, 0.484375, 0.78125
3775, 0.5, 0.5, 0.78125
3776, 0, 0.484375, 0.78125
3777, 1, 0.5, 0.765625
3778, 0, 0.5, 0.765625
3779, 1, 0.5, 0.8125
3780, 0, 0.5, 0.8125
3781, 1, 0.484375, 0.8125
3782, 0.5, 0.5, 0.8125
3783, 0, 0.484375, 0.8125
3784, 1, 0.5, 0.796875
3785, 0, 0.5, 0.796875
3786, 1, 0.5, 0.84375
3787, 0, 0.5, 0.84375
3788, 1, 0.484375, 0.84375
3789, 0.5, 0.5, 0.84375
3790, 0, 0.484375, 0.84375
3791, 1, 0.5, 0.828125
3792, 0, 0.5, 0.828125
3793, 1, 0.5, 0.875
3794, 0, 0.5, 0.875
3795, 1, 0.484375, 0.875
3796, 0.5, 0.5, 0.875
3797, 0, 0.484375, 0.875
3798, 1, 0.5, 0.859375
3799, 0, 0.5, 0.859375
3800, 1, 0.5, 0.90625
3801, 0, 0.5, 0.90625
3802, 1, 0.484375, 0.90625
3803, 0.5, 0.5, 0.90625
3804, 0, 0.484375, 0.90625
3805, 1, 0.5, 0.890625
3806, 0, 0.5, 0.890625
3807, 1, 0.5, 0.9375
3808, 0, 0.5, 0.9375
3809, 1, 0.484375, 0.9375
3810, 0.5, 0.5, 0.9375
3811, 0, 0.484375, 0.9375
3812, 1, 0.5, 0.921875
3813, 0, 0.5, 0.921875
3814, 1, 0.5, 0.96875
3815, 0, 0.5, 0.96875
3816, 1, 0.484375, 0.96875
3817, 0.5, 0.5, 0.96875
3818, 0, 0.484375, 0.96875
3819, 1, 0.5, 0.953125
3820, 0, 0.5, 0.953125
3821, 1, 0.5, 1
3822, 0, 0.5, 1
3823, 1, 0.484375, 1
3824, 0.5, 0.5, 1
3825, 0, 0.484375, 1
3826, 1, 0.5, 0.984375
3827, 0, 0.5, 0.984375
3828, 1, 0.53125, 0
3829, 0, 0.53125, 0
3830, 1, 0.53125, 0.03125
3831, 0, 0.53125, 0.03125
3832, 1, 0.515625, 0
3833, 0.5, 0.53125, 0
3834, 0, 0.515625, 0
3835, 1, 0.515625, 0.03125
3836, 0.5, 0.53125, 0.03125
3837, 0, 0.515625, 0.03125
3838, 1, 0.53125, 0.015625
3839, 0, 0.53125, 0.015625
3840, 1, 0.53125, 0.0625
3841, 0, 0.53125, 0.0625
3842, 1, 0.515625, 0.0625
3843, 0.5, 0.53125, 0.0625
3844, 0, 0.515625, 0.0625
3845, 1, 0.53125, 0.046875
3846, 0, 0.53125, 0.046875
3847, 1, 0.53125, 0.09375
3848, 0, 0.53125, 0.09375
3849, 1, 0.515625, 0.09375
3850, 0.5, 0.53125, 0.09375
3851, 0, 0.515625, 0.09375
3852, 1, 0.53125, 0.078125
3853, 0, 0.53125, 0.078125
3854, 1, 0.53125, 0.125
3855, 0, 0.53125, 0.125
3856, 1, 0.515625, 0.125
3857, 0.5, 0.53125, 0.125
3858, 0, 0.515625, 0.125
3859, 1, 0.53125, 0.109375
3860, 0, 0.53125, 0.109375
3861, 1, 0.53125, 0.15625
3862, 0, 0.53125, 0.15625
3863, 1, 0.515625, 0.15625
3864, 0.5, 0.53125, 0.15625
3865, 0, 0.515625, 0.15625
3866, 1, 0.53125, 0.140625
3867, 0, 0.53125, 0.140625
3868, 1, 0.53125, 0.1875
3869, 0, 0.53125, 0.1875
3870, 1, 0.515625, 0.1875
3871, 0.5, 0.53125, 0.1875
3872, 0, 0.515625, 0.1875
3873, 1, 0.53125, 0.171875
3874, 0, 0.53125, 0.171875
3875, 1, 0.53125, 0.21875
3876, 0, 0.53125, 0.21875
3877, 1, 0.515625, 0.21875
3878, 0.5, 0.53125, 0.21875
3879, 0, 0.515625, 0.21875
3880, 1, 0.53125, 0.203125
3881, 0, 0.53125, 0.203125
3882, 1, 0.53125, 0.25
3883, 0, 0.53125, 0.25
3884, 1, 0.515625, 0.25
3885, 0.5, 0.53125, 0.25
3886, 0, 0.515625, 0.25
3887, 1, 0.53125, 0.234375
3888, 0, 0.53125, 0.234375
3889, 1, 0.53125, 0.28125
3890, 0, 0.53125, 0.28125
3891, 1, 0.515625, 0.28125
3892, 0.5, 0.53125, 0.28125
3893, 0, 0.515625, 0.28125
3894, 1, 0.53125, 0.265625
3895, 0, 0.53125, 0.265625
3896, 1, 0.53125, 0.3125
3897, 0, 0.53125, 0.3125
3898, 1, 0.515625, 0.3125
3899, 0.5, 0.53125, 0.3125
3900, 0, 0.515625, 0.3125
3901, 1, 0.53125, 0.296875
3902, 0, 0.53125, 0.296875
3903, 1, 0.53125, 0.34375
3904, 0, 0.53125, 0.34375
3905, 1, 0.515625, 0.34375
3906, 0.5, 0.53125, 0.34375
3907, 0, 0.515625, 0.34375
3908, 1, 0.53125, 0.328125
3909, 0, 0.53125, 0.328125
3910, 1, 0.53125, 0.375
3911, 0, 0.53125, 0.375
3912, 1, 0.515625, 0.375
3913, 0.5, 0.53125, 0.375
3914, 0, 0.515625, 0.375
3915, 1, 0.53125, 0.359375
3916, 0, 0.53125, 0.359375
3917, 1, 0.53125, 0.40625
3918, 0, 0.53125, 0.40625
3919, 1, 0.515625, 0.40625
3920, 0.5, 0.53125, 0.40625
3921, 0, 0.515625, 0.40625
3922, 1, 0.53125, 0.390625
3923, 0, 0.53125, 0.390625
3924, 1, 0.53125, 0.4375
3925, 0, 0.53125, 0.4375
3926, 1, 0.515625, 0.4375
3927, 0.5, 0.53125, 0.4375
3928, 0, 0.515625, 0.4375
3929, 1, 0.53125, 0.421875
3930, 0, 0.53125, 0.421875
3931, 1, 0.53125, 0.46875
3932, 0, 0.53125, 0.46875
3933, 1, 0.515625, 0.46875
3934, 0.5, 0.53125, 0.46875
3935, 0, 0.515625, 0.46875
3936, 1, 0.53125, 0.453125
3937, 0, 0.53125, 0.453125
3938, 1, 0.53125, 0.5
3939, 0, 0.53125, 0.5
3940, 1, 0.515625, 0.5
3941, 0.5, 0.53125, 0.5
3942, 0, 0.515625, 0.5
3943, 1, 0.53125, 0.484375
3944, 0, 0.53125, 0.484375
3945, 1, 0.53125, 0.53125
3946, 0, 0.53125, 0.53125
3947, 1, 0.515625, 0.53125
3948, 0.5, 0.53125, 0.53125
3949, 0, 0.515625, 0.53125
3950, 1, 0.53125, 0.515625
3951, 0, 0.53125, 0.515625
3952, 1, 0.53125, 0.5625
3953, 0, 0.53125, 0.5625
3954, 1, 0.515625, 0.5625
3955, 0.5, 0.53125, 0.5625
3956, 0, 0.515625, 0.5625
3957, 1, 0.53125, 0.546875
3958, 0, 0.53125, 0.546875
3959, 1, 0.53125, 0.59375
3960, 0, 0.53125, 0.59375
3961, 1, 0.515625, 0.59375
3962, 0.5, 0.53125, 0.59375
3963, 0, 0.515625, 0.59375
3964, 1, 0.53125, 0.578125
3965, 0, 0.53125, 0.578125
3966, 1, 0.53125, 0.625
3967, 0, 0.53125, 0.625
3968, 1, 0.515625, 0.625
3969, 0.5, 0.53125, 0.625
3970, 0, 0.515625, 0.625
3971, 1, 0.53125, 0.609375
3972, 0, 0.53125, 0.609375
3973, 1, 0.53125, 0.65625
3974, 0, 0.53125, 0.65625
3975, 1, 0.515625, 0.65625
3976, 0.5, 0.53125, 0.65625
3977, 0, 0.515625, 0.65625
3978, 1, 0.53125, 0.640625
3979, 0, 0.53125, 0.640625
3980, 1, 0.53125, 0.6875
3981, 0, 0.53125, 0.6875
3982, 1, 0.515625, 0.6875
3983, 0.5, 0.53125, 0.6875
3984, 0, 0.515625, 0.6875
3985, 1, 0.53125, 0.671875
3986, 0, 0.53125, 0.671875
3987, 1, 0.53125, 0.71875
3988, 0, 0.53125, 0.71875
3989, 1, 0.515625, 0.71875
3990, 0.5, 0.53125, 0.71875
3991, 0, 0.515625, 0.71875
3992, 1, 0.53125, 0.703125
3993, 0, 0.53125, 0.703125
3994, 1, 0.53125, 0.75
3995, 0, 0.53125, 0.75
3996, 1, 0.515625, 0.75
3997, 0.5, 0.53125, 0.75
3998, 0, 0.515625, 0.75
3999, 1, 0.53125, 0.734375
4000, 0, 0.53125, 0.734375
4001, 1, 0.53125, 0.78125
4002, 0, 0.53125, 0.78125
4003, 1, 0.515625, 0.78125
4004, 0.5, 0.53125, 0.78125
4005, 0, 0.515625, 0.78125
4006, 1, 0.53125, 0.765625
4007, 0, 0.53125, 0.765625
4008, 1, 0.53125, 0.8125
4009, 0, 0.53125, 0.8125
4010, 1, 0.515625, 0.8125
4011, 0.5, 0.53125, 0.8125
4012, 0, 0.515625, 0.8125
4013, 1, 0.53125, 0.796875
4014, 0, 0.53125, 0.796875
4015, 1, 0.53125, 0.84375
4016, 0, 0.53125, 0.84375
4017, 1, 0.515625, 0.84375
4018, 0.5, 0.53125, 0.84375
4019, 0, 0.515625, 0.84375
4020, 1, 0.53125, 0.828125
4021, 0, 0.53125, 0.828125
4022, 1, 0.53125, 0.875
4023, 0, 0.53125, 0.875
4024, 1, 0.515625, 0.875
4025, 0.5, 0.53125, 0.875
4026, 0, 0.515625, 0.875
4027, 1, 0.53125, 0.859375
4028, 0, 0.53125, 0.859375
4029, 1, 0.53125, 0.90625
4030, 0, 0.53125, 0.90625
4031, 1, 0.515625, 0.90625
4032, 0.5, 0.53125, 0.90625
4033, 0, 0.515625, 0.90625
4034, 1, 0.53125, 0.890625
4035, 0, 0.53125, 0.890625
4036, 1, 0.53125, 0.9375
4037, 0, 0.53125, 0.9375
4038, 1, 0.515625, 0.9375
4039, 0.5, 0.53125, 0.9375
4040, 0, 0.515625, 0.9375
4041, 1, 0.53125, 0.921875
4042, 0, 0.53125, 0.921875
4043, 1, 0.53125, 0.96875
4044, 0, 0.53125, 0.96875
4045, 1, 0.515625, 0.96875
4046, 0.5, 0.53125, 0.96875
4047, 0, 0.515625, 0.96875
4048, 1, 0.53125, 0.953125
4049, 0, 0.53125, 0.953125
4050, 1, 0.53125, 1
4051, 0, 0.53125, 1
4052, 1, 0.515625, 1
4053, 0.5, 0.53125, 1
4054, 0, 0.515625, 1
4055, 1, 0.53125, 0.984375
4056, 0, 0.53125, 0.984375
4057, 1, 0.5625, 0
4058, 0, 0.5625, 0
4059, 1, 0.5625, 0.03125
4060, 0, 0.5625, 0.03125
4061, 1, 0.546875, 0
4062, 0.5, 0.5625, 0
4063, 0, 0.546875, 0
4064, 1, 0.546875, 0.03125
4065, 0.5, 0.5625, 0.03125
4066, 0, 0.546875, 0.03125
4067, 1, 0.5625, 0.015625
4068, 0, 0.5625, 0.015625
4069, 1, 0.5625, 0.0625
4070, 0, 0.5625, 0.0625
4071, 1, 0.546875, 0.0625
4072, 0.5, 0.5625, 0.0625
4073, 0, 0.546875, 0.0625
4074, 1, 0.5625, 0.046875
4075, 0, 0.5625, 0.046875
4076, 1, 0.5625, 0.09375
4077, 0, 0.5625, 0.09375
4078, 1, 0.546875, 0.09375
4079, 0.5, 0.5625, 0.09375
4080, 0, 0.546875, 0.09375
4081, 1, 0.5625, 0.078125
4082, 0, 0.5625, 0.078125
4083, 1, 0.5625, 0.125
4084, 0, 0.5625, 0.125
4085, 1, 0.546875, 0.125
4086, 0.5, 0.5625, 0.125
4087, 0, 0.546875, 0.125
4088, 1, 0.5625, 0.109375
4089, 0, 0.5625, 0.109375
4090, 1, 0.5625, 0.15625
4091, 0, 0.5625, 0.15625
4092, 1, 0.546875, 0.15625
4093, 0.5, 0.5625, 0.15625
4094, 0, 0.546875, 0.15625
4095, 1, 0.5625, 0.140625
4096, 0, 0.5625, 0.140625
4097, 1, 0.5625, 0.1875
4098, 0, 0.5625, 0.1875
4099, 1, 0.546875, 0.1875
4100, 0.5, 0.5625, 0.1875
4101, 0, 0.546875, 0.1875
4102, 1, 0.5625, 0.171875
4103, 0, 0.5625, 0.171875
4104, 1, 0.5625, 0.21875
4105, 0, 0.5625, 0.21875
4106, 1, 0.546875, 0.21875
4107, 0.5, 0.5625, 0.21875
4108, 0, 0.546875, 0.21875
4109, 1, 0.5625, 0.203125
4110, 0, 0.5625, 0.203125
4111, 1, 0.5625, 0.25
4112, 0, 0.5625, 0.25
4113, 1, 0.546875, 0.25
4114, 0.5, 0.5625, 0.25
4115, 0, 0.546875, 0.25
4116, 1, 0.5625, 0.234375
4117, 0, 0.5625, 0.234375
4118, 1, 0.5625, 0.28125
4119, 0, 0.5625, 0.28125
4120, 1, 0.546875, 0.28125
4121, 0.5, 0.5625, 0.28125
4122, 0, 0.546875, 0.28125
4123, 1, 0.5625, 0.265625
4124, 0, 0.5625, 0.265625
4125, 1, 0.5625, 0.3125
4126, 0, 0.5625, 0.3125
4127, 1, 0.546875, 0.3125
4128, 0.5, 0.5625, 0.3125
4129, 0, 0.546875, 0.3125
4130, 1, 0.5625, 0.296875
4131, 0, 0.5625, 0.296875
4132, 1, 0.5625, 0.34375
4133, 0, 0.5625, 0.34375
4134, 1, 0.546875, 0.34375
4135, 0.5, 0.5625, 0.34375
4136, 0, 0.546875, 0.34375
4137, 1, 0.5625, 0.328125
4138, 0, 0.5625, 0.328125
4139, 1, 0.5625, 0.375
4140, 0, 0.5625, 0.375
4141, 1, 0.546875, 0.375
4142, 0.5, 0.5625, 0.375
4143, 0, 0.546875, 0.375
4144, 1, 0.5625, 0.359375
4145, 0, 0.5625, 0.359375
4146, 1, 0.5625, 0.40625
4147, 0, 0.5625, 0.40625
4148, 1, 0.546875, 0.40625
4149, 0.5, 0.5625, 0.40625
4150, 0, 0.546875, 0.40625
4151, 1, 0.5625, 0.390625
4152, 0, 0.5625, 0.390625
4153, 1, 0.5625, 0.4375
4154, 0, 0.5625, 0.4375
4155, 1, 0.546875, 0.4375
4156, 0.5, 0.5625, 0.4375
4157, 0, 0.546875, 0.4375
4158, 1, 0.5625, 0.421875
4159, 0, 0.5625, 0.421875
4160, 1, 0.5625, 0.46875
4161, 0, 0.5625, 0.46875
4162, 1, 0.546875, 0.46875
4163, 0.5, 0.5625, 0.46875
4164, 0, 0.546875, 0.46875
4165, 1, 0.5625, 0.453125
4166, 0, 0.5625, 0.453125
4167, 1, 0.5625, 0.5
4168, 0, 0.5625, 0.5
4169, 1, 0.546875, 0.5
4170, 0.5, 0.5625, 0.5
4171, 0, 0.546875, 0.5
4172, 1, 0.5625, 0.484375
4173, 0, 0.5625, 0.484375
4174, 1, 0.5625, 0.53125
4175, 0, 0.5625, 0.53125
4176, 1, 0.546875, 0.53125
4177, 0.5, 0.5625, 0.53125
4178, 0, 0.546875, 0.53125
4179, 1, 0.5625, 0.515625
4180, 0, 0.5625, 0.515625
4181, 1, 0.5625, 0.5625
4182, 0, 0.5625, 0.5625
4183, 1, 0.546875, 0.5625
4184, 0.5, 0.5625, 0.5625
4185, 0, 0.546875, 0.5625
4186, 1, 0.5625, 0.546875
4187, 0, 0.5625, 0.546875
4188, 1, 0.5625, 0.59375
4189, 0, 0.5625, 0.59375
4190, 1, 0.546875, 0.59375
4191, 0.5, 0.5625, 0.59375
4192, 0, 0.546875, 0.59375
4193, 1, 0.5625, 0.578125
4194, 0, 0.5625, 0.578125
4195, 1, 0.5625, 0.625
4196, 0, 0.5625, 0.625
4197, 1, 0.546875, 0.625
4198, 0.5, 0.5625, 0.625
4199, 0, 0.546875, 0.625
4200, 1, 0.5625, 0.609375
4201, 0, 0.5625, 0.609375
4202, 1, 0.5625, 0.65625
4203, 0, 0.5625, 0.65625
4204, 1, 0.546875, 0.65625
4205, 0.5, 0.5625, 0.65625
4206, 0, 0.546875, 0.65625
4207, 1, 0.5625, 0.640625
4208, 0, 0.5625, 0.640625
4209, 1, 0.5625, 0.6875
4210, 0, 0.5625, 0.6875
4211, 1, 0.546875, 0.6875
4212, 0.5, 0.5625, 0.6875
4213, 0, 0.546875, 0.6875
4214, 1, 0.5625, 0.671875
4215, 0, 0.5625, 0.671875
4216, 1, 0.5625, 0.71875
4217, 0, 0.5625, 0.71875
4218, 1, 0.546875, 0.71875
4219, 0.5, 0.5625, 0.71875
4220, 0, 0.546875, 0.71875
4221, 1, 0.5625, 0.703125
4222, 0, 0.5625, 0.703125
4223, 1, 0.5625, 0.75
4224, 0, 0.5625, 0.75
4225, 1, 0.546875, 0.75
4226, 0.5, 0.5625, 0.75
4227, 0, 0.546875, 0.75
4228, 1, 0.5625, 0.734375
4229, 0, 0.5625, 0.734375
4230, 1, 0.5625, 0.78125
4231, 0, 0.5625, 0.78125
4232, 1, 0.546875, 0.78125
4233, 0.5, 0.5625, 0.78125
4234, 0, 0.546875, 0.78125
4235, 1, 0.5625, 0.765625
4236, 0, 0.5625, 0.765625
4237, 1, 0.5625, 0.8125
4238, 0, 0.5625, 0.8125
4239, 1, 0.546875, 0.8125
4240, 0.5, 0.5625, 0.8125
4241, 0, 0.546875, 0.8125
4242, 1, 0.5625, 0.796875
4243, 0, 0.5625, 0.796875
4244, 1, 0.5625, 0.84375
4245, 0, 0.5625, 0.84375
4246, 1, 0.546875, 0.84375
4247, 0.5, 0.5625, 0.84375
4248, 0, 0.546875, 0.84375
4249, 1, 0.5625, 0.828125
4250, 0, 0.5625, 0.828125
4251, 1, 0.5625, 0.875
4252, 0, 0.5625, 0.875
4253, 1, 0.546875, 0.875
4254, 0.5, 0.5625, 0.875
4255, 0, 0.546875, 0.875
4256, 1, 0.5625, 0.859375
4257, 0, 0.5625, 0.859375
4258, 1, 0.5625, 0.90625
4259, 0, 0.5625, 0.90625
4260, 1, 0.546875, 0.90625
4261, 0.5, 0.5625, 0.90625
4262, 0, 0.546875, 0.90625
4263, 1, 0.5625, 0.890625
4264, 0, 0.5625, 0.890625
4265, 1, 0.5625, 0.9375
4266, 0, 0.5625, 0.9375
4267, 1, 0.546875, 0.9375
4268, 0.5, 0.5625, 0.9375
4269, 0, 0.546875, 0.9375
4270, 1, 0.5625, 0.921875
4271, 0, 0.5625, 0.921875
4272, 1, 0.5625, 0.96875
4273, 0, 0.5625, 0.96875
4274, 1, 0.546875, 0.96875
4275, 0.5, 0.5625, 0.96875
4276, 0, 0.546875, 0.96875
4277, 1, 0.5625, 0.953125
4278, 0, 0.5625, 0.953125
4279, 1, 0.5625, 1
4280, 0, 0.5625, 1
4281, 1, 0.546875, 1
4282, 0.5, 0.5625, 1
4283, 0, 0.546875, 1
4284, 1, 0.5625, 0.984375
4285, 0, 0.5625, 0.984375
4286, 1, 0.59375, 0
4287, 0, 0.59375, 0
4288, 1, 0.59375, 0.03125
4289, 0, 0.59375, 0.03125
4290, 1, 0.578125, 0
4291, 0.5, 0.59375, 0
4292, 0, 0.578125, 0
4293, 1, 0.578125, 0.03125
4294, 0.5, 0.59375, 0.03125
4295, 0, 0.578125, 0.03125
4296, 1, 0.59375, 0.015625
4297, 0, 0.59375, 0.015625
4298, 1, 0.59375, 0.0625
4299, 0, 0.59375, 0.0625
4300, 1, 0.578125, 0.0625
4301, 0.5, 0.59375, 0.0625
4302, 0, 0.578125, 0.0625
4303, 1, 0.59375, 0.046875
4304, 0, 0.59375, 0.046875
4305, 1, 0.59375, 0.09375
4306, 0, 0.59375, 0.09375
4307, 1, 0.578125, 0.09375
4308, 0.5, 0.59375, 0.09375
4309, 0, 0.578125, 0.09375
4310, 1, 0.59375, 0.078125
4311, 0, 0.59375, 0.078125
4312, 1, 0.59375, 0.125
4313, 0, 0.59375, 0.125
4314, 1, 0.578125, 0.125
4315, 0.5, 0.59375, 0.125
4316, 0, 0.578125, 0.125
4317, 1, 0.59375, 0.109375
4318, 0, 0.59375, 0.109375
4319, 1, 0.59375, 0.15625
4320, 0, 0.59375, 0.15625
4321, 1, 0.578125, 0.15625
4322, 0.5, 0.59375, 0.15625
4323, 0, 0.578125, 0.15625
4324, 1, 0.59375, 0.140625
4325, 0, 0.59375, 0.140625
4326, 1, 0.59375, 0.1875
4327, 0, 0.59375, 0.1875
4328, 1, 0.578125, 0.1875
4329, 0.5, 0.59375, 0.1875
4330, 0, 0.578125, 0.1875
4331, 1, 0.59375, 0.171875
4332, 0, 0.59375, 0.171875
4333, 1, 0.59375, 0.21875
4334, 0, 0.59375, 0.21875
4335, 1, 0.578125, 0.21875
4336, 0.5, 0.59375, 0.21875
4337, 0, 0.578125, 0.21875
4338, 1, 0.59375, 0.203125
4339, 0, 0.59375, 0.203125
4340, 1, 0.59375, 0.25
4341, 0, 0.59375, 0.25
4342, 1, 0.578125, 0.25
4343, 0.5, 0.59375, 0.25
4344, 0, 0.578125, 0.25
4345, 1, 0.59375, 0.234375
4346, 0, 0.59375, 0.234375
4347, 1, 0.59375, 0.28125
4348, 0, 0.59375, 0.28125
4349, 1, 0.578125, 0.28125
4350, 0.5, 0.59375, 0.28125
4351, 0, 0.578125, 0.28125
4352, 1, 0.59375, 0.265625
4353, 0, 0.59375, 0.265625
4354, 1, 0.59375, 0.3125
4355, 0, 0.59375, 0.3125
4356, 1, 0.578125, 0.3125
4357, 0.5, 0.59375, 0.3125
4358, 0, 0.578125, 0.3125
4359, 1, 0.59375, 0.296875
4360, 0, 0.59375, 0.296875
4361, 1, 0.59375, 0.34375
4362, 0, 0.59375, 0.34375
4363, 1, 0.578125, 0.34375
4364, 0.5, 0.59375, 0.34375
4365, 0, 0.578125, 0.34375
4366, 1, 0.59375, 0.328125
4367, 0, 0.59375, 0.328125
4368, 1, 0.59375, 0.375
4369, 0, 0.59375, 0.375
4370, 1, 0.578125, 0.375
4371, 0.5, 0.59375, 0.375
4372, 0, 0.578125, 0.375
4373, 1, 0.59375, 0.359375
4374, 0, 0.59375, 0.359375
4375, 1, 0.59375, 0.40625
4376, 0, 0.59375, 0.40625
4377, 1, 0.578125, 0.40625
4378, 0.5, 0.59375, 0.40625
4379, 0, 0.578125, 0.40625
4380, 1, 0.59375, 0.390625
4381, 0, 0.59375, 0.390625
4382, 1, 0.59375, 0.4375
4383, 0, 0.59375, 0.4375
4384, 1, 0.578125, 0.4375
4385, 0.5, 0.59375, 0.4375
4386, 0, 0.578125, 0.4375
4387, 1, 0.59375, 0.421875
4388, 0, 0.59375, 0.421875
4389, 1, 0.59375, 0.46875
4390, 0, 0.59375, 0.46875
4391, 1, 0.578125, 0.46875
4392, 0.5, 0.59375, 0.46875
4393, 0, 0.578125, 0.46875
4394, 1, 0.59375, 0.453125
4395, 0, 0.59375, 0.453125
4396, 1, 0.59375, 0.5
4397, 0, 0.59375, 0.5
4398, 1, 0.578125, 0.5
4399, 0.5, 0.59375, 0.5
4400, 0, 0.578125, 0.5
4401, 1, 0.59375, 0.484375
4402, 0, 0.59375, 0.484375
4403, 1, 0.59375, 0.53125
4404, 0, 0.59375, 0.53125
4405, 1, 0.578125, 0.53125
4406, 0.5, 0.59375, 0.53125
4407, 0, 0.578125, 0.53125
4408, 1, 0.59375, 0.515625
4409, 0, 0.59375, 0.515625
4410, 1, 0.59375, 0.5625
4411, 0, 0.59375, 0.5625
4412, 1, 0.578125, 0.5625
4413, 0.5, 0.59375, 0.5625
4414, 0, 0.578125, 0.5625
4415, 1, 0.59375, 0.546875
4416, 0, 0.59375, 0.546875
4417, 1, 0.59375, 0.59375
4418, 0, 0.59375, 0.59375
4419, 1, 0.578125, 0.59375
4420, 0.5, 0.59375, 0.59375
4421, 0, 0.578125, 0.59375
4422, 1, 0.59375, 0.578125
4423, 0, 0.59375, 0.578125
4424, 1, 0.59375, 0.625
4425, 0, 0.59375, 0.625
4426, 1, 0.578125, 0.625
4427, 0.5, 0.59375, 0.625
4428, 0, 0.578125, 0.625
4429, 1, 0.59375, 0.609375
4430, 0, 0.59375, 0.609375
4431, 1, 0.59375, 0.65625
4432, 0, 0.59375, 0.65625
4433, 1, 0.578125, 0.65625
4434, 0.5, 0.59375, 0.65625
4435, 0, 0.578125, 0.65625
4436, 1, 0.59375, 0.640625
4437, 0, 0.59375, 0.640625
4438, 1, 0.59375, 0.6875
4439, 0, 0.59375, 0.6875
4440, 1, 0.578125, 0.6875
4441, 0.5, 0.59375, 0.6875
4442, 0, 0.578125, 0.6875
4443, 1, 0.59375, 0.671875
4444, 0, 0.59375, 0.671875
4445, 1, 0.59375, 0.71875
4446, 0, 0.59375, 0.71875
4447, 1, 0.578125, 0.71875
4448, 0.5, 0.59375, 0.71875
4449, 0, 0.578125, 0.71875
4450, 1, 0.59375, 0.703125
4451, 0, 0.59375, 0.703125
4452, 1, 0.59375, 0.75
4453, 0, 0.59375, 0.75
4454, 1, 0.578125, 0.75
4455, 0.5, 0.59375, 0.75
4456, 0, 0.578125, 0.75
4457, 1, 0.59375, 0.734375
4458, 0, 0.59375, 0.734375
4459, 1, 0.59375, 0.78125
4460, 0, 0.59375, 0.78125
4461, 1, 0.578125, 0.78125
4462, 0.5, 0.59375, 0.78125
4463, 0, 0.578125, 0.78125
4464, 1, 0.59375, 0.765625
4465, 0, 0.59375, 0.765625
4466, 1, 0.59375, 0.8125
4467, 0, 0.59375, 0.8125
4468, 1, 0.578125, 0.8125
4469, 0.5, 0.59375, 0.8125
4470, 0, 0.578125, 0.8125
4471, 1, 0.59375, 0.796875
4472, 0, 0.59375, 0.796875
4473, 1, 0.59375, 0.84375
4474, 0, 0.59375, 0.84375
4475, 1, 0.578125, 0.84375
4476, 0.5, 0.59375, 0.84375
4477, 0, 0.578125, 0.84375
4478, 1, 0.59375, 0.828125
4479, 0, 0.59375, 0.828125
4480, 1, 0.59375, 0.875
4481, 0, 0.59375, 0.875
4482, 1, 0.578125, 0.875
4483, 0.5, 0.59375, 0.875
4484, 0, 0.578125, 0.875
4485, 1, 0.59375, 0.859375
4486, 0, 0.59375, 0.859375
4487, 1, 0.59375, 0.90625
4488, 0, 0.59375, 0.90625
4489, 1, 0.578125, 0.90625
4490, 0.5, 0.59375, 0.90625
4491, 0, 0.578125, 0.90625
4492, 1, 0.59375, 0.890625
4493, 0, 0.59375, 0.890625
4494, 1, 0.59375, 0.9375
4495, 0, 0.59375, 0.9375
4496, 1, 0.578125, 0.9375
4497, 0.5, 0.59375, 0.9375
4498, 0, 0.578125, 0.9375
4499, 1, 0.59375, 0.921875
4500, 0, 0.59375, 0.921875
4501, 1, 0.59375, 0.96875
4502, 0, 0.59375, 0.96875
4503, 1, 0.578125, 0.96875
4504, 0.5, 0.59375, 0.96875
4505, 0, 0.578125, 0.96875
4506, 1, 0.59375, 0.953125
4507, 0, 0.59375, 0.953125
4508, 1, 0.59375, 1
4509, 0, 0.59375, 1
4510, 1, 0.578125, 1
4511, 0.5, 0.59375, 1
4512, 0, 0.578125, 1
4513, 1, 0.59375, 0.984375
4514, 0, 0.59375, 0.984375
4515, 1, 0.625, 0
4516, 0, 0.625, 0
4517, 1, 0.625, 0.03125
4518, 0, 0.625, 0.03125
4519, 1, 0.609375, 0
4520, 0.5, 0.625, 0
4521, 0, 0.609375, 0
4522, 1, 0.609375, 0.03125
4523, 0.5, 0.625, 0.03125
4524, 0, 0.609375, 0.03125
4525, 1, 0.625, 0.015625
4526, 0, 0.625, 0.015625
4527, 1, 0.625, 0.0625
4528, 0, 0.625, 0.0625
4529, 1, 0.609375, 0.0625
4530, 0.5, 0.625, 0.0625
4531, 0, 0.609375, 0.0625
4532, 1, 0.625, 0.046875
4533, 0, 0.625, 0.046875
4534, 1, 0.625, 0.09375
4535, 0, 0.625, 0.09375
4536, 1, 0.609375, 0.09375
4537, 0.5, 0.625, 0.09375
4538, 0, 0.609375, 0.09375
4539, 1, 0.625, 0.078125
4540, 0, 0.625, 0.078125
4541, 1, 0.625, 0.125
4542, 0, 0.625, 0.125
4543, 1, 0.609375, 0.125
4544, 0.5, 0.625, 0.125
4545, 0, 0.609375, 0.125
4546, 1, 0.625, 0.109375
4547, 0, 0.625, 0.109375
4548, 1, 0.625, 0.15625
4549, 0, 0.625, 0.15625
4550, 1, 0.609375, 0.15625
4551, 0.5, 0.625, 0.15625
4552, 0, 0.609375, 0.15625
4553, 1, 0.625, 0.140625
4554, 0, 0.625, 0.140625
4555, 1, 0.625, 0.1875
4556, 0, 0.625, 0.1875
4557, 1, 0.609375, 0.1875
4558, 0.5, 0.625, 0.1875
4559, 0, 0.609375, 0.1875
4560, 1, 0.625, 0.171875
4561, 0, 0.625, 0.171875
4562, 1, 0.625, 0.21875
4563, 0, 0.625, 0.21875
4564, 1, 0.609375, 0.21875
4565, 0.5, 0.625, 0.21875
4566, 0, 0.609375, 0.21875
4567, 1, 0.625, 0.203125
4568, 0, 0.625, 0.203125
4569, 1, 0.625, 0.25
4570, 0, 0.625, 0.25
4571, 1, 0.609375, 0.25
4572, 0.5, 0.625, 0.25
4573, 0, 0.609375, 0.25
4574, 1, 0.625, 0.234375
4575, 0, 0.625, 0.234375
4576, 1, 0.625, 0.28125
4577, 0, 0.625, 0.28125
4578, 1, 0.609375, 0.28125
4579, 0.5, 0.625, 0.28125
4580, 0, 0.609375, 0.28125
4581, 1, 0.625, 0.265625
4582, 0, 0.625, 0.265625
4583, 1, 0.625, 0.3125
4584, 0, 0.625, 0.3125
4585, 1, 0.609375, 0.3125
4586, 0.5, 0.625, 0.3125
4587, 0, 0.609375, 0.3125
4588, 1, 0.625, 0.296875
4589, 0, 0.625, 0.296875
4590, 1, 0.625, 0.34375
4591, 0, 0.625, 0.34375
4592, 1, 0.609375, 0.34375
4593, 0.5, 0.625, 0.34375
4594, 0, 0.609375, 0.34375
4595, 1, 0.625, 0.328125
4596, 0, 0.625, 0.328125
4597, 1, 0.625, 0.375
4598, 0, 0.625, 0.375
4599, 1, 0.609375, 0.375
4600, 0.5, 0.625, 0.375
4601, 0, 0.609375, 0.375
4602, 1, 0.625, 0.359375
4603, 0, 0.625, 0.359375
4604, 1, 0.625, 0.40625
4605, 0, 0.625, 0.40625
4606, 1, 0.609375, 0.40625
4607, 0.5, 0.625, 0.40625
4608, 0, 0.609375, 0.40625
4609, 1, 0.625, 0.390625
4610, 0, 0.625, 0.390625
4611, 1, 0.625, 0.4375
4612, 0, 0.625, 0.4375
4613, 1, 0.609375, 0.4375
4614, 0.5, 0.625, 0.4375
4615, 0, 0.609375, 0.4375
4616, 1, 0.625, 0.421875
4617, 0, 0.625, 0.421875
4618, 1, 0.625, 0.46875
4619, 0, 0.625, 0.46875
4620, 1, 0.609375, 0.46875
4621, 0.5, 0.625, 0.46875
4622, 0, 0.609375, 0.46875
4623, 1, 0.625, 0.453125
4624, 0, 0.625, 0.453125
4625, 1, 0.625, 0.5
4626, 0, 0.625, 0.5
4627, 1, 0.609375, 0.5
4628, 0.5, 0.625, 0.5
4629, 0, 0.609375, 0.5
4630, 1, 0.625, 0.484375
4631, 0, 0.625, 0.484375
4632, 1, 0.625, 0.53125
4633, 0, 0.625, 0.53125
4634, 1, 0.609375, 0.53125
4635, 0.5, 0.625, 0.53125
4636, 0, 0.609375, 0.53125
4637, 1, 0.625, 0.515625
4638, 0, 0.625, 0.515625
4639, 1, 0.625, 0.5625
4640, 0, 0.625, 0.5625
4641, 1, 0.609375, 0.5625
4642, 0.5, 0.625, 0.5625
4643, 0, 0.609375, 0.5625
4644, 1, 0.625, 0.546875
4645, 0, 0.625, 0.546875
4646, 1, 0.625, 0.59375
4647, 0, 0.625, 0.59375
4648, 1, 0.609375, 0.59375
4649, 0.5, 0.625, 0.59375
4650, 0, 0.609375, 0.59375
4651, 1, 0.625, 0.578125
4652, 0, 0.625, 0.578125
4653, 1, 0.625, 0.625
4654, 0, 0.625, 0.625
4655, 1, 0.609375, 0.625
4656, 0.5, 0.625, 0.625
4657, 0, 0.609375, 0.625
4658, 1, 0.625, 0.609375
4659, 0, 0.625, 0.609375
4660, 1, 0.625, 0.65625
4661, 0, 0.625, 0.65625
4662, 1, 0.609375, 0.65625
4663, 0.5, 0.625, 0.65625
4664, 0, 0.609375, 0.65625
4665, 1, 0.625, 0.640625
4666, 0, 0.625, 0.640625
4667, 1, 0.625, 0.6875
4668, 0, 0.625, 0.6875
4669, 1, 0.609375, 0.6875
4670, 0.5, 0.625, 0.6875
4671, 0, 0.609375, 0.6875
4672, 1, 0.625, 0.671875
4673, 0, 0.625, 0.671875
4674, 1, 0.625, 0.71875
4675, 0, 0.625, 0.71875
4676, 1, 0.609375, 0.71875
4677, 0.5, 0.625, 0.71875
4678, 0, 0.609375, 0.71875
4679, 1, 0.625, 0.703125
4680, 0, 0.625, 0.703125
4681, 1, 0.625, 0.75
4682, 0, 0.625, 0.75
4683, 1, 0.609375, 0.75
4684, 0.5, 0.625, 0.75
4685, 0, 0.609375, 0.75
4686, 1, 0.625, 0.734375
4687, 0, 0.625, 0.734375
4688, 1, 0.625, 0.78125
4689, 0, 0.625, 0.78125
4690, 1, 0.609375, 0.78125
4691, 0.5, 0.625, 0.78125
4692, 0, 0.609375, 0.78125
4693, 1, 0.625, 0.765625
4694, 0, 0.625, 0.765625
4695, 1, 0.625, 0.8125
4696, 0, 0.625, 0.8125
4697, 1, 0.609375, 0.8125
4698, 0.5, 0.625, 0.8125
4699, 0, 0.609375, 0.8125
4700, 1, 0.625, 0.796875
4701, 0, 0.625, 0.796875
4702, 1, 0.625, 0.84375
4703, 0, 0.625, 0.84375
4704, 1, 0.609375, 0.84375
4705, 0.5, 0.625, 0.84375
4706, 0, 0.609375, 0.84375
4707, 1, 0.625, 0.828125
4708, 0, 0.625, 0.828125
4709, 1, 0.625, 0.875
4710, 0, 0.625, 0.875
4711, 1, 0.609375, 0.875
4712, 0.5, 0.625, 0.875
4713, 0, 0.609375, 0.875
4714, 1, 0.625, 0.859375
4715, 0, 0.625, 0.859375
4716, 1, 0.625, 0.90625
4717, 0, 0.625, 0.90625
4718, 1, 0.609375, 0.90625
4719, 0.5, 0.625, 0.90625
4720, 0, 0.609375, 0.90625
4721, 1, 0.625, 0.890625
4722, 0, 0.625, 0.890625
4723, 1, 0.625, 0.9375
4724, 0, 0.625, 0.9375
4725, 1, 0.609375, 0.9375
4726, 0.5, 0.625, 0.9375
4727, 0, 0.609375, 0.9375
4728, 1, 0.625, 0.921875
4729, 0, 0.625, 0.921875
4730, 1, 0.625, 0.96875
4731, 0, 0.625, 0.96875
4732, 1, 0.609375, 0.96875
4733, 0.5, 0.625, 0.96875
4734, 0, 0.609375, 0.96875
4735, 1, 0.625, 0.953125
4736, 0, 0.625, 0.953125
4737, 1, 0.625, 1
4738, 0, 0.625, 1
4739, 1, 0.609375, 1
4740, 0.5, 0.625, 1
4741, 0, 0.609375, 1
4742, 1, 0.625, 0.984375
4743, 0, 0.625, 0.984375
4744, 1, 0.65625, 0
4745, 0, 0.65625, 0
4746, 1, 0.65625, 0.03125
4747, 0, 0.65625, 0.03125
4748, 1, 0.640625, 0
4749, 0.5, 0.65625, 0
4750, 0, 0.640625, 0
4751, 1, 0.640625, 0.03125
4752, 0.5, 0.65625, 0.03125
4753, 0, 0.640625, 0.03125
4754, 1, 0.65625, 0.015625
4755, 0, 0.65625, 0.015625
4756, 1, 0.65625, 0.0625
4757, 0, 0.65625, 0.0625
4758, 1, 0.640625, 0.0625
4759, 0.5, 0.65625, 0.0625
4760, 0, 0.640625, 0.0625
4761, 1, 0.65625, 0.046875
4762, 0, 0.65625, 0.046875
4763, 1, 0.65625, 0.09375
4764, 0, 0.65625, 0.09375
4765, 1, 0.640625, 0.09375
4766, 0.5, 0.65625, 0.09375
4767, 0, 0.640625, 0.09375
4768, 1, 0.65625, 0.078125
4769, 0, 0.65625, 0.078125
4770, 1, 0.65625, 0.125
4771, 0, 0.65625, 0.125
4772, 1, 0.640625, 0.125
4773, 0.5, 0.65625, 0.125
4774, 0, 0.640625, 0.125
4775, 1, 0.65625, 0.109375
4776, 0, 0.65625, 0.109375
4777, 1, 0.65625, 0.15625
4778, 0, 0.65625, 0.15625
4779, 1, 0.640625, 0.15625
4780, 0.5, 0.65625, 0.15625
4781, 0, 0.640625, 0.15625
4782, 1, 0.65625, 0.140625
4783, 0, 0.65625, 0.140625
4784, 1, 0.65625, 0.1875
4785, 0, 0.65625, 0.1875
4786, 1, 0.640625, 0.1875
4787, 0.5, 0.65625, 0.1875
4788, 0, 0.640625, 0.1875
4789, 1, 0.65625, 0.171875
4790, 0, 0.65625, 0.171875
4791, 1, 0.65625, 0.21875
4792, 0, 0.65625, 0.21875
4793, 1, 0.640625, 0.21875
4794, 0.5, 0.65625, 0.21875
4795, 0, 0.640625, 0.21875
4796, 1, 0.65625, 0.203125
4797, 0, 0.65625, 0.203125
4798, 1, 0.65625, 0.25
4799, 0, 0.65625, 0.25
4800, 1, 0.640625, 0.25
4801, 0.5, 0.65625, 0.25
4802, 0, 0.640625, 0.25
4803, 1, 0.65625, 0.234375
4804, 0, 0.65625, 0.234375
4805, 1, 0.65625, 0.28125
4806, 0, 0.65625, 0.28125
4807, 1, 0.640625, 0.28125
4808, 0.5, 0.65625, 0.28125
4809, 0, 0.640625, 0.28125
4810, 1, 0.65625, 0.265625
4811, 0, 0.65625, 0.265625
4812, 1, 0.65625, 0.3125
4813, 0, 0.65625, 0.3125
4814, 1, 0.640625, 0.3125
4815, 0.5, 0.65625, 0.3125
4816, 0, 0.640625, 0.3125
4817, 1, 0.65625, 0.296875
4818, 0, 0.65625, 0.296875
4819, 1, 0.65625, 0.34375
4820, 0, 0.65625, 0.34375
4821, 1, 0.640625, 0.34375
4822, 0.5, 0.65625, 0.34375
4823, 0, 0.640625, 0.34375
4824, 1, 0.65625, 0.328125
4825, 0, 0.65625, 0.328125
4826, 1, 0.65625, 0.375
4827, 0, 0.65625, 0.375
4828, 1, 0.640625, 0.375
4829, 0.5, 0.65625, 0.375
4830, 0, 0.640625, 0.375
4831, 1, 0.65625, 0.359375
4832, 0, 0.65625, 0.359375
4833, 1, 0.65625, 0.40625
4834, 0, 0.65625, 0.40625
4835, 1, 0.640625, 0.40625
4836, 0.5, 0.65625, 0.40625
4837, 0, 0.640625, 0.40625
4838, 1, 0.65625, 0.390625
4839, 0, 0.65625, 0.390625
4840, 1, 0.65625, 0.4375
4841, 0, 0.65625, 0.4375
4842, 1, 0.640625, 0.4375
4843, 0.5, 0.65625, 0.4375
4844, 0, 0.640625, 0.4375
4845, 1, 0.65625, 0.421875
4846, 0, 0.65625, 0.421875
4847, 1, 0.65625, 0.46875
4848, 0, 0.65625, 0.46875
4849, 1, 0.640625, 0.46875
4850, 0.5, 0.65625, 0.46875
4851, 0, 0.640625, 0.46875
4852, 1, 0.65625, 0.453125
4853, 0, 0.65625, 0.453125
4854, 1, 0.65625, 0.5
4855, 0, 0.65625, 0.5
4856, 1, 0.640625, 0.5
4857, 0.5, 0.65625, 0.5
4858, 0, 0.640625, 0.5
4859, 1, 0.65625, 0.484375
4860, 0, 0.65625, 0.484375
4861, 1, 0.65625, 0.53125
4862, 0, 0.65625, 0.53125
4863, 1, 0.640625, 0.53125
4864, 0.5, 0.65625, 0.53125
4865, 0, 0.640625, 0.53125
4866, 1, 0.65625, 0.515625
4867, 0, 0.65625, 0.515625
4868, 1, 0.65625, 0.5625
4869, 0, 0.65625, 0.5625
4870, 1, 0.640625, 0.5625
4871, 0.5, 0.65625, 0.5625
4872, 0, 0.640625, 0.5625
4873, 1, 0.65625, 0.546875
4874, 0, 0.65625, 0.546875
4875, 1, 0.65625, 0.59375
4876, 0, 0.65625, 0.59375
4877, 1, 0.640625, 0.59375
4878, 0.5, 0.65625, 0.59375
4879, 0, 0.640625, 0.59375
4880, 1, 0.65625, 0.578125
4881, 0, 0.65625, 0.578125
4882, 1, 0.65625, 0.625
4883, 0, 0.65625, 0.625
4884, 1, 0.640625, 0.625
4885, 0.5, 0.65625, 0.625
4886, 0, 0.640625, 0.625
4887, 1, 0.65625, 0.609375
4888, 0, 0.65625, 0.609375
4889, 1, 0.65625, 0.65625
4890, 0, 0.65625, 0.65625
4891, 1, 0.640625, 0.65625
4892, 0.5, 0.65625, 0.65625
4893, 0, 0.640625, 0.65625
4894, 1, 0.65625, 0.640625
4895, 0, 0.65625, 0.640625
4896, 1, 0.65625, 0.6875
4897, 0, 0.65625, 0.6875
4898, 1, 0.640625, 0.6875
4899, 0.5, 0.65625, 0.6875
4900, 0, 0.640625, 0.6875
4901, 1, 0.65625, 0.671875
4902, 0, 0.65625, 0.671875
4903, 1, 0.65625, 0.71875
4904, 0, 0.65625, 0.71875
4905, 1, 0.640625, 0.71875
4906, 0.5, 0.65625, 0.71875
4907, 0, 0.640625, 0.71875
4908, 1, 0.65625, 0.703125
4909, 0, 0.65625, 0.703125
4910, 1, 0.65625, 0.75
4911, 0, 0.65625, 0.75
4912, 1, 0.640625, 0.75
4913, 0.5, 0.65625, 0.75
4914, 0, 0.640625, 0.75
4915, 1, 0.65625, 0.734375
4916, 0, 0.65625, 0.734375
4917, 1, 0.65625, 0.78125
4918, 0, 0.65625, 0.78125
4919, 1, 0.640625, 0.78125
4920, 0.5, 0.65625, 0.78125
4921, 0, 0.640625, 0.78125
4922, 1, 0.65625, 0.765625
4923, 0, 0.65625, 0.765625
4924, 1, 0.65625, 0.8125
4925, 0, 0.65625, 0.8125
4926, 1, 0.640625, 0.8125
4927, 0.5, 0.65625, 0.8125
4928, 0, 0.640625, 0.8125
4929, 1, 0.65625, 0.796875
4930, 0, 0.65625, 0.796875
4931, 1, 0.65625, 0.84375
4932, 0, 0.65625, 0.84375
4933, 1, 0.640625, 0.84375
4934, 0.5, 0.65625, 0.84375
4935, 0, 0.640625, 0.84375
4936, 1, 0.65625, 0.828125
4937, 0, 0.65625, 0.828125
4938, 1, 0.65625, 0.875
4939, 0, 0.65625, 0.875
4940, 1, 0.640625, 0.875
4941, 0.5, 0.65625, 0.875
4942, 0, 0.640625, 0.875
4943, 1, 0.65625, 0.859375
4944, 0, 0.65625, 0.859375
4945, 1, 0.65625, 0.90625
4946, 0, 0.65625, 0.90625
4947, 1, 0.640625, 0.90625
4948, 0.5, 0.65625, 0.90625
4949, 0, 0.640625, 0.90625
4950, 1, 0.65625, 0.890625
4951, 0, 0.65625, 0.890625
4952, 1, 0.65625, 0.9375
4953, 0, 0.65625, 0.9375
4954, 1, 0.640625, 0.9375
4955, 0.5, 0.65625, 0.9375
4956, 0, 0.640625, 0.9375
4957, 1, 0.65625, 0.921875
4958, 0, 0.65625, 0.921875
4959, 1, 0.65625, 0.96875
4960, 0, 0.65625, 0.96875
4961, 1, 0.640625, 0.96875
4962, 0.5, 0.65625, 0.96875
4963, 0, 0.640625, 0.96875
4964, 1, 0.65625, 0.953125
4965, 0, 0.65625, 0.953125
4966, 1, 0.65625, 1
4967, 0, 0.65625, 1
4968, 1, 0.640625, 1
4969, 0.5, 0.65625, 1
4970, 0, 0.640625, 1
4971, 1, 0.65625, 0.984375
4972, 0, 0.65625, 0.984375
4973, 1, 0.6875, 0
4974, 0, 0.6875, 0
4975, 1, 0.6875, 0.03125
4976, 0, 0.6875, 0.03125
4977, 1, 0.671875, 0
4978, 0.5, 0.6875, 0
4979, 0, 0.671875, 0
4980, 1, 0.671875, 0.03125
4981, 0.5, 0.6875, 0.03125
4982, 0, 0.671875, 0.03125
4983, 1, 0.6875, 0.015625
4984, 0, 0.6875, 0.015625
4985, 1, 0.6875, 0.0625
4986, 0, 0.6875, 0.0625
4987, 1, 0.671875, 0.0625
4988, 0.5, 0.6875, 0.0625
4989, 0, 0.671875, 0.0625
4990, 1, 0.6875, 0.046875
4991, 0, 0.6875, 0.046875
4992, 1, 0.6875, 0.09375
4993, 0, 0.6875, 0.09375
4994, 1, 0.671875, 0.09375
4995, 0.5, 0.6875, 0.09375
4996, 0, 0.671875, 0.09375
4997, 1, 0.6875, 0.078125
4998, 0, 0.6875, 0.078125
4999, 1, 0.6875, 0.125
5000, 0, 0.6875, 0.125
5001, 1, 0.671875, 0.125
5002, 0.5, 0.6875, 0.125
5003, 0, 0.671875, 0.125
5004, 1, 0.6875, 0.109375
5005, 0, 0.6875, 0.109375
5006, 1, 0.6875, 0.15625
5007, 0, 0.6875, 0.15625
5008, 1, 0.671875, 0.15625
5009, 0.5, 0.6875, 0.15625
5010, 0, 0.671875, 0.15625
5011, 1, 0.6875, 0.140625
5012, 0, 0.6875, 0.140625
5013, 1, 0.6875, 0.1875
5014, 0, 0.6875, 0.1875
5015, 1, 0.671875, 0.1875
5016, 0.5, 0.6875, 0.1875
5017, 0, 0.671875, 0.1875
5018, 1, 0.6875, 0.171875
5019, 0, 0.6875, 0.171875
5020, 1, 0.6875, 0.21875
5021, 0, 0.6875, 0.21875
5022, 1, 0.671875, 0.21875
5023, 0.5, 0.6875, 0.21875
5024, 0, 0.671875, 0.21875
5025, 1, 0.6875, 0.203125
5026, 0, 0.6875, 0.203125
5027, 1, 0.6875, 0.25
5028, 0, 0.6875, 0.25
5029, 1, 0.671875, 0.25
5030, 0.5, 0.6875, 0.25
5031, 0, 0.671875, 0.25
5032, 1, 0.6875, 0.234375
5033, 0, 0.6875, 0.234375
5034, 1, 0.6875, 0.28125
5035, 0, 0.6875, 0.28125
5036, 1, 0.671875, 0.28125
5037, 0.5, 0.6875, 0.28125
5038, 0, 0.671875, 0.28125
5039, 1, 0.6875, 0.265625
5040, 0, 0.6875, 0.265625
5041, 1, 0.6875, 0.3125
5042, 0, 0.6875, 0.3125
5043, 1, 0.671875, 0.3125
5044, 0.5, 0.6875, 0.3125
5045, 0, 0.671875, 0.3125
5046, 1, 0.6875, 0.296875
5047, 0, 0.6875, 0.296875
5048, 1, 0.6875, 0.34375
5049, 0, 0.6875, 0.34375
5050, 1, 0.671875, 0.34375
5051, 0.5, 0.6875, 0.34375
5052, 0, 0.671875, 0.34375
5053, 1, 0.6875, 0.328125
5054, 0, 0.6875, 0.328125
5055, 1, 0.6875, 0.375
5056, 0, 0.6875, 0.375
5057, 1, 0.671875, 0.375
5058, 0.5, 0.6875, 0.375
5059, 0, 0.671875, 0.375
5060, 1, 0.6875, 0.359375
5061, 0, 0.6875, 0.359375
5062, 1, 0.6875, 0.40625
5063, 0, 0.6875, 0.40625
5064, 1, 0.671875, 0.40625
5065, 0.5, 0.6875, 0.40625
5066, 0, 0.671875, 0.40625
5067, 1, 0.6875, 0.390625
5068, 0, 0.6875, 0.390625
5069, 1, 0.6875, 0.4375
5070, 0, 0.6875, 0.4375
5071, 1, 0.671875, 0.4375
5072, 0.5, 0.6875, 0.4375
5073, 0, 0.671875, 0.4375
5074, 1, 0.6875, 0.421875
5075, 0, 0.6875, 0.421875
5076, 1, 0.6875, 0.46875
5077, 0, 0.6875, 0.46875
5078, 1, 0.671875, 0.46875
5079, 0.5, 0.6875, 0.46875
5080, 0, 0.671875, 0.46875
5081, 1, 0.6875, 0.453125
5082, 0, 0.6875, 0.453125
5083, 1, 0.6875, 0.5
5084, 0, 0.6875, 0.5
5085, 1, 0.671875, 0.5
5086, 0.5, 0.6875, 0.5
5087, 0, 0.671875, 0.5
5088, 1, 0.6875, 0.484375
5089, 0, 0.6875, 0.484375
5090, 1, 0.6875, 0.53125
5091, 0, 0.6875, 0.53125
5092, 1, 0.671875, 0.53125
5093, 0.5, 0.6875, 0.53125
5094, 0, 0.671875, 0.53125
5095, 1, 0.6875, 0.515625
5096, 0, 0.6875, 0.515625
5097, 1, 0.6875, 0.5625
5098, 0, 0.6875, 0.5625
5099, 1, 0.671875, 0.5625
5100, 0.5, 0.6875, 0.5625
5101, 0, 0.671875, 0.5625
5102, 1, 0.6875, 0.546875
5103, 0, 0.6875, 0.546875
5104, 1, 0.6875, 0.59375
5105, 0, 0.6875, 0.59375
5106, 1, 0.671875, 0.59375
5107, 0.5, 0.6875, 0.59375
5108, 0, 0.671875, 0.59375
5109, 1, 0.6875, 0.578125
5110, 0, 0.6875, 0.578125
5111, 1, 0.6875, 0.625
5112, 0, 0.6875, 0.625
5113, 1, 0.671875, 0.625
5114, 0.5, 0.6875, 0.625
5115, 0, 0.671875, 0.625
5116, 1, 0.6875, 0.609375
5117, 0, 0.6875, 0.609375
5118, 1, 0.6875, 0.65625
5119, 0, 0.6875, 0.65625
5120, 1, 0.671875, 0.65625
5121, 0.5, 0.6875, 0.65625
5122, 0, 0.671875, 0.65625
5123, 1, 0.6875, 0.640625
5124, 0, 0.6875, 0.640625
5125, 1, 0.6875, 0.6875
5126, 0, 0.6875, 0.6875
5127, 1, 0.671875, 0.6875
5128, 0.5, 0.6875, 0.6875
5129, 0, 0.671875, 0.6875
5130, 1, 0.6875, 0.671875
5131, 0, 0.6875, 0.671875
5132, 1, 0.6875, 0.71875
5133, 0, 0.6875, 0.71875
5134, 1, 0.671875, 0.71875
5135, 0.5, 0.6875, 0.71875
5136, 0, 0.671875, 0.71875
5137, 1, 0.6875, 0.703125
5138, 0, 0.6875, 0.703125
5139, 1, 0.6875, 0.75
5140, 0, 0.6875, 0.75
5141, 1, 0.671875, 0.75
5142, 0.5, 0.6875, 0.75
5143, 0, 0.671875, 0.75
5144, 1, 0.6875, 0.734375
5145, 0, 0.6875, 0.734375
5146, 1, 0.6875, 0.78125
5147, 0, 0.6875, 0.78125
5148, 1, 0.671875, 0.78125
5149, 0.5, 0.6875, 0.78125
5150, 0, 0.671875, 0.78125
5151, 1, 0.6875, 0.765625
5152, 0, 0.6875, 0.765625
5153, 1, 0.6875, 0.8125
5154, 0, 0.6875, 0.8125
5155, 1, 0.671875, 0.8125
5156, 0.5, 0.6875, 0.8125
5157, 0, 0.671875, 0.8125
5158, 1, 0.6875, 0.796875
5159, 0, 0.6875, 0.796875
5160, 1, 0.6875, 0.84375
5161, 0, 0.6875, 0.84375
5162, 1, 0.671875, 0.84375
5163, 0.5, 0.6875, 0.84375
5164, 0, 0.671875, 0.84375
5165, 1, 0.6875, 0.828125
5166, 0, 0.6875, 0.828125
5167, 1, 0.6875, 0.875
5168, 0, 0.6875, 0.875
5169, 1, 0.671875, 0.875
5170, 0.5, 0.6875, 0.875
5171, 0, 0.671875, 0.875
5172, 1, 0.6875, 0.859375
5173, 0, 0.6875, 0.859375
5174, 1, 0.6875, 0.90625
5175, 0, 0.6875, 0.90625
5176, 1, 0.671875, 0.90625
5177, 0.5, 0.6875, 0.90625
5178, 0, 0.671875, 0.90625
5179, 1, 0.6875, 0.890625
5180, 0, 0.6875, 0.890625
5181, 1, 0.6875, 0.9375
5182, 0, 0.6875, 0.9375
5183, 1, 0.671875, 0.9375
5184, 0.5, 0.6875, 0.9375
5185, 0, 0.671875, 0.9375
5186, 1, 0.6875, 0.921875
5187, 0, 0.6875, 0.921875
5188, 1, 0.6875, 0.96875
5189, 0, 0.6875, 0.96875
5190, 1, 0.671875, 0.96875
5191, 0.5, 0.6875, 0.96875
5192, 0, 0.671875, 0.96875
5193, 1, 0.6875, 0.953125
5194, 0, 0.6875, 0.953125
5195, 1, 0.6875, 1
5196, 0, 0.6875, 1
5197, 1, 0.671875, 1
5198, 0.5, 0.6875, 1
5199, 0, 0.671875, 1
5200, 1, 0.6875, 0.984375
5201, 0, 0.6875, 0.984375
5202, 1, 0.71875, 0
5203, 0, 0.71875, 0
5204, 1, 0.71875, 0.03125
5205, 0, 0.71875, 0.03125
5206, 1, 0.703125, 0
5207, 0.5, 0.71875, 0
5208, 0, 0.703125, 0
5209, 1, 0.703125, 0.03125
5210, 0.5, 0.71875, 0.03125
5211, 0, 0.703125, 0.03125
5212, 1, 0.71875, 0.015625
5213, 0, 0.71875, 0.015625
5214, 1, 0.71875, 0.0625
5215, 0, 0.71875, 0.0625
5216, 1, 0.703125, 0.0625
5217, 0.5, 0.71875, 0.0625
5218, 0, 0.703125, 0.0625
5219, 1, 0.71875, 0.046875
5220, 0, 0.71875, 0.046875
5221, 1, 0.71875, 0.09375
5222, 0, 0.71875, 0.09375
5223, 1, 0.703125, 0.09375
5224, 0.5, 0.71875, 0.09375
5225, 0, 0.703125, 0.09375
5226, 1, 0.71875, 0.078125
5227, 0, 0.71875, 0.078125
5228, 1, 0.71875, 0.125
5229, 0, 0.71875, 0.125
5230, 1, 0.703125, 0.125
5231, 0.5, 0.71875, 0.125
5232, 0, 0.703125, 0.125
5233, 1, 0.71875, 0.109375
5234, 0, 0.71875, 0.109375
5235, 1, 0.71875, 0.15625
5236, 0, 0.71875, 0.15625
5237, 1, 0.703125, 0.15625
5238, 0.5, 0.71875, 0.15625
5239, 0, 0.703125, 0.15625
5240, 1, 0.71875, 0.140625
5241, 0, 0.71875, 0.140625
5242, 1, 0.71875, 0.1875
5243, 0, 0.71875, 0.1875
5244, 1, 0.703125, 0.1875
5245, 0.5, 0.71875, 0.1875
5246, 0, 0.703125, 0.1875
5247, 1, 0.71875, 0.171875
5248, 0, 0.71875, 0.171875
5249, 1, 0.71875, 0.21875
5250, 0, 0.71875, 0.21875
5251, 1, 0.703125, 0.21875
5252, 0.5, 0.71875, 0.21875
5253, 0, 0.703125, 0.21875
5254, 1, 0.71875, 0.203125
5255, 0, 0.71875, 0.203125
5256, 1, 0.71875, 0.25
5257, 0, 0.71875, 0.25
5258, 1, 0.703125, 0.25
5259, 0.5, 0.71875, 0.25
5260, 0, 0.703125, 0.25
5261, 1, 0.71875, 0.234375
5262, 0, 0.71875, 0.234375
5263, 1, 0.71875, 0.28125
5264, 0, 0.71875, 0.28125
5265, 1, 0.703125, 0.28125
5266, 0.5, 0.71875, 0.28125
5267, 0, 0.703125, 0.28125
5268, 1, 0.71875, 0.265625
5269, 0, 0.71875, 0.265625
5270, 1, 0.71875, 0.3125
5271, 0, 0.71875, 0.3125
5272, 1, 0.703125, 0.3125
5273, 0.5, 0.71875, 0.3125
5274, 0, 0.703125, 0.3125
5275, 1, 0.71875, 0.296875
5276, 0, 0.71875, 0.296875
5277, 1, 0.71875, 0.34375
5278, 0, 0.71875, 0.34375
5279, 1, 0.703125, 0.34375
5280, 0.5, 0.71875, 0.34375
5281, 0, 0.703125, 0.34375
5282, 1, 0.71875, 0.328125
5283, 0, 0.71875, 0.328125
5284, 1, 0.71875, 0.375
5285, 0, 0.71875, 0.375
5286, 1, 0.703125, 0.375
5287, 0.5, 0.71875, 0.375
5288, 0, 0.703125, 0.375
5289, 1, 0.71875, 0.359375
5290, 0, 0.71875, 0.359375
5291, 1, 0.71875, 0.40625
5292, 0, 0.71875, 0.40625
5293, 1, 0.703125, 0.40625
5294, 0.5, 0.71875, 0.40625
5295, 0, 0.703125, 0.40625
5296, 1, 0.71875, 0.390625
5297, 0, 0.71875, 0.390625
5298, 1, 0.71875, 0.4375
5299, 0, 0.71875, 0.4375
5300, 1, 0.703125, 0.4375
5301, 0.5, 0.71875, 0.4375
5302, 0, 0.703125, 0.4375
5303, 1, 0.71875, 0.421875
5304, 0, 0.71875, 0.421875
5305, 1, 0.71875, 0.46875
5306, 0, 0.71875, 0.46875
5307, 1, 0.703125, 0.46875
5308, 0.5, 0.71875, 0.46875
5309, 0, 0.703125, 0.46875
5310, 1, 0.71875, 0.453125
5311, 0, 0.71875, 0.453125
5312, 1, 0.71875, 0.5
5313, 0, 0.71875, 0.5
5314, 1, 0.703125, 0.5
5315, 0.5, 0.71875, 0.5
5316, 0, 0.703125, 0.5
5317, 1, 0.71875, 0.484375
5318, 0, 0.71875, 0.484375
5319, 1, 0.71875, 0.53125
5320, 0, 0.71875, 0.53125
5321, 1, 0.703125, 0.53125
5322, 0.5, 0.71875, 0.53125
5323, 0, 0.703125, 0.53125
5324, 1, 0.71875, 0.515625
5325, 0, 0.71875, 0.515625
5326, 1, 0.71875, 0.5625
5327, 0, 0.71875, 0.5625
5328, 1, 0.703125, 0.5625
5329, 0.5, 0.71875, 0.5625
5330, 0, 0.703125, 0.5625
5331, 1, 0.71875, 0.546875
5332, 0, 0.71875, 0.546875
5333, 1, 0.71875, 0.59375
5334, 0, 0.71875, 0.59375
5335, 1, 0.703125, 0.59375
5336, 0.5, 0.71875, 0.59375
5337, 0, 0.703125, 0.59375
5338, 1, 0.71875, 0.578125
5339, 0, 0.71875, 0.578125
5340, 1, 0.71875, 0.625
5341, 0, 0.71875, 0.625
5342, 1, 0.703125, 0.625
5343, 0.5, 0.71875, 0.625
5344, 0, 0.703125, 0.625
5345, 1, 0.71875, 0.609375
5346, 0, 0.71875, 0.609375
5347, 1, 0.71875, 0.65625
5348, 0, 0.71875, 0.65625
5349, 1, 0.703125, 0.65625
5350, 0.5, 0.71875, 0.65625
5351, 0, 0.703125, 0.65625
5352, 1, 0.71875, 0.640625
5353, 0, 0.71875, 0.640625
5354, 1, 0.71875, 0.6875
5355, 0, 0.71875, 0.6875
5356, 1, 0.703125, 0.6875
5357, 0.5, 0.71875, 0.6875
5358, 0, 0.703125, 0.6875
5359, 1, 0.71875, 0.671875
5360, 0, 0.71875, 0.671875
5361, 1, 0.71875, 0.71875
5362, 0, 0.71875, 0.71875
5363, 1, 0.703125, 0.71875
5364, 0.5, 0.71875, 0.71875
5365, 0, 0.703125, 0.71875
5366, 1, 0.71875, 0.703125
5367, 0, 0.71875, 0.703125
5368, 1, 0.71875, 0.75
5369, 0, 0.71875, 0.75
5370, 1, 0.703125, 0.75
5371, 0.5, 0.71875, 0.75
5372, 0, 0.703125, 0.75
5373, 1, 0.71875, 0.734375
5374, 0, 0.71875, 0.734375
5375, 1, 0.71875, 0.78125
5376, 0, 0.71875, 0.78125
5377, 1, 0.703125, 0.78125
5378, 0.5, 0.71875, 0.78125
5379, 0, 0.703125, 0.78125
5380, 1, 0.71875, 0.765625
5381, 0, 0.71875, 0.765625
5382, 1, 0.71875, 0.8125
5383, 0, 0.71875, 0.8125
5384, 1, 0.703125, 0.8125
5385, 0.5, 0.71875, 0.8125
5386, 0, 0.703125, 0.8125
5387, 1, 0.71875, 0.796875
5388, 0, 0.71875, 0.796875
5389, 1, 0.71875, 0.84375
5390, 0, 0.71875, 0.84375
5391, 1, 0.703125, 0.84375
5392, 0.5, 0.71875, 0.84375
5393, 0, 0.703125, 0.84375
5394, 1, 0.71875, 0.828125
5395, 0, 0.71875, 0.828125
5396, 1, 0.71875, 0.875
5397, 0, 0.71875, 0.875
5398, 1, 0.703125, 0.875
5399, 0.5, 0.71875, 0.875
5400, 0, 0.703125, 0.875
5401, 1, 0.71875, 0.859375
5402, 0, 0.71875, 0.859375
5403, 1, 0.71875, 0.90625
5404, 0, 0.71875, 0.90625
5405, 1, 0.703125, 0.90625
5406, 0.5, 0.71875, 0.90625
5407, 0, 0.703125, 0.90625
5408, 1, 0.71875, 0.890625
5409, 0, 0.71875, 0.890625
5410, 1, 0.71875, 0.9375
5411, 0, 0.71875, 0.9375
5412, 1, 0.703125, 0.9375
5413, 0.5, 0.71875, 0.9375
5414, 0, 0.703125, 0.9375
5415, 1, 0.71875, 0.921875
5416, 0, 0.71875, 0.921875
5417, 1, 0.71875, 0.96875
5418, 0, 0.71875, 0.96875
5419, 1, 0.703125, 0.96875
5420, 0.5, 0.71875, 0.96875
5421, 0, 0.703125, 0.96875
5422, 1, 0.71875, 0.953125
5423, 0, 0.71875, 0.953125
5424, 1, 0.71875, 1
5425, 0, 0.71875, 1
5426, 1, 0.703125, 1
5427, 0.5, 0.71875, 1
5428, 0, 0.703125, 1
5429, 1, 0.71875, 0.984375
5430, 0, 0.71875, 0.984375
5431, 1, 0.75, 0
5432, 0, 0.75, 0
5433, 1, 0.75, 0.03125
5434, 0, 0.75, 0.03125
5435, 1, 0.734375, 0
5436, 0.5, 0.75, 0
5437, 0, 0.734375, 0
5438, 1, 0.734375, 0.03125
5439, 0.5, 0.75, 0.03125
5440, 0, 0.734375, 0.03125
5441, 1, 0.75, 0.015625
5442, 0, 0.75, 0.015625
5443, 1, 0.75, 0.0625
5444, 0, 0.75, 0.0625
5445, 1, 0.734375, 0.0625
5446, 0.5, 0.75, 0.0625
5447, 0, 0.734375, 0.0625
5448, 1, 0.75, 0.046875
5449, 0, 0.75, 0.046875
5450, 1, 0.75, 0.09375
5451, 0, 0.75, 0.09375
5452, 1, 0.734375, 0.09375
5453, 0.5, 0.75, 0.09375
5454, 0, 0.734375, 0.09375
5455, 1, 0.75, 0.078125
5456, 0, 0.75, 0.078125
5457, 1, 0.75, 0.125
5458, 0, 0.75, 0.125
5459, 1, 0.734375, 0.125
5460, 0.5, 0.75, 0.125
5461, 0, 0.734375, 0.125
5462, 1, 0.75, 0.109375
5463, 0, 0.75, 0.109375
5464, 1, 0.75, 0.15625
5465, 0, 0.75, 0.15625
5466, 1, 0.734375, 0.15625
5467, 0.5, 0.75, 0.15625
5468, 0, 0.734375, 0.15625
5469, 1, 0.75, 0.140625
5470, 0, 0.75, 0.140625
5471, 1, 0.75, 0.1875
5472, 0, 0.75, 0.1875
5473, 1, 0.734375, 0.1875
5474, 0.5, 0.75, 0.1875
5475, 0, 0.734375, 0.1875
5476, 1, 0.75, 0.171875
5477, 0, 0.75, 0.171875
5478, 1, 0.75, 0.21875
5479, 0, 0.75, 0.21875
5480, 1, 0.734375, 0.21875
5481, 0.5, 0.75, 0.21875
5482, 0, 0.734375, 0.21875
5483, 1, 0.75, 0.203125
5484, 0, 0.75, 0.203125
5485, 1, 0.75, 0.25
5486, 0, 0.75, 0.25
5487, 1, 0.734375, 0.25
5488, 0.5, 0.75, 0.25
5489, 0, 0.734375, 0.25
5490, 1, 0.75, 0.234375
5491, 0, 0.75, 0.234375
5492, 1, 0.75, 0.28125
5493, 0, 0.75, 0.28125
5494, 1, 0.734375, 0.28125
5495, 0.5, 0.75, 0.28125
5496, 0, 0.734375, 0.28125
5497, 1, 0.75, 0.265625
5498, 0, 0.75, 0.265625
5499, 1, 0.75, 0.3125
5500, 0, 0.75, 0.3125
5501, 1, 0.734375, 0.3125
5502, 0.5, 0.75, 0.3125
5503, 0, 0.734375, 0.3125
5504, 1, 0.75, 0.296875
5505, 0, 0.75, 0.296875
5506, 1, 0.75, 0.34375
5507, 0, 0.75, 0.34375
5508, 1, 0.734375, 0.34375
5509, 0.5, 0.75, 0.34375
5510, 0, 0.734375, 0.34375
5511, 1, 0.75, 0.328125
5512, 0, 0.75, 0.328125
5513, 1, 0.75, 0.375
5514, 0, 0.75, 0.375
5515, 1, 0.734375, 0.375
5516, 0.5, 0.75, 0.375
5517, 0, 0.734375, 0.375
5518, 1, 0.75, 0.359375
5519, 0, 0.75, 0.359375
5520, 1, 0.75, 0.40625
5521, 0, 0.75, 0.40625
5522, 1, 0.734375, 0.40625
5523, 0.5, 0.75, 0.40625
5524, 0, 0.734375, 0.40625
5525, 1, 0.75, 0.390625
5526, 0, 0.75, 0.390625
5527, 1, 0.75, 0.4375
5528, 0, 0.75, 0.4375
5529, 1, 0.734375, 0.4375
5530, 0.5, 0.75, 0.4375
5531, 0, 0.734375, 0.4375
5532, 1, 0.75, 0.421875
5533, 0, 0.75, 0.421875
5534, 1, 0.75, 0.46875
5535, 0, 0.75, 0.46875
5536, 1, 0.734375, 0.46875
5537, 0.5, 0.75, 0.46875
5538, 0, 0.734375, 0.46875
5539, 1, 0.75, 0.453125
5540, 0, 0.75, 0.453125
5541, 1, 0.75, 0.5
5542, 0, 0.75, 0.5
5543, 1, 0.734375, 0.5
5544, 0.5, 0.75, 0.5
5545, 0, 0.734375, 0.5
5546, 1, 0.75, 0.484375
5547, 0, 0.75, 0.484375
5548, 1, 0.75, 0.53125
5549, 0, 0.75, 0.53125
5550, 1, 0.734375, 0.53125
5551, 0.5, 0.75, 0.53125
5552, 0, 0.734375, 0.53125
5553, 1, 0.75, 0.515625
5554, 0, 0.75, 0.515625
5555, 1, 0.75, 0.5625
5556, 0, 0.75, 0.5625
5557, 1, 0.734375, 0.5625
5558, 0.5, 0.75, 0.5625
5559, 0, 0.734375, 0.5625
5560, 1, 0.75, 0.546875
5561, 0, 0.75, 0.546875
5562, 1, 0.75, 0.59375
5563, 0, 0.75, 0.59375
5564, 1, 0.734375, 0.59375
5565, 0.5, 0.75, 0.59375
5566, 0, 0.734375, 0.59375
5567, 1, 0.75, 0.578125
5568, 0, 0.75, 0.578125
5569, 1, 0.75, 0.625
5570, 0, 0.75, 0.625
5571, 1, 0.734375, 0.625
5572, 0.5, 0.75, 0.625
5573, 0, 0.734375, 0.625
5574, 1, 0.75, 0.609375
5575, 0, 0.75, 0.609375
5576, 1, 0.75, 0.65625
5577, 0, 0.75, 0.65625
5578, 1, 0.734375, 0.65625
5579, 0.5, 0.75, 0.65625
5580, 0, 0.734375, 0.65625
5581, 1, 0.75, 0.640625
5582, 0, 0.75, 0.640625
5583, 1, 0.75, 0.6875
5584, 0, 0.75, 0.6875
5585, 1, 0.734375, 0.6875
5586, 0.5, 0.75, 0.6875
5587, 0, 0.734375, 0.6875
5588, 1, 0.75, 0.671875
5589, 0, 0.75, 0.671875
5590, 1, 0.75, 0.71875
5591, 0, 0.75, 0.71875
5592, 1, 0.734375, 0.71875
5593, 0.5, 0.75, 0.71875
5594, 0, 0.734375, 0.71875
5595, 1, 0.75, 0.703125
5596, 0, 0.75, 0.703125
5597, 1, 0.75, 0.75
5598, 0, 0.75, 0.75
5599, 1, 0.734375, 0.75
5600, 0.5, 0.75, 0.75
5601, 0, 0.734375, 0.75
5602, 1, 0.75, 0.734375
5603, 0, 0.75, 0.734375
5604, 1, 0.75, 0.78125
5605, 0, 0.75, 0.78125
5606, 1, 0.734375, 0.78125
5607, 0.5, 0.75, 0.78125
5608, 0, 0.734375, 0.78125
5609, 1, 0.75, 0.765625
5610, 0, 0.75, 0.765625
5611, 1, 0.75, 0.8125
5612, 0, 0.75, 0.8125
5613, 1, 0.734375, 0.8125
5614, 0.5, 0.75, 0.8125
5615, 0, 0.734375, 0.8125
5616, 1, 0.75, 0.796875
5617, 0, 0.75, 0.796875
5618, 1, 0.75, 0.84375
5619, 0, 0.75, 0.84375
5620, 1, 0.734375, 0.84375
5621, 0.5, 0.75, 0.84375
5622, 0, 0.734375, 0.84375
5623, 1, 0.75, 0.828125
5624, 0, 0.75, 0.828125
5625, 1, 0.75, 0.875
5626, 0, 0.75, 0.875
5627, 1, 0.734375, 0.875
5628, 0.5, 0.75, 0.875
5629, 0, 0.734375, 0.875
5630, 1, 0.75, 0.859375
5631, 0, 0.75, 0.859375
5632, 1, 0.75, 0.90625
5633, 0, 0.75, 0.90625
5634, 1, 0.734375, 0.90625
5635, 0.5, 0.75, 0.90625
5636, 0, 0.734375, 0.90625
5637, 1, 0.75, 0.890625
5638, 0, 0.75, 0.890625
5639, 1, 0.75, 0.9375
5640, 0, 0.75, 0.9375
5641, 1, 0.734375, 0.9375
5642, 0.5, 0.75, 0.9375
5643, 0, 0.734375, 0.9375
5644, 1, 0.75, 0.921875
5645, 0, 0.75, 0.921875
5646, 1, 0.75, 0.96875
5647, 0, 0.75, 0.96875
5648, 1, 0.734375, 0.96875
5649, 0.5, 0.75, 0.96875
5650, 0, 0.734375, 0.96875
5651, 1, 0.75, 0.953125
5652, 0, 0.75, 0.953125
5653, 1, 0.75, 1
5654, 0, 0.75, 1
5655, 1, 0.734375, 1
5656, 0.5, 0.75, 1
5657, 0, 0.734375, 1
5658, 1, 0.75, 0.984375
5659, 0, 0.75, 0.984375
5660, 1, 0.78125, 0
5661, 0, 0.78125, 0
5662, 1, 0.78125, 0.03125
5663, 0, 0.78125, 0.03125
5664, 1, 0.765625, 0
5665, 0.5, 0.78125, 0
5666, 0, 0.765625, 0
5667, 1, 0.765625, 0.03125
5668, 0.5, 0.78125, 0.03125
5669, 0, 0.765625, 0.03125
5670, 1, 0.78125, 0.015625
5671, 0, 0.78125, 0.015625
5672, 1, 0.78125, 0.0625
5673, 0, 0.78125, 0.0625
5674, 1, 0.765625, 0.0625
5675, 0.5, 0.78125, 0.0625
5676, 0, 0.765625, 0.0625
5677, 1, 0.78125, 0.046875
5678, 0, 0.78125, 0.046875
5679, 1, 0.78125, 0.09375
5680, 0, 0.78125, 0.09375
5681, 1, 0.765625, 0.09375
5682, 0.5, 0.78125, 0.09375
5683, 0, 0.765625, 0.09375
5684, 1, 0.78125, 0.078125
5685, 0, 0.78125, 0.078125
5686, 1, 0.78125, 0.125
5687, 0, 0.78125, 0.125
5688, 1, 0.765625, 0.125
5689, 0.5, 0.78125, 0.125
5690, 0, 0.765625, 0.125
5691, 1, 0.78125, 0.109375
5692, 0, 0.78125, 0.109375
5693, 1, 0.78125, 0.15625
5694, 0, 0.78125, 0.15625
5695, 1, 0.765625, 0.15625
5696, 0.5, 0.78125, 0.15625
5697, 0, 0.765625, 0.15625
5698, 1, 0.78125, 0.140625
5699, 0, 0.78125, 0.140625
5700, 1, 0.78125, 0.1875
5701, 0, 0.78125, 0.1875
5702, 1, 0.765625, 0.1875
5703, 0.5, 0.78125, 0.1875
5704, 0, 0.765625, 0.1875
5705, 1, 0.78125, 0.171875
5706, 0, 0.78125, 0.171875
5707, 1, 0.78125, 0.21875
5708, 0, 0.78125, 0.21875
5709, 1, 0.765625, 0.21875
5710, 0.5, 0.78125, 0.21875
5711, 0, 0.765625, 0.21875
5712, 1, 0.78125, 0.203125
5713, 0, 0.78125, 0.203125
5714, 1, 0.78125, 0.25
5715, 0, 0.78125, 0.25
5716, 1, 0.765625, 0.25
5717, 0.5, 0.78125, 0.25
5718, 0, 0.765625, 0.25
5719, 1, 0.78125, 0.234375
5720, 0, 0.78125, 0.234375
5721, 1, 0.78125, 0.28125
5722, 0, 0.78125, 0.28125
5723, 1, 0.765625, 0.28125
5724, 0.5, 0.78125, 0.28125
5725, 0, 0.765625, 0.28125
5726, 1, 0.78125, 0.265625
5727, 0, 0.78125, 0.265625
5728, 1, 0.78125, 0.3125
5729, 0, 0.78125, 0.3125
5730, 1, 0.765625, 0.3125
5731, 0.5, 0.78125, 0.3125
5732, 0, 0.765625, 0.3125
5733, 1, 0.78125, 0.296875
5734, 0, 0.78125, 0.296875
5735, 1, 0.78125, 0.34375
5736, 0, 0.78125, 0.34375
5737, 1, 0.765625, 0.34375
5738, 0.5, 0.78125, 0.34375
5739, 0, 0.765625, 0.34375
5740, 1, 0.78125, 0.328125
5741, 0, 0.78125, 0.328125
5742, 1, 0.78125, 0.375
5743, 0, 0.78125, 0.375
5744, 1, 0.765625, 0.375
5745, 0.5, 0.78125, 0.375
5746, 0, 0.765625, 0.375
5747, 1, 0.78125, 0.359375
5748, 0, 0.78125, 0.359375
5749, 1, 0.78125, 0.40625
5750, 0, 0.78125, 0.40625
5751, 1, 0.765625, 0.40625
5752, 0.5, 0.78125, 0.40625
5753, 0, 0.765625, 0.40625
5754, 1, 0.78125, 0.390625
5755, 0, 0.78125, 0.390625
5756, 1, 0.78125, 0.4375
5757, 0, 0.78125, 0.4375
5758, 1, 0.765625, 0.4375
5759, 0.5, 0.78125, 0.4375
5760, 0, 0.765625, 0.4375
5761, 1, 0.78125, 0.421875
5762, 0, 0.78125, 0.421875
5763, 1, 0.78125, 0.46875
5764, 0, 0.78125, 0.46875
5765, 1, 0.765625, 0.46875
5766, 0.5, 0.78125, 0.46875
5767, 0, 0.765625, 0.46875
5768, 1, 0.78125, 0.453125
5769, 0, 0.78125, 0.453125
5770, 1, 0.78125, 0.5
5771, 0, 0.78125, 0.5
5772, 1, 0.765625, 0.5
5773, 0.5, 0.78125, 0.5
5774, 0, 0.765625, 0.5
5775, 1, 0.78125, 0.484375
5776, 0, 0.78125, 0.484375
5777, 1, 0.78125, 0.53125
5778, 0, 0.78125, 0.53125
5779, 1, 0.765625, 0.53125
5780, 0.5, 0.78125, 0.53125
5781, 0, 0.765625, 0.53125
5782, 1, 0.78125, 0.515625
5783, 0, 0.78125, 0.515625
5784, 1, 0.78125, 0.5625
5785, 0, 0.78125, 0.5625
5786, 1, 0.765625, 0.5625
5787, 0.5, 0.78125, 0.5625
5788, 0, 0.765625, 0.5625
5789, 1, 0.78125, 0.546875
5790, 0, 0.78125, 0.546875
5791, 1, 0.78125, 0.59375
5792, 0, 0.78125, 0.59375
5793, 1, 0.765625, 0.59375
5794, 0.5, 0.78125, 0.59375
5795, 0, 0.765625, 0.59375
5796, 1, 0.78125, 0.578125
5797, 0, 0.78125, 0.578125
5798, 1, 0.78125, 0.625
5799, 0, 0.78125, 0.625
5800, 1, 0.765625, 0.625
5801, 0.5, 0.78125, 0.625
5802, 0, 0.765625, 0.625
5803, 1, 0.78125, 0.609375
5804, 0, 0.78125, 0.609375
5805, 1, 0.78125, 0.65625
5806, 0, 0.78125, 0.65625
5807, 1, 0.765625, 0.65625
5808, 0.5, 0.78125, 0.65625
5809, 0, 0.765625, 0.65625
5810, 1, 0.78125, 0.640625
5811, 0, 0.78125, 0.640625
5812, 1, 0.78125, 0.6875
5813, 0, 0.78125, 0.6875
5814, 1, 0.765625, 0.6875
5815, 0.5, 0.78125, 0.6875
5816, 0, 0.765625, 0.6875
5817, 1, 0.78125, 0.671875
5818, 0, 0.78125, 0.671875
5819, 1, 0.78125, 0.71875
5820, 0, 0.78125, 0.71875
5821, 1, 0.765625, 0.71875
5822, 0.5, 0.78125, 0.71875
5823, 0, 0.765625, 0.71875
5824, 1, 0.78125, 0.703125
5825, 0, 0.78125, 0.703125
5826, 1, 0.78125, 0.75
5827, 0, 0.78125, 0.75
5828, 1, 0.765625, 0.75
5829, 0.5, 0.78125, 0.75
5830, 0, 0.765625, 0.75
5831, 1, 0.78125, 0.734375
5832, 0, 0.78125, 0.734375
5833, 1, 0.78125, 0.78125
5834, 0, 0.78125, 0.78125
5835, 1, 0.765625, 0.78125
5836, 0.5, 0.78125, 0.78125
5837, 0, 0.765625, 0.78125
5838, 1, 0.78125, 0.765625
5839, 0, 0.78125, 0.765625
5840, 1, 0.78125, 0.8125
5841, 0, 0.78125, 0.8125
5842, 1, 0.765625, 0.8125
5843, 0.5, 0.78125, 0.8125
5844, 0, 0.765625, 0.8125
5845, 1, 0.78125, 0.796875
5846, 0, 0.78125, 0.796875
5847, 1, 0.78125, 0.84375
5848, 0, 0.78125, 0.84375
5849, 1, 0.765625, 0.84375
5850, 0.5, 0.78125, 0.84375
5851, 0, 0.765625, 0.84375
5852, 1, 0.78125, 0.828125
5853, 0, 0.78125, 0.828125
5854, 1, 0.78125, 0.875
5855, 0, 0.78125, 0.875
5856, 1, 0.765625, 0.875
5857, 0.5, 0.78125, 0.875
5858, 0, 0.765625, 0.875
5859, 1, 0.78125, 0.859375
5860, 0, 0.78125, 0.859375
5861, 1, 0.78125, 0.90625
5862, 0, 0.78125, 0.90625
5863, 1, 0.765625, 0.90625
5864, 0.5, 0.78125, 0.90625
5865, 0, 0.765625, 0.90625
5866, 1, 0.78125, 0.890625
5867, 0, 0.78125, 0.890625
5868, 1, 0.78125, 0.9375
5869, 0, 0.78125, 0.9375
5870, 1, 0.765625, 0.9375
5871, 0.5, 0.78125, 0.9375
5872, 0, 0.765625, 0.9375
5873, 1, 0.78125, 0.921875
5874, 0, 0.78125, 0.921875
5875, 1, 0.78125, 0.96875
5876, 0, 0.78125, 0.96875
5877, 1, 0.765625, 0.96875
5878, 0.5, 0.78125, 0.96875
5879, 0, 0.765625, 0.96875
5880, 1, 0.78125, 0.953125
5881, 0, 0.78125, 0.953125
5882, 1, 0.78125, 1
5883, 0, 0.78125, 1
5884, 1, 0.765625, 1
5885, 0.5, 0.78125, 1
5886, 0, 0.765625, 1
5887, 1, 0.78125, 0.984375
5888, 0, 0.78125, 0.984375
5889, 1, 0.8125, 0
5890, 0, 0.8125, 0
5891, 1, 0.8125, 0.03125
5892, 0, 0.8125, 0.03125
5893, 1, 0.796875, 0
5894, 0.5, 0.8125, 0
5895, 0, 0.796875, 0
5896, 1, 0.796875, 0.03125
5897, 0.5, 0.8125, 0.03125
5898, 0, 0.796875, 0.03125
5899, 1, 0.8125, 0.015625
5900, 0, 0.8125, 0.015625
5901, 1, 0.8125, 0.0625
5902, 0, 0.8125, 0.0625
5903, 1, 0.796875, 0.0625
5904, 0.5, 0.8125, 0.0625
5905, 0, 0.796875, 0.0625
5906, 1, 0.8125, 0.046875
5907, 0, 0.8125, 0.046875
5908, 1, 0.8125, 0.09375
5909, 0, 0.8125, 0.09375
5910, 1, 0.796875, 0.09375
5911, 0.5, 0.8125, 0.09375
5912, 0, 0.796875, 0.09375
5913, 1, 0.8125, 0.078125
5914, 0, 0.8125, 0.078125
5915, 1, 0.8125, 0.125
5916, 0, 0.8125, 0.125
5917, 1, 0.796875, 0.125
5918, 0.5, 0.8125, 0.125
5919, 0, 0.796875, 0.125
5920, 1, 0.8125, 0.109375
5921, 0, 0.8125, 0.109375
5922, 1, 0.8125, 0.15625
5923, 0, 0.8125, 0.15625
5924, 1, 0.796875, 0.15625
5925, 0.5, 0.8125, 0.15625
5926, 0, 0.796875, 0.15625
5927, 1, 0.8125, 0.140625
5928, 0, 0.8125, 0.140625
5929, 1, 0.8125, 0.1875
5930, 0, 0.8125, 0.1875
5931, 1, 0.796875, 0.1875
5932, 0.5, 0.8125, 0.1875
5933, 0, 0.796875, 0.1875
5934, 1, 0.8125, 0.171875
5935, 0, 0.8125, 0.171875
5936, 1, 0.8125, 0.21875
5937, 0, 0.8125, 0.21875
5938, 1, 0.796875, 0.21875
5939, 0.5, 0.8125, 0.21875
5940, 0, 0.796875, 0.21875
5941, 1, 0.8125, 0.203125
5942, 0, 0.8125, 0.203125
5943, 1, 0.8125, 0.25
5944, 0, 0.8125, 0.25
5945, 1, 0.796875, 0.25
5946, 0.5, 0.8125, 0.25
5947, 0, 0.796875, 0.25
5948, 1, 0.8125, 0.234375
5949, 0, 0.8125, 0.234375
5950, 1, 0.8125, 0.28125
5951, 0, 0.8125, 0.28125
5952, 1, 0.796875, 0.28125
5953, 0.5, 0.8125, 0.28125
5954, 0, 0.796875, 0.28125
5955, 1, 0.8125, 0.265625
5956, 0, 0.8125, 0.265625
5957, 1, 0.8125, 0.3125
5958, 0, 0.8125, 0.3125
5959, 1, 0.796875, 0.3125
5960, 0.5, 0.8125, 0.3125
5961, 0, 0.796875, 0.3125
5962, 1, 0.8125, 0.296875
5963, 0, 0.8125, 0.296875
5964, 1, 0.8125, 0.34375
5965, 0, 0.8125, 0.34375
5966, 1, 0.796875, 0.34375
5967, 0.5, 0.8125, 0.34375
5968, 0, 0.796875, 0.34375
5969, 1, 0.8125, 0.328125
5970, 0, 0.8125, 0.328125
5971, 1, 0.8125, 0.375
5972, 0, 0.8125, 0.375
5973, 1, 0.796875, 0.375
5974, 0.5, 0.8125, 0.375
5975, 0, 0.796875, 0.375
5976, 1, 0.8125, 0.359375
5977, 0, 0.8125, 0.359375
5978, 1, 0.8125, 0.40625
5979, 0, 0.8125, 0.40625
5980, 1, 0.796875, 0.40625
5981, 0.5, 0.8125, 0.40625
5982, 0, 0.796875, 0.40625
5983, 1, 0.8125, 0.390625
5984, 0, 0.8125, 0.390625
5985, 1, 0.8125, 0.4375
5986, 0, 0.8125, 0.4375
5987, 1, 0.796875, 0.4375
5988, 0.5, 0.8125, 0.4375
5989, 0, 0.796875, 0.4375
5990, 1, 0.8125, 0.421875
5991, 0, 0.8125, 0.421875
5992, 1, 0.8125, 0.46875
5993, 0, 0.8125, 0.46875
5994, 1, 0.796875, 0.46875
5995, 0.5, 0.8125, 0.46875
5996, 0, 0.796875, 0.46875
5997, 1, 0.8125, 0.453125
5998, 0, 0.8125, 0.453125
5999, 1, 0.8125, 0.5
6000, 0, 0.8125, 0.5
6001, 1, 0.796875, 0.5
6002, 0.5, 0.8125, 0.5
6003, 0, 0.796875, 0.5
6004, 1, 0.8125, 0.484375
6005, 0, 0.8125, 0.484375
6006, 1, 0.8125, 0.53125
6007, 0, 0.8125, 0.53125
6008, 1, 0.796875, 0.53125
6009, 0.5, 0.8125, 0.53125
6010, 0, 0.796875, 0.53125
6011, 1, 0.8125, 0.515625
6012, 0, 0.8125, 0.515625
6013, 1, 0.8125, 0.5625
6014, 0, 0.8125, 0.5625
6015, 1, 0.796875, 0.5625
6016, 0.5, 0.8125, 0.5625
6017, 0, 0.796875, 0.5625
6018, 1, 0.8125, 0.546875
6019, 0, 0.8125, 0.546875
6020, 1, 0.8125, 0.59375
6021, 0, 0.8125, 0.59375
6022, 1, 0.796875, 0.59375
6023, 0.5, 0.8125, 0.59375
6024, 0, 0.796875, 0.59375
6025, 1, 0.8125, 0.578125
6026, 0, 0.8125, 0.578125
6027, 1, 0.8125, 0.625
6028, 0, 0.8125, 0.625
6029, 1, 0.796875, 0.625
6030, 0.5, 0.8125, 0.625
6031, 0, 0.796875, 0.625
6032, 1, 0.8125, 0.609375
6033, 0, 0.8125, 0.609375
6034, 1, 0.8125, 0.65625
6035, 0, 0.8125, 0.65625
6036, 1, 0.796875, 0.65625
6037, 0.5, 0.8125, 0.65625
6038, 0, 0.796875, 0.65625
6039, 1, 0.8125, 0.640625
6040, 0, 0.8125, 0.640625
6041, 1, 0.8125, 0.6875
6042, 0, 0.8125, 0.6875
6043, 1, 0.796875, 0.6875
6044, 0.5, 0.8125, 0.6875
6045, 0, 0.796875, 0.6875
6046, 1, 0.8125, 0.671875
6047, 0, 0.8125, 0.671875
6048, 1, 0.8125, 0.71875
6049, 0, 0.8125, 0.71875
6050, 1, 0.796875, 0.71875
6051, 0.5, 0.8125, 0.71875
6052, 0, 0.796875, 0.71875
6053, 1, 0.8125, 0.703125
6054, 0, 0.8125, 0.703125
6055, 1, 0.8125, 0.75
6056, 0, 0.8125, 0.75
6057, 1, 0.796875, 0.75
6058, 0.5, 0.8125, 0.75
6059, 0, 0.796875, 0.75
6060, 1, 0.8125, 0.734375
6061, 0, 0.8125, 0.734375
6062, 1, 0.8125, 0.78125
6063, 0, 0.8125, 0.78125
6064, 1, 0.796875, 0.78125
6065, 0.5, 0.8125, 0.78125
6066, 0, 0.796875, 0.78125
6067, 1, 0.8125, 0.765625
6068, 0, 0.8125, 0.765625
6069, 1, 0.8125, 0.8125
6070, 0, 0.8125, 0.8125
6071, 1, 0.796875, 0.8125
6072, 0.5, 0.8125, 0.8125
6073, 0, 0.796875, 0.8125
6074, 1, 0.8125, 0.796875
6075, 0, 0.8125, 0.796875
6076, 1, 0.8125, 0.84375
6077, 0, 0.8125, 0.84375
6078, 1, 0.796875, 0.84375
6079, 0.5, 0.8125, 0.84375
6080, 0, 0.796875, 0.84375
6081, 1, 0.8125, 0.828125
6082, 0, 0.8125, 0.828125
6083, 1, 0.8125, 0.875
6084, 0, 0.8125, 0.875
6085, 1, 0.796875, 0.875
6086, 0.5, 0.8125, 0.875
6087, 0, 0.796875, 0.875
6088, 1, 0.8125, 0.859375
6089, 0, 0.8125, 0.859375
6090, 1, 0.8125, 0.90625
6091, 0, 0.8125, 0.90625
6092, 1, 0.796875, 0.90625
6093, 0.5, 0.8125, 0.90625
6094, 0, 0.796875, 0.90625
6095, 1, 0.8125, 0.890625
6096, 0, 0.8125, 0.890625
6097, 1, 0.8125, 0.9375
6098, 0, 0.8125, 0.9375
6099, 1, 0.796875, 0.9375
6100, 0.5, 0.8125, 0.9375
6101, 0, 0.796875, 0.9375
6102, 1, 0.8125, 0.921875
6103, 0, 0.8125, 0.921875
6104, 1, 0.8125, 0.96875
6105, 0, 0.8125, 0.96875
6106, 1, 0.796875, 0.96875
6107, 0.5, 0.8125, 0.96875
6108, 0, 0.796875, 0.96875
6109, 1, 0.8125, 0.953125
6110, 0, 0.8125, 0.953125
6111, 1, 0.8125, 1
6112, 0, 0.8125, 1
6113, 1, 0.796875, 1
6114, 0.5, 0.8125, 1
6115, 0, 0.796875, 1
6116, 1, 0.8125, 0.984375
6117, 0, 0.8125, 0.984375
6118, 1, 0.84375, 0
6119, 0, 0.84375, 0
6120, 1, 0.84375, 0.03125
6121, 0, 0.84375, 0.03125
6122, 1, 0.828125, 0
6123, 0.5, 0.84375, 0
6124, 0, 0.828125, 0
6125, 1, 0.828125, 0.03125
6126, 0.5, 0.84375, 0.03125
6127, 0, 0.828125, 0.03125
6128, 1, 0.84375, 0.015625
6129, 0, 0.84375, 0.015625
6130, 1, 0.84375, 0.0625
6131, 0, 0.84375, 0.0625
6132, 1, 0.828125, 0.0625
6133, 0.5, 0.84375, 0.0625
6134, 0, 0.828125, 0.0625
6135, 1, 0.84375, 0.046875
6136, 0, 0.84375, 0.046875
6137, 1, 0.84375, 0.09375
6138, 0, 0.84375, 0.09375
6139, 1, 0.828125, 0.09375
6140, 0.5, 0.84375, 0.09375
6141, 0, 0.828125, 0.09375
6142, 1, 0.84375, 0.078125
6143, 0, 0.84375, 0.078125
6144, 1, 0.84375, 0.125
6145, 0, 0.84375, 0.125
6146, 1, 0.828125, 0.125
6147, 0.5, 0.84375, 0.125
6148, 0, 0.828125, 0.125
6149, 1, 0.84375, 0.109375
6150, 0, 0.84375, 0.109375
6151, 1, 0.84375, 0.15625
6152, 0, 0.84375, 0.15625
6153, 1, 0.828125, 0.15625
6154, 0.5, 0.84375, 0.15625
6155, 0, 0.828125, 0.15625
6156, 1, 0.84375, 0.140625
6157, 0, 0.84375, 0.140625
6158, 1, 0.84375, 0.1875
6159, 0, 0.84375, 0.1875
6160, 1, 0.828125, 0.1875
6161, 0.5, 0.84375, 0.1875
6162, 0, 0.828125, 0.1875
6163, 1, 0.84375, 0.171875
6164, 0, 0.84375, 0.171875
6165, 1, 0.84375, 0.21875
6166, 0, 0.84375, 0.21875
6167, 1, 0.828125, 0.21875
6168, 0.5, 0.84375, 0.21875
6169, 0, 0.828125, 0.21875
6170, 1, 0.84375, 0.203125
6171, 0, 0.84375, 0.203125
6172, 1, 0.84375, 0.25
6173, 0, 0.84375, 0.25
6174, 1, 0.828125, 0.25
6175, 0.5, 0.84375, 0.25
6176, 0, 0.828125, 0.25
6177, 1, 0.84375, 0.234375
6178, 0, 0.84375, 0.234375
6179, 1, 0.84375, 0.28125
6180, 0, 0.84375, 0.28125
6181, 1, 0.828125, 0.28125
6182, 0.5, 0.84375, 0.28125
6183, 0, 0.828125, 0.28125
6184, 1, 0.84375, 0.265625
6185, 0, 0.84375, 0.265625
6186, 1, 0.84375, 0.3125
6187, 0, 0.84375, 0.3125
6188, 1, 0.828125, 0.3125
6189, 0.5, 0.84375, 0.3125
6190, 0, 0.828125, 0.3125
6191, 1, 0.84375, 0.296875
6192, 0, 0.84375, 0.296875
6193, 1, 0.84375, 0.34375
6194, 0, 0.84375, 0.34375
6195, 1, 0.828125, 0.34375
6196, 0.5, 0.84375, 0.34375
6197, 0, 0.828125, 0.34375
6198, 1, 0.84375, 0.328125
6199, 0, 0.84375, 0.328125
6200, 1, 0.84375, 0.375
6201, 0, 0.84375, 0.375
6202, 1, 0.828125, 0.375
6203, 0.5, 0.84375, 0.375
6204, 0, 0.828125, 0.375
6205, 1, 0.84375, 0.359375
6206, 0, 0.84375, 0.359375
6207, 1, 0.84375, 0.40625
6208, 0, 0.84375, 0.40625
6209, 1, 0.828125, 0.40625
6210, 0.5, 0.84375, 0.40625
6211, 0, 0.828125, 0.40625
6212, 1, 0.84375, 0.390625
6213, 0, 0.84375, 0.390625
6214, 1, 0.84375, 0.4375
6215, 0, 0.84375, 0.4375
6216, 1, 0.828125, 0.4375
6217, 0.5, 0.84375, 0.4375
6218, 0, 0.828125, 0.4375
6219, 1, 0.84375, 0.421875
6220, 0, 0.84375, 0.421875
6221, 1, 0.84375, 0.46875
6222, 0, 0.84375, 0.46875
6223, 1, 0.828125, 0.46875
6224, 0.5, 0.84375, 0.46875
6225, 0, 0.828125, 0.46875
6226, 1, 0.84375, 0.453125
6227, 0, 0.84375, 0.453125
6228, 1, 0.84375, 0.5
6229, 0, 0.84375, 0.5
6230, 1, 0.828125, 0.5
6231, 0.5, 0.84375, 0.5
6232, 0, 0.828125, 0.5
6233, 1, 0.84375, 0.484375
6234, 0, 0.84375, 0.484375
6235, 1, 0.84375, 0.53125
6236, 0, 0.84375, 0.53125
6237, 1, 0.828125, 0.53125
6238, 0.5, 0.84375, 0.53125
6239, 0, 0.828125, 0.53125
6240, 1, 0.84375, 0.515625
6241, 0, 0.84375, 0.515625
6242, 1, 0.84375, 0.5625
6243, 0, 0.84375, 0.5625
6244, 1, 0.828125, 0.5625
6245, 0.5, 0.84375, 0.5625
6246, 0, 0.828125, 0.5625
6247, 1, 0.84375, 0.546875
6248, 0, 0.84375, 0.546875
6249, 1, 0.84375, 0.59375
6250, 0, 0.84375, 0.59375
6251, 1, 0.828125, 0.59375
6252, 0.5, 0.84375, 0.59375
6253, 0, 0.828125, 0.59375
6254, 1, 0.84375, 0.578125
6255, 0, 0.84375, 0.578125
6256, 1, 0.84375, 0.625
6257, 0, 0.84375, 0.625
6258, 1, 0.828125, 0.625
6259, 0.5, 0.84375, 0.625
6260, 0, 0.828125, 0.625
6261, 1, 0.84375, 0.609375
6262, 0, 0.84375, 0.609375
6263, 1, 0.84375, 0.65625
6264, 0, 0.84375, 0.65625
6265, 1, 0.828125, 0.65625
6266, 0.5, 0.84375, 0.65625
6267, 0, 0.828125, 0.65625
6268, 1, 0.84375, 0.640625
6269, 0, 0.84375, 0.640625
6270, 1, 0.84375, 0.6875
6271, 0, 0.84375, 0.6875
6272, 1, 0.828125, 0.6875
6273, 0.5, 0.84375, 0.6875
6274, 0, 0.828125, 0.6875
6275, 1, 0.84375, 0.671875
6276, 0, 0.84375, 0.671875
6277, 1, 0.84375, 0.71875
6278, 0, 0.84375, 0.71875
6279, 1, 0.828125, 0.71875
6280, 0.5, 0.84375, 0.71875
6281, 0, 0.828125, 0.71875
6282, 1, 0.84375, 0.703125
6283, 0, 0.84375, 0.703125
6284, 1, 0.84375, 0.75
6285, 0, 0.84375, 0.75
6286, 1, 0.828125, 0.75
6287, 0.5, 0.84375, 0.75
6288, 0, 0.828125, 0.75
6289, 1, 0.84375, 0.734375
6290, 0, 0.84375, 0.734375
6291, 1, 0.84375, 0.78125
6292, 0, 0.84375, 0.78125
6293, 1, 0.828125, 0.78125
6294, 0.5, 0.84375, 0.78125
6295, 0, 0.828125, 0.78125
6296, 1, 0.84375, 0.765625
6297, 0, 0.84375, 0.765625
6298, 1, 0.84375, 0.8125
6299, 0, 0.84375, 0.8125
6300, 1, 0.828125, 0.8125
6301, 0.5, 0.84375, 0.8125
6302, 0, 0.828125, 0.8125
6303, 1, 0.84375, 0.796875
6304, 0, 0.84375, 0.796875
6305, 1, 0.84375, 0.84375
6306, 0, 0.84375, 0.84375
6307, 1, 0.828125, 0.84375
6308, 0.5, 0.84375, 0.84375
6309, 0, 0.828125, 0.84375
6310, 1, 0.84375, 0.828125
6311, 0, 0.84375, 0.828125
6312, 1, 0.84375, 0.875
6313, 0, 0.84375, 0.875
6314, 1, 0.828125, 0.875
6315, 0.5, 0.84375, 0.875
6316, 0, 0.828125, 0.875
6317, 1, 0.84375, 0.859375
6318, 0, 0.84375, 0.859375
6319, 1, 0.84375, 0.90625
6320, 0, 0.84375, 0.90625
6321, 1, 0.828125, 0.90625
6322, 0.5, 0.84375, 0.90625
6323, 0, 0.828125, 0.90625
6324, 1, 0.84375, 0.890625
6325, 0, 0.84375, 0.890625
6326, 1, 0.84375, 0.9375
6327, 0, 0.84375, 0.9375
6328, 1, 0.828125, 0.9375
6329, 0.5, 0.84375, 0.9375
6330, 0, 0.828125, 0.9375
6331, 1, 0.84375, 0.921875
6332, 0, 0.84375, 0.921875
6333, 1, 0.84375, 0.96875
6334, 0, 0.84375, 0.96875
6335, 1, 0.828125, 0.96875
6336, 0.5, 0.84375, 0.96875
6337, 0, 0.828125, 0.96875
6338, 1, 0.84375, 0.953125
6339, 0, 0.84375, 0.953125
6340, 1, 0.84375, 1
6341, 0, 0.84375, 1
6342, 1, 0.828125, 1
6343, 0.5, 0.84375, 1
6344, 0, 0.828125, 1
6345, 1, 0.84375, 0.984375
6346, 0, 0.84375, 0.984375
6347, 1, 0.875, 0
6348, 0, 0.875, 0
6349, 1, 0.875, 0.03125
6350, 0, 0.875, 0.03125
6351, 1, 0.859375, 0
6352, 0.5, 0.875, 0
6353, 0, 0.859375, 0
6354, 1, 0.859375, 0.03125
6355, 0.5, 0.875, 0.03125
6356, 0, 0.859375, 0.03125
6357, 1, 0.875, 0.015625
6358, 0, 0.875, 0.015625
6359, 1, 0.875, 0.0625
6360, 0, 0.875, 0.0625
6361, 1, 0.859375, 0.0625
6362, 0.5, 0.875, 0.0625
6363, 0, 0.859375, 0.0625
6364, 1, 0.875, 0.046875
6365, 0, 0.875, 0.046875
6366, 1, 0.875, 0.09375
6367, 0, 0.875, 0.09375
6368, 1, 0.859375, 0.09375
6369, 0.5, 0.875, 0.09375
6370, 0, 0.859375, 0.09375
6371, 1, 0.875, 0.078125
6372, 0, 0.875, 0.078125
6373, 1, 0.875, 0.125
6374, 0, 0.875, 0.125
6375, 1, 0.859375, 0.125
6376, 0.5, 0.875, 0.125
6377, 0, 0.859375, 0.125
6378, 1, 0.875, 0.109375
6379, 0, 0.875, 0.109375
6380, 1, 0.875, 0.15625
6381, 0, 0.875, 0.15625
6382, 1, 0.859375, 0.15625
6383, 0.5, 0.875, 0.15625
6384, 0, 0.859375, 0.15625
6385, 1, 0.875, 0.140625
6386, 0, 0.875, 0.140625
6387, 1, 0.875, 0.1875
6388, 0, 0.875, 0.1875
6389, 1, 0.859375, 0.1875
6390, 0.5, 0.875, 0.1875
6391, 0, 0.859375, 0.1875
6392, 1, 0.875, 0.171875
6393, 0, 0.875, 0.171875
6394, 1, 0.875, 0.21875
6395, 0, 0.875, 0.21875
6396, 1, 0.859375, 0.21875
6397, 0.5, 0.875, 0.21875
6398, 0, 0.859375, 0.21875
6399, 1, 0.875, 0.203125
6400, 0, 0.875, 0.203125
6401, 1, 0.875, 0.25
6402, 0, 0.875, 0.25
6403, 1, 0.859375, 0.25
6404, 0.5, 0.875, 0.25
6405, 0, 0.859375, 0.25
6406, 1, 0.875, 0.234375
6407, 0, 0.875, 0.234375
6408, 1, 0.875, 0.28125
6409, 0, 0.875, 0.28125
6410, 1, 0.859375, 0.28125
6411, 0.5, 0.875, 0.28125
6412, 0, 0.859375, 0.28125
6413, 1, 0.875, 0.265625
6414, 0, 0.875, 0.265625
6415, 1, 0.875, 0.3125
6416, 0, 0.875, 0.3125
6417, 1, 0.859375, 0.3125
6418, 0.5, 0.875, 0.3125
6419, 0, 0.859375, 0.3125
6420, 1, 0.875, 0.296875
6421, 0, 0.875, 0.296875
6422, 1, 0.875, 0.34375
6423, 0, 0.875, 0.34375
6424, 1, 0.859375, 0.34375
6425, 0.5, 0.875, 0.34375
6426, 0, 0.859375, 0.34375
6427, 1, 0.875, 0.328125
6428, 0, 0.875, 0.328125
6429, 1, 0.875, 0.375
6430, 0, 0.875, 0.375
6431, 1, 0.859375, 0.375
6432, 0.5, 0.875, 0.375
6433, 0, 0.859375, 0.375
6434, 1, 0.875, 0.359375
6435, 0, 0.875, 0.359375
6436, 1, 0.875, 0.40625
6437, 0, 0.875, 0.40625
6438, 1, 0.859375, 0.40625
6439, 0.5, 0.875, 0.40625
6440, 0, 0.859375, 0.40625
6441, 1, 0.875, 0.390625
6442, 0, 0.875, 0.390625
6443, 1, 0.875, 0.4375
6444, 0, 0.875, 0.4375
6445, 1, 0.859375, 0.4375
6446, 0.5, 0.875, 0.4375
6447, 0, 0.859375, 0.4375
6448, 1, 0.875, 0.421875
6449, 0, 0.875, 0.421875
6450, 1, 0.875, 0.46875
6451, 0, 0.875, 0.46875
6452, 1, 0.859375, 0.46875
6453, 0.5, 0.875, 0.46875
6454, 0, 0.859375, 0.46875
6455, 1, 0.875, 0.453125
6456, 0, 0.875, 0.453125
6457, 1, 0.875, 0.5
6458, 0, 0.875, 0.5
6459, 1, 0.859375, 0.5
6460, 0.5, 0.875, 0.5
6461, 0, 0.859375, 0.5
6462, 1, 0.875, 0.484375
6463, 0, 0.875, 0.484375
6464, 1, 0.875, 0.53125
6465, 0, 0.875, 0.53125
6466, 1, 0.859375, 0.53125
6467, 0.5, 0.875, 0.53125
6468, 0, 0.859375, 0.53125
6469, 1, 0.875, 0.515625
6470, 0, 0.875, 0.515625
6471, 1, 0.875, 0.5625
6472, 0, 0.875, 0.5625
6473, 1, 0.859375, 0.5625
6474, 0.5, 0.875, 0.5625
6475, 0, 0.859375, 0.5625
6476, 1, 0.875, 0.546875
6477, 0, 0.875, 0.546875
6478, 1, 0.875, 0.59375
6479, 0, 0.875, 0.59375
6480, 1, 0.859375, 0.59375
6481, 0.5, 0.875, 0.59375
6482, 0, 0.859375, 0.59375
6483, 1, 0.875, 0.578125
6484, 0, 0.875, 0.578125
6485, 1, 0.875, 0.625
6486, 0, 0.875, 0.625
6487, 1, 0.859375, 0.625
6488, 0.5, 0.875, 0.625
6489, 0, 0.859375, 0.625
6490, 1, 0.875, 0.609375
6491, 0, 0.875, 0.609375
6492, 1, 0.875, 0.65625
6493, 0, 0.875, 0.65625
6494, 1, 0.859375, 0.65625
6495, 0.5, 0.875, 0.65625
6496, 0, 0.859375, 0.65625
6497, 1, 0.875, 0.640625
6498, 0, 0.875, 0.640625
6499, 1, 0.875, 0.6875
6500, 0, 0.875, 0.6875
6501, 1, 0.859375, 0.6875
6502, 0.5, 0.875, 0.6875
6503, 0, 0.859375, 0.6875
6504, 1, 0.875, 0.671875
6505, 0, 0.875, 0.671875
6506, 1, 0.875, 0.71875
6507, 0, 0.875, 0.71875
6508, 1, 0.859375, 0.71875
6509, 0.5, 0.875, 0.71875
6510, 0, 0.859375, 0.71875
6511, 1, 0.875, 0.703125
6512, 0, 0.875, 0.703125
6513, 1, 0.875, 0.75
6514, 0, 0.875, 0.75
6515, 1, 0.859375, 0.75
6516, 0.5, 0.875, 0.75
6517, 0, 0.859375, 0.75
6518, 1, 0.875, 0.734375
6519, 0, 0.875, 0.734375
6520, 1, 0.875, 0.78125
6521, 0, 0.875, 0.78125
6522, 1, 0.859375, 0.78125
6523, 0.5, 0.875, 0.78125
6524, 0, 0.859375, 0.78125
6525, 1, 0.875, 0.765625
6526, 0, 0.875, 0.765625
6527, 1, 0.875, 0.8125
6528, 0, 0.875, 0.8125
6529, 1, 0.859375, 0.8125
6530, 0.5, 0.875, 0.8125
6531, 0, 0.859375, 0.8125
6532, 1, 0.875, 0.796875
6533, 0, 0.875, 0.796875
6534, 1, 0.875, 0.84375
6535, 0, 0.875, 0.84375
6536, 1, 0.859375, 0.84375
6537, 0.5, 0.875, 0.84375
6538, 0, 0.859375, 0.84375
6539, 1, 0.875, 0.828125
6540, 0, 0.875, 0.828125
6541, 1, 0.875, 0.875
6542, 0, 0.875, 0.875
6543, 1, 0.859375, 0.875
6544, 0.5, 0.875, 0.875
6545, 0, 0.859375, 0.875
6546, 1, 0.875, 0.859375
6547, 0, 0.875, 0.859375
6548, 1, 0.875, 0.90625
6549, 0, 0.875, 0.90625
6550, 1, 0.859375, 0.90625
6551, 0.5, 0.875, 0.90625
6552, 0, 0.859375, 0.90625
6553, 1, 0.875, 0.890625
6554, 0, 0.875, 0.890625
6555, 1, 0.875, 0.9375
6556, 0, 0.875, 0.9375
6557, 1, 0.859375, 0.9375
6558, 0.5, 0.875, 0.9375
6559, 0, 0.859375, 0.9375
6560, 1, 0.875, 0.921875
6561, 0, 0.875, 0.921875
6562, 1, 0.875, 0.96875
6563, 0, 0.875, 0.96875
6564, 1, 0.859375, 0.96875
6565, 0.5, 0.875, 0.96875
6566, 0, 0.859375, 0.96875
6567, 1, 0.875, 0.953125
6568, 0, 0.875, 0.953125
6569, 1, 0.875, 1
6570, 0, 0.875, 1
6571, 1, 0.859375, 1
6572, 0.5, 0.875, 1
6573, 0, 0.859375, 1
6574, 1, 0.875, 0.984375
6575, 0, 0.875, 0.984375
6576, 1, 0.90625, 0
6577, 0, 0.90625, 0
6578, 1, 0.90625, 0.03125
6579, 0, 0.90625, 0.03125
6580, 1, 0.890625, 0
6581, 0.5, 0.90625, 0
6582, 0, 0.890625, 0
6583, 1, 0.890625, 0.03125
6584, 0.5, 0.90625, 0.03125
6585, 0, 0.890625, 0.03125
6586, 1, 0.90625, 0.015625
6587, 0, 0.90625, 0.015625
6588, 1, 0.90625, 0.0625
6589, 0, 0.90625, 0.0625
6590, 1, 0.890625, 0.0625
6591, 0.5, 0.90625, 0.0625
6592, 0, 0.890625, 0.0625
6593, 1, 0.90625, 0.046875
6594, 0, 0.90625, 0.046875
6595, 1, 0.90625, 0.09375
6596, 0, 0.90625, 0.09375
6597, 1, 0.890625, 0.09375
6598, 0.5, 0.90625, 0.09375
6599, 0, 0.890625, 0.09375
6600, 1, 0.90625, 0.078125
6601, 0, 0.90625, 0.078125
6602, 1, 0.90625, 0.125
6603, 0, 0.90625, 0.125
6604, 1, 0.890625, 0.125
6605, 0.5, 0.90625, 0.125
6606, 0, 0.890625, 0.125
6607, 1, 0.90625, 0.109375
6608, 0, 0.90625, 0.109375
6609, 1, 0.90625, 0.15625
6610, 0, 0.90625, 0.15625
6611, 1, 0.890625, 0.15625
6612, 0.5, 0.90625, 0.15625
6613, 0, 0.890625, 0.15625
6614, 1, 0.90625, 0.140625
6615, 0, 0.90625, 0.140625
6616, 1, 0.90625, 0.1875
6617, 0, 0.90625, 0.1875
6618, 1, 0.890625, 0.1875
6619, 0.5, 0.90625, 0.1875
6620, 0, 0.890625, 0.1875
6621, 1, 0.90625, 0.171875
6622, 0, 0.90625, 0.171875
6623, 1, 0.90625, 0.21875
6624, 0, 0.90625, 0.21875
6625, 1, 0.890625, 0.21875
6626, 0.5, 0.90625, 0.21875
6627, 0, 0.890625, 0.21875
6628, 1, 0.90625, 0.203125
6629, 0, 0.90625, 0.203125
6630, 1, 0.90625, 0.25
6631, 0, 0.90625, 0.25
6632, 1, 0.890625, 0.25
6633, 0.5, 0.90625, 0.25
6634, 0, 0.890625, 0.25
6635, 1, 0.90625, 0.234375
6636, 0, 0.90625, 0.234375
6637, 1, 0.90625, 0.28125
6638, 0, 0.90625, 0.28125
6639, 1, 0.890625, 0.28125
6640, 0.5, 0.90625, 0.28125
6641, 0, 0.890625, 0.28125
6642, 1, 0.90625, 0.265625
6643, 0, 0.90625, 0.265625
6644, 1, 0.90625, 0.3125
6645, 0, 0.90625, 0.3125
6646, 1, 0.890625, 0.3125
6647, 0.5, 0.90625, 0.3125
6648, 0, 0.890625, 0.3125
6649, 1, 0.90625, 0.296875
6650, 0, 0.90625, 0.296875
6651, 1, 0.90625, 0.34375
6652, 0, 0.90625, 0.34375
6653, 1, 0.890625, 0.34375
6654, 0.5, 0.90625, 0.34375
6655, 0, 0.890625, 0.34375
6656, 1, 0.90625, 0.328125
6657, 0, 0.90625, 0.328125
6658, 1, 0.90625, 0.375
6659, 0, 0.90625, 0.375
6660, 1, 0.890625, 0.375
6661, 0.5, 0.90625, 0.375
6662, 0, 0.890625, 0.375
6663, 1, 0.90625, 0.359375
6664, 0, 0.90625, 0.359375
6665, 1, 0.90625, 0.40625
6666, 0, 0.90625, 0.40625
6667, 1, 0.890625, 0.40625
6668, 0.5, 0.90625, 0.40625
6669, 0, 0.890625, 0.40625
6670, 1, 0.90625, 0.390625
6671, 0, 0.90625, 0.390625
6672, 1, 0.90625, 0.4375
6673, 0, 0.90625, 0.4375
6674, 1, 0.890625, 0.4375
6675, 0.5, 0.90625, 0.4375
6676, 0, 0.890625, 0.4375
6677, 1, 0.90625, 0.421875
6678, 0, 0.90625, 0.421875
6679, 1, 0.90625, 0.46875
6680, 0, 0.90625, 0.46875
6681, 1, 0.890625, 0.46875
6682, 0.5, 0.90625, 0.46875
6683, 0, 0.890625, 0.46875
6684, 1, 0.90625, 0.453125
6685, 0, 0.90625, 0.453125
6686, 1, 0.90625, 0.5
6687, 0, 0.90625, 0.5
6688, 1, 0.890625, 0.5
6689, 0.5, 0.90625, 0.5
6690, 0, 0.890625, 0.5
6691, 1, 0.90625, 0.484375
6692, 0, 0.90625, 0.484375
6693, 1, 0.90625, 0.53125
6694, 0, 0.90625, 0.53125
6695, 1, 0.890625, 0.53125
6696, 0.5, 0.90625, 0.53125
6697, 0, 0.890625, 0.53125
6698, 1, 0.90625, 0.515625
6699, 0, 0.90625, 0.515625
6700, 1, 0.90625, 0.5625
6701, 0, 0.90625, 0.5625
6702, 1, 0.890625, 0.5625
6703, 0.5, 0.90625, 0.5625
6704, 0, 0.890625, 0.5625
6705, 1, 0.90625, 0.546875
6706, 0, 0.90625, 0.546875
6707, 1, 0.90625, 0.59375
6708, 0, 0.90625, 0.59375
6709, 1, 0.890625, 0.59375
6710, 0.5, 0.90625, 0.59375
6711, 0, 0.890625, 0.59375
6712, 1, 0.90625, 0.578125
6713, 0, 0.90625, 0.578125
6714, 1, 0.90625, 0.625
6715, 0, 0.90625, 0.625
6716, 1, 0.890625, 0.625
6717, 0.5, 0.90625, 0.625
6718, 0, 0.890625, 0.625
6719, 1, 0.90625, 0.609375
6720, 0, 0.90625, 0.609375
6721, 1, 0.90625, 0.65625
6722, 0, 0.90625, 0.65625
6723, 1, 0.890625, 0.65625
6724, 0.5, 0.90625, 0.65625
6725, 0, 0.890625, 0.65625
6726, 1, 0.90625, 0.640625
6727, 0, 0.90625, 0.640625
6728, 1, 0.90625, 0.6875
6729, 0, 0.90625, 0.6875
6730, 1, 0.890625, 0.6875
6731, 0.5, 0.90625, 0.6875
6732, 0, 0.890625, 0.6875
6733, 1, 0.90625, 0.671875
6734, 0, 0.90625, 0.671875
6735, 1, 0.90625, 0.71875
6736, 0, 0.90625, 0.71875
6737, 1, 0.890625, 0.71875
6738, 0.5, 0.90625, 0.71875
6739, 0, 0.890625, 0.71875
6740, 1, 0.90625, 0.703125
6741, 0, 0.90625, 0.703125
6742, 1, 0.90625, 0.75
6743, 0, 0.90625, 0.75
6744, 1, 0.890625, 0.75
6745, 0.5, 0.90625, 0.75
6746, 0, 0.890625, 0.75
6747, 1, 0.90625, 0.734375
6748, 0, 0.90625, 0.734375
6749, 1, 0.90625, 0.78125
6750, 0, 0.90625, 0.78125
6751, 1, 0.890625, 0.78125
6752, 0.5, 0.90625, 0.78125
6753, 0, 0.890625, 0.78125
6754, 1, 0.90625, 0.765625
6755, 0, 0.90625, 0.765625
6756, 1, 0.90625, 0.8125
6757, 0, 0.90625, 0.8125
6758, 1, 0.890625, 0.8125
6759, 0.5, 0.90625, 0.8125
6760, 0, 0.890625, 0.8125
6761, 1, 0.90625, 0.796875
6762, 0, 0.90625, 0.796875
6763, 1, 0.90625, 0.84375
6764, 0, 0.90625, 0.84375
6765, 1, 0.890625, 0.84375
6766, 0.5, 0.90625, 0.84375
6767, 0, 0.890625, 0.84375
6768, 1, 0.90625, 0.828125
6769, 0, 0.90625, 0.828125
6770, 1, 0.90625, 0.875
6771, 0, 0.90625, 0.875
6772, 1, 0.890625, 0.875
6773, 0.5, 0.90625, 0.875
6774, 0, 0.890625, 0.875
6775, 1, 0.90625, 0.859375
6776, 0, 0.90625, 0.859375
6777, 1, 0.90625, 0.90625
6778, 0, 0.90625, 0.90625
6779, 1, 0.890625, 0.90625
6780, 0.5, 0.90625, 0.90625
6781, 0, 0.890625, 0.90625
6782, 1, 0.90625, 0.890625
6783, 0, 0.90625, 0.890625
6784, 1, 0.90625, 0.9375
6785, 0, 0.90625, 0.9375
6786, 1, 0.890625, 0.9375
6787, 0.5, 0.90625, 0.9375
6788, 0, 0.890625, 0.9375
6789, 1, 0.90625, 0.921875
6790, 0, 0.90625, 0.921875
6791, 1, 0.90625, 0.96875
6792, 0, 0.90625, 0.96875
6793, 1, 0.890625, 0.96875
6794, 0.5, 0.90625, 0.96875
6795, 0, 0.890625, 0.96875
6796, 1, 0.90625, 0.953125
6797, 0, 0.90625, 0.953125
6798, 1, 0.90625, 1
6799, 0, 0.90625, 1
6800, 1, 0.890625, 1
6801, 0.5, 0.90625, 1
6802, 0, 0.890625, 1
6803, 1, 0.90625, 0.984375
6804, 0, 0.90625, 0.984375
6805, 1, 0.9375, 0
6806, 0, 0.9375, 0
6807, 1, 0.9375, 0.03125
6808, 0, 0.9375, 0.03125
6809, 1, 0.921875, 0
6810, 0.5, 0.9375, 0
6811, 0, 0.921875, 0
6812, 1, 0.921875, 0.03125
6813, 0.5, 0.9375, 0.03125
6814, 0, 0.921875, 0.03125
6815, 1, 0.9375, 0.015625
6816, 0, 0.9375, 0.015625
6817, 1, 0.9375, 0.0625
6818, 0, 0.9375, 0.0625
6819, 1, 0.921875, 0.0625
6820, 0.5, 0.9375, 0.0625
6821, 0, 0.921875, 0.0625
6822, 1, 0.9375, 0.046875
6823, 0, 0.9375, 0.046875
6824, 1, 0.9375, 0.09375
6825, 0, 0.9375, 0.09375
6826, 1, 0.921875, 0.09375
6827, 0.5, 0.9375, 0.09375
6828, 0, 0.921875, 0.09375
6829, 1, 0.9375, 0.078125
6830, 0, 0.9375, 0.078125
6831, 1, 0.9375, 0.125
6832, 0, 0.9375, 0.125
6833, 1, 0.921875, 0.125
6834, 0.5, 0.9375, 0.125
6835, 0, 0.921875, 0.125
6836, 1, 0.9375, 0.109375
6837, 0, 0.9375, 0.109375
6838, 1, 0.9375, 0.15625
6839, 0, 0.9375, 0.15625
6840, 1, 0.921875, 0.15625
6841, 0.5, 0.9375, 0.15625
6842, 0, 0.921875, 0.15625
6843, 1, 0.9375, 0.140625
6844, 0, 0.9375, 0.140625
6845, 1, 0.9375, 0.1875
6846, 0, 0.9375, 0.1875
6847, 1, 0.921875, 0.1875
6848, 0.5, 0.9375, 0.1875
6849, 0, 0.921875, 0.1875
6850, 1, 0.9375, 0.171875
6851, 0, 0.9375, 0.171875
6852, 1, 0.9375, 0.21875
6853, 0, 0.9375, 0.21875
6854, 1, 0.921875, 0.21875
6855, 0.5, 0.9375, 0.21875
6856, 0, 0.921875, 0.21875
6857, 1, 0.9375, 0.203125
6858, 0, 0.9375, 0.203125
6859, 1, 0.9375, 0.25
6860, 0, 0.9375, 0.25
6861, 1, 0.921875, 0.25
6862, 0.5, 0.9375, 0.25
6863, 0, 0.921875, 0.25
6864, 1, 0.9375, 0.234375
6865, 0, 0.9375, 0.234375
6866, 1, 0.9375, 0.28125
6867, 0, 0.9375, 0.28125
6868, 1, 0.921875, 0.28125
6869, 0.5, 0.9375, 0.28125
6870, 0, 0.921875, 0.28125
6871, 1, 0.9375, 0.265625
6872, 0, 0.9375, 0.265625
6873, 1, 0.9375, 0.3125
6874, 0, 0.9375, 0.3125
6875, 1, 0.921875, 0.3125
6876, 0.5, 0.9375, 0.3125
6877, 0, 0.921875, 0.3125
6878, 1, 0.9375, 0.296875
6879, 0, 0.9375, 0.296875
6880, 1, 0.9375, 0.34375
6881, 0, 0.9375, 0.34375
6882, 1, 0.921875, 0.34375
6883, 0.5, 0.9375, 0.34375
6884, 0, 0.921875, 0.34375
6885, 1, 0.9375, 0.328125
6886, 0, 0.9375, 0.328125
6887, 1, 0.9375, 0.375
6888, 0, 0.9375, 0.375
6889, 1, 0.921875, 0.375
6890, 0.5, 0.9375, 0.375
6891, 0, 0.921875, 0.375
6892, 1, 0.9375, 0.359375
6893, 0, 0.9375, 0.359375
6894, 1, 0.9375, 0.40625
6895, 0, 0.9375, 0.40625
6896, 1, 0.921875, 0.40625
6897, 0.5, 0.9375, 0.40625
6898, 0, 0.921875, 0.40625
6899, 1, 0.9375, 0.390625
6900, 0, 0.9375, 0.390625
6901, 1, 0.9375, 0.4375
6902, 0, 0.9375, 0.4375
6903, 1, 0.921875, 0.4375
6904, 0.5, 0.9375, 0.4375
6905, 0, 0.921875, 0.4375
6906, 1, 0.9375, 0.421875
6907, 0, 0.9375, 0.421875
6908, 1, 0.9375, 0.46875
6909, 0, 0.9375, 0.46875
6910, 1, 0.921875, 0.46875
6911, 0.5, 0.9375, 0.46875
6912, 0, 0.921875, 0.46875
6913, 1, 0.9375, 0.453125
6914, 0, 0.9375, 0.453125
6915, 1, 0.9375, 0.5
6916, 0, 0.9375, 0.5
6917, 1, 0.921875, 0.5
6918, 0.5, 0.9375, 0.5
6919, 0, 0.921875, 0.5
6920, 1, 0.9375, 0.484375
6921, 0, 0.9375, 0.484375
6922, 1, 0.9375, 0.53125
6923, 0, 0.9375, 0.53125
6924, 1, 0.921875, 0.53125
6925, 0.5, 0.9375, 0.53125
6926, 0, 0.921875, 0.53125
6927, 1, 0.9375, 0.515625
6928, 0, 0.9375, 0.515625
6929, 1, 0.9375, 0.5625
6930, 0, 0.9375, 0.5625
6931, 1, 0.921875, 0.5625
6932, 0.5, 0.9375, 0.5625
6933, 0, 0.921875, 0.5625
6934, 1, 0.9375, 0.546875
6935, 0, 0.9375, 0.546875
6936, 1, 0.9375, 0.59375
6937, 0, 0.9375, 0.59375
6938, 1, 0.921875, 0.59375
6939, 0.5, 0.9375, 0.59375
6940, 0, 0.921875, 0.59375
6941, 1, 0.9375, 0.578125
6942, 0, 0.9375, 0.578125
6943, 1, 0.9375, 0.625
6944, 0, 0.9375, 0.625
6945, 1, 0.921875, 0.625
6946, 0.5, 0.9375, 0.625
6947, 0, 0.921875, 0.625
6948, 1, 0.9375, 0.609375
6949, 0, 0.9375, 0.609375
6950, 1, 0.9375, 0.65625
6951, 0, 0.9375, 0.65625
6952, 1, 0.921875, 0.65625
6953, 0.5, 0.9375, 0.65625
6954, 0, 0.921875, 0.65625
6955, 1, 0.9375, 0.640625
6956, 0, 0.9375, 0.640625
6957, 1, 0.9375, 0.6875
6958, 0, 0.9375, 0.6875
6959, 1, 0.921875, 0.6875
6960, 0.5, 0.9375, 0.6875
6961, 0, 0.921875, 0.6875
6962, 1, 0.9375, 0.671875
6963, 0, 0.9375, 0.671875
6964, 1, 0.9375, 0.71875
6965, 0, 0.9375, 0.71875
6966, 1, 0.921875, 0.71875
6967, 0.5, 0.9375, 0.71875
6968, 0, 0.921875, 0.71875
6969, 1, 0.9375, 0.703125
6970, 0, 0.9375, 0.703125
6971, 1, 0.9375, 0.75
6972, 0, 0.9375, 0.75
6973, 1, 0.921875, 0.75
6974, 0.5, 0.9375, 0.75
6975, 0, 0.921875, 0.75
6976, 1, 0.9375, 0.734375
6977, 0, 0.9375, 0.734375
6978, 1, 0.9375, 0.78125
6979, 0, 0.9375, 0.78125
6980, 1, 0.921875, 0.78125
6981, 0.5, 0.9375, 0.78125
6982, 0, 0.921875, 0.78125
6983, 1, 0.9375, 0.765625
6984, 0, 0.9375, 0.765625
6985, 1, 0.9375, 0.8125
6986, 0, 0.9375, 0.8125
6987, 1, 0.921875, 0.8125
6988, 0.5, 0.9375, 0.8125
6989, 0, 0.921875, 0.8125
6990, 1, 0.9375, 0.796875
6991, 0, 0.9375, 0.796875
6992, 1, 0.9375, 0.84375
6993, 0, 0.9375, 0.84375
6994, 1, 0.921875, 0.84375
6995, 0.5, 0.9375, 0.84375
6996, 0, 0.921875, 0.84375
6997, 1, 0.9375, 0.828125
6998, 0, 0.9375, 0.828125
6999, 1, 0.9375, 0.875
7000, 0, 0.9375, 0.875
7001, 1, 0.921875, 0.875
7002, 0.5, 0.9375, 0.875
7003, 0, 0.921875, 0.875
7004, 1, 0.9375, 0.859375
7005, 0, 0.9375, 0.859375
7006, 1, 0.9375, 0.90625
7007, 0, 0.9375, 0.90625
7008, 1, 0.921875, 0.90625
7009, 0.5, 0.9375, 0.90625
7010, 0, 0.921875, 0.90625
7011, 1, 0.9375, 0.890625
7012, 0, 0.9375, 0.890625
7013, 1, 0.9375, 0.9375
7014, 0, 0.9375, 0.9375
7015, 1, 0.921875, 0.9375
7016, 0.5, 0.9375, 0.9375
7017, 0, 0.921875, 0.9375
7018, 1, 0.9375, 0.921875
7019, 0, 0.9375, 0.921875
7020, 1, 0.9375, 0.96875
7021, 0, 0.9375, 0.96875
7022, 1, 0.921875, 0.96875
7023, 0.5, 0.9375, 0.96875
7024, 0, 0.921875, 0.96875
7025, 1, 0.9375, 0.953125
7026, 0, 0.9375, 0.953125
7027, 1, 0.9375, 1
7028, 0, 0.9375, 1
7029, 1, 0.921875, 1
7030, 0.5, 0.9375, 1
7031, 0, 0.921875, 1
7032, 1, 0.9375, 0.984375
7033, 0, 0.9375, 0.984375
7034, 1, 0.96875, 0
7035, 0, 0.96875, 0
7036, 1, 0.96875, 0.03125
7037, 0, 0.96875, 0.03125
7038, 1, 0.953125, 0
7039, 0.5, 0.96875, 0
7040, 0, 0.953125, 0
7041, 1, 0.953125, 0.03125
7042, 0.5, 0.96875, 0.03125
7043, 0, 0.953125, 0.03125
7044, 1, 0.96875, 0.015625
7045, 0, 0.96875, 0.015625
7046, 1, 0.96875, 0.0625
7047, 0, 0.96875, 0.0625
7048, 1, 0.953125, 0.0625
7049, 0.5, 0.96875, 0.0625
7050, 0, 0.953125, 0.0625
7051, 1, 0.96875, 0.046875
7052, 0, 0.96875, 0.046875
7053, 1, 0.96875, 0.09375
7054, 0, 0.96875, 0.09375
7055, 1, 0.953125, 0.09375
7056, 0.5, 0.96875, 0.09375
7057, 0, 0.953125, 0.09375
7058, 1, 0.96875, 0.078125
7059, 0, 0.96875, 0.078125
7060, 1, 0.96875, 0.125
7061, 0, 0.96875, 0.125
7062, 1, 0.953125, 0.125
7063, 0.5, 0.96875, 0.125
7064, 0, 0.953125, 0.125
7065, 1, 0.96875, 0.109375
7066, 0, 0.96875, 0.109375
7067, 1, 0.96875, 0.15625
7068, 0, 0.96875, 0.15625
7069, 1, 0.953125, 0.15625
7070, 0.5, 0.96875, 0.15625
7071, 0, 0.953125, 0.15625
7072, 1, 0.96875, 0.140625
7073, 0, 0.96875, 0.140625
7074, 1, 0.96875, 0.1875
7075, 0, 0.96875, 0.1875
7076, 1, 0.953125, 0.1875
7077, 0.5, 0.96875, 0.1875
7078, 0, 0.953125, 0.1875
7079, 1, 0.96875, 0.171875
7080, 0, 0.96875, 0.171875
7081, 1, 0.96875, 0.21875
7082, 0, 0.96875, 0.21875
7083, 1, 0.953125, 0.21875
7084, 0.5, 0.96875, 0.21875
7085, 0, 0.953125, 0.21875
7086, 1, 0.96875, 0.203125
7087, 0, 0.96875, 0.203125
7088, 1, 0.96875, 0.25
7089, 0, 0.96875, 0.25
7090, 1, 0.953125, 0.25
7091, 0.5, 0.96875, 0.25
7092, 0, 0.953125, 0.25
7093, 1, 0.96875, 0.234375
7094, 0, 0.96875, 0.234375
7095, 1, 0.96875, 0.28125
7096, 0, 0.96875, 0.28125
7097, 1, 0.953125, 0.28125
7098, 0.5, 0.96875, 0.28125
7099, 0, 0.953125, 0.28125
7100, 1, 0.96875, 0.265625
7101, 0, 0.96875, 0.265625
7102, 1, 0.96875, 0.3125
7103, 0, 0.96875, 0.3125
7104, 1, 0.953125, 0.3125
7105, 0.5, 0.96875, 0.3125
7106, 0, 0.953125, 0.3125
7107, 1, 0.96875, 0.296875
7108, 0, 0.96875, 0.296875
7109, 1, 0.96875, 0.34375
7110, 0, 0.96875, 0.34375
7111, 1, 0.953125, 0.34375
7112, 0.5, 0.96875, 0.34375
7113, 0, 0.953125, 0.34375
7114, 1, 0.96875, 0.328125
7115, 0, 0.96875, 0.328125
7116, 1, 0.96875, 0.375
7117, 0, 0.96875, 0.375
7118, 1, 0.953125, 0.375
7119, 0.5, 0.96875, 0.375
7120, 0, 0.953125, 0.375
7121, 1, 0.96875, 0.359375
7122, 0, 0.96875, 0.359375
7123, 1, 0.96875, 0.40625
7124, 0, 0.96875, 0.40625
7125, 1, 0.953125, 0.40625
7126, 0.5, 0.96875, 0.40625
7127, 0, 0.953125, 0.40625
7128, 1, 0.96875, 0.390625
7129, 0, 0.96875, 0.390625
7130, 1, 0.96875, 0.4375
7131, 0, 0.96875, 0.4375
7132, 1, 0.953125, 0.4375
7133, 0.5, 0.96875, 0.4375
7134, 0, 0.953125, 0.4375
7135, 1, 0.96875, 0.421875
7136, 0, 0.96875, 0.421875
7137, 1, 0.96875, 0.46875
7138, 0, 0.96875, 0.46875
7139, 1, 0.953125, 0.46875
7140, 0.5, 0.96875, 0.46875
7141, 0, 0.953125, 0.46875
7142, 1, 0.96875, 0.453125
7143, 0, 0.96875, 0.453125
7144, 1, 0.96875, 0.5
7145, 0, 0.96875, 0.5
7146, 1, 0.953125, 0.5
7147, 0.5, 0.96875, 0.5
7148, 0, 0.953125, 0.5
7149, 1, 0.96875, 0.484375
7150, 0, 0.96875, 0.484375
7151, 1, 0.96875, 0.53125
7152, 0, 0.96875, 0.53125
7153, 1, 0.953125, 0.53125
7154, 0.5, 0.96875, 0.53125
7155, 0, 0.953125, 0.53125
7156, 1, 0.96875, 0.515625
7157, 0, 0.96875, 0.515625
7158, 1, 0.96875, 0.5625
7159, 0, 0.96875, 0.5625
7160, 1, 0.953125, 0.5625
7161, 0.5, 0.96875, 0.5625
7162, 0, 0.953125, 0.5625
7163, 1, 0.96875, 0.546875
7164, 0, 0.96875, 0.546875
7165, 1, 0.96875, 0.59375
7166, 0, 0.96875, 0.59375
7167, 1, 0.953125, 0.59375
7168, 0.5, 0.96875, 0.59375
7169, 0, 0.953125, 0.59375
7170, 1, 0.96875, 0.578125
7171, 0, 0.96875, 0.578125
7172, 1, 0.96875, 0.625
7173, 0, 0.96875, 0.625
7174, 1, 0.953125, 0.625
7175, 0.5, 0.96875, 0.625
7176, 0, 0.953125, 0.625
7177, 1, 0.96875, 0.609375
7178, 0, 0.96875, 0.609375
7179, 1, 0.96875, 0.65625
7180, 0, 0.96875, 0.65625
7181, 1, 0.953125, 0.65625
7182, 0.5, 0.96875, 0.65625
7183, 0, 0.953125, 0.65625
7184, 1, 0.96875, 0.640625
7185, 0, 0.96875, 0.640625
7186, 1, 0.96875, 0.6875
7187, 0, 0.96875, 0.6875
7188, 1, 0.953125, 0.6875
7189, 0.5, 0.96875, 0.6875
7190, 0, 0.953125, 0.6875
7191, 1, 0.96875, 0.671875
7192, 0, 0.96875, 0.671875
7193, 1, 0.96875, 0.71875
7194, 0, 0.96875, 0.71875
7195, 1, 0.953125, 0.71875
7196, 0.5, 0.96875, 0.71875
7197, 0, 0.953125, 0.71875
7198, 1, 0.96875, 0.703125
7199, 0, 0.96875, 0.703125
7200, 1, 0.96875, 0.75
7201, 0, 0.96875, 0.75
7202, 1, 0.953125, 0.75
7203, 0.5, 0.96875, 0.75
7204, 0, 0.953125, 0.75
7205, 1, 0.96875, 0.734375
7206, 0, 0.96875, 0.734375
7207, 1, 0.96875, 0.78125
7208, 0, 0.96875, 0.78125
7209, 1, 0.953125, 0.78125
7210, 0.5, 0.96875, 0.78125
7211, 0, 0.953125, 0.78125
7212, 1, 0.96875, 0.765625
7213, 0, 0.96875, 0.765625
7214, 1, 0.96875, 0.8125
7215, 0, 0.96875, 0.8125
7216, 1, 0.953125, 0.8125
7217, 0.5, 0.96875, 0.8125
7218, 0, 0.953125, 0.8125
7219, 1, 0.96875, 0.796875
7220, 0, 0.96875, 0.796875
7221, 1, 0.96875, 0.84375
7222, 0, 0.96875, 0.84375
7223, 1, 0.953125, 0.84375
7224, 0.5, 0.96875, 0.84375
7225, 0, 0.953125, 0.84375
7226, 1, 0.96875, 0.828125
7227, 0, 0.96875, 0.828125
7228, 1, 0.96875, 0.875
7229, 0, 0.96875, 0.875
7230, 1, 0.953125, 0.875
7231, 0.5, 0.96875, 0.875
7232, 0, 0.953125, 0.875
7233, 1, 0.96875, 0.859375
7234, 0, 0.96875, 0.859375
7235, 1, 0.96875, 0.90625
7236, 0, 0.96875, 0.90625
7237, 1, 0.953125, 0.90625
7238, 0.5, 0.96875, 0.90625
7239, 0, 0.953125, 0.90625
7240, 1, 0.96875, 0.890625
7241, 0, 0.96875, 0.890625
7242, 1, 0.96875, 0.9375
7243, 0, 0.96875, 0.9375
7244, 1, 0.953125, 0.9375
7245, 0.5, 0.96875, 0.9375
7246, 0, 0.953125, 0.9375
7247, 1, 0.96875, 0.921875
7248, 0, 0.96875, 0.921875
7249, 1, 0.96875, 0.96875
7250, 0, 0.96875, 0.96875
7251, 1, 0.953125, 0.96875
7252, 0.5, 0.96875, 0.96875
7253, 0, 0.953125, 0.96875
7254, 1, 0.96875, 0.953125
7255, 0, 0.96875, 0.953125
7256, 1, 0.96875, 1
7257, 0, 0.96875, 1
7258, 1, 0.953125, 1
7259, 0.5, 0.96875, 1
7260, 0, 0.953125, 1
7261, 1, 0.96875, 0.984375
7262, 0, 0.96875, 0.984375
7263, 1, 1, 0
7264, 0, 1, 0
7265, 1, 1, 0.03125
7266, 0, 1, 0.03125
7267, 1, 0.984375, 0
7268, 0.5, 1, 0
7269, 0, 0.984375, 0
7270, 1, 0.984375, 0.03125
7271, 0.5, 1, 0.03125
7272, 0, 0.984375, 0.03125
7273, 1, 1, 0.015625
7274, 0, 1, 0.015625
7275, 1, 1, 0.0625
7276, 0, 1, 0.0625
7277, 1, 0.984375, 0.0625
7278, 0.5, 1, 0.0625
7279, 0, 0.984375, 0.0625
7280, 1, 1, 0.046875
7281, 0, 1, 0.046875
7282, 1, 1, 0.09375
7283, 0, 1, 0.09375
7284, 1, 0.984375, 0.09375
7285, 0.5, 1, 0.09375
7286, 0, 0.984375, 0.09375
7287, 1, 1, 0.078125
7288, 0, 1, 0.078125
7289, 1, 1, 0.125
7290, 0, 1, 0.125
7291, 1, 0.984375, 0.125
7292, 0.5, 1, 0.125
7293, 0, 0.984375, 0.125
7294, 1, 1, 0.109375
7295, 0, 1, 0.109375
7296, 1, 1, 0.15625
7297, 0, 1, 0.15625
7298, 1, 0.984375, 0.15625
7299, 0.5, 1, 0.15625
7300, 0, 0.984375, 0.15625
7301, 1, 1, 0.140625
7302, 0, 1, 0.140625
7303, 1, 1, 0.1875
7304, 0, 1, 0.1875
7305, 1, 0.984375, 0.1875
7306, 0.5, 1, 0.1875
7307, 0, 0.984375, 0.1875
7308, 1, 1, 0.171875
7309, 0, 1, 0.171875
7310, 1, 1, 0.21875
7311, 0, 1, 0.21875
7312, 1, 0.984375, 0.21875
7313, 0.5, 1, 0.21875
7314, 0, 0.984375, 0.21875
7315, 1, 1, 0.203125
7316, 0, 1, 0.203125
7317, 1, 1, 0.25
7318, 0, 1, 0.25
7319, 1, 0.984375, 0.25
7320, 0.5, 1, 0.25
7321, 0, 0.984375, 0.25
7322, 1, 1, 0.234375
7323, 0, 1, 0.234375
7324, 1, 1, 0.28125
7325, 0, 1, 0.28125
7326, 1, 0.984375, 0.28125
7327, 0.5, 1, 0.28125
7328, 0, 0.984375, 0.28125
7329, 1, 1, 0.265625
7330, 0, 1, 0.265625
7331, 1, 1, 0.3125
7332, 0, 1, 0.3125
7333, 1, 0.984375, 0.3125
7334, 0.5, 1, 0.3125
7335, 0, 0.984375, 0.3125
7336, 1, 1, 0.296875
7337, 0, 1, 0.296875
7338, 1, 1, 0.34375
7339, 0, 1, 0.34375
7340, 1, 0.984375, 0.34375
7341, 0.5, 1, 0.34375
7342, 0, 0.984375, 0.34375
7343, 1, 1, 0.328125
7344, 0, 1, 0.328125
7345, 1, 1, 0.375
7346, 0, 1, 0.375
7347, 1, 0.984375, 0.375
7348, 0.5, 1, 0.375
7349, 0, 0.984375, 0.375
7350, 1, 1, 0.359375
7351, 0, 1, 0.359375
7352, 1, 1, 0.40625
7353, 0, 1, 0.40625
7354, 1, 0.984375, 0.40625
7355, 0.5, 1, 0.40625
7356, 0, 0.984375, 0.40625
7357, 1, 1, 0.390625
7358, 0, 1, 0.390625
7359, 1, 1, 0.4375
7360, 0, 1, 0.4375
7361, 1, 0.984375, 0.4375
7362, 0.5, 1, 0.4375
7363, 0, 0.984375, 0.4375
7364, 1, 1, 0.421875
7365, 0, 1, 0.421875
7366, 1, 1, 0.46875
7367, 0, 1, 0.46875
7368, 1, 0.984375, 0.46875
7369, 0.5, 1, 0.46875
7370, 0, 0.984375, 0.46875
7371, 1, 1, 0.453125
7372, 0, 1, 0.453125
7373, 1, 1, 0.5
7374, 0, 1, 0.5
7375, 1, 0.984375, 0.5
7376, 0.5, 1, 0.5
7377, 0, 0.984375, 0.5
7378, 1, 1, 0.484375
7379, 0, 1, 0.484375
7380, 1, 1, 0.53125
7381, 0, 1, 0.53125
7382, 1, 0.984375, 0.53125
7383, 0.5, 1, 0.53125
7384, 0, 0.984375, 0.53125
7385, 1, 1, 0.515625
7386, 0, 1, 0.515625
7387, 1, 1, 0.5625
7388, 0, 1, 0.5625
7389, 1, 0.984375, 0.5625
7390, 0.5, 1, 0.5625
7391, 0, 0.984375, 0.5625
7392, 1, 1, 0.546875
7393, 0, 1, 0.546875
7394, 1, 1, 0.59375
7395, 0, 1, 0.59375
7396, 1, 0.984375, 0.59375
7397, 0.5, 1, 0.59375
7398, 0, 0.984375, 0.59375
7399, 1, 1, 0.578125
7400, 0, 1, 0.578125
7401, 1, 1, 0.625
7402, 0, 1, 0.625
7403, 1, 0.984375, 0.625
7404, 0.5, 1, 0.625
7405, 0, 0.984375, 0.625
7406, 1, 1, 0.609375
7407, 0, 1, 0.609375
7408, 1, 1, 0.65625
7409, 0, 1, 0.65625
7410, 1, 0.984375, 0.65625
7411, 0.5, 1, 0.65625
7412, 0, 0.984375, 0.65625
7413, 1, 1, 0.640625
7414, 0, 1, 0.640625
7415, 1, 1, 0.6875
7416, 0, 1, 0.6875
7417, 1, 0.984375, 0.6875
7418, 0.5, 1, 0.6875
7419, 0, 0.984375, 0.6875
7420, 1, 1, 0.671875
7421, 0, 1, 0.671875
7422, 1, 1, 0.71875
7423, 0, 1, 0.71875
7424, 1, 0.984375, 0.71875
7425, 0.5, 1, 0.71875
7426, 0, 0.984375, 0.71875
7427, 1, 1, 0.703125
7428, 0, 1, 0.703125
7429, 1, 1, 0.75
7430, 0, 1, 0.75
7431, 1, 0.984375, 0.75
7432, 0.5, 1, 0.75
7433, 0, 0.984375, 0.75
7434, 1, 1, 0.734375
7435, 0, 1, 0.734375
7436, 1, 1, 0.78125
7437, 0, 1, 0.78125
7438, 1, 0.984375, 0.78125
7439, 0.5, 1, 0.78125
7440, 0, 0.984375, 0.78125
7441, 1, 1, 0.765625
7442, 0, 1, 0.765625
7443, 1, 1, 0.8125
7444, 0, 1, 0.8125
7445, 1, 0.984375, 0.8125
7446, 0.5, 1, 0.8125
7447, 0, 0.984375, 0.8125
7448, 1, 1, 0.796875
7449, 0, 1, 0.796875
7450, 1, 1, 0.84375
7451, 0, 1, 0.84375
7452, 1, 0.984375, 0.84375
7453, 0.5, 1, 0.84375
7454, 0, 0.984375, 0.84375
7455, 1, 1, 0.828125
7456, 0, 1, 0.828125
7457, 1, 1, 0.875
7458, 0, 1, 0.875
7459, 1, 0.984375, 0.875
7460, 0.5, 1, 0.875
7461, 0, 0.984375, 0.875
7462, 1, 1, 0.859375
7463, 0, 1, 0.859375
7464, 1, 1, 0.90625
7465, 0, 1, 0.90625
7466, 1, 0.984375, 0.90625
7467, 0.5, 1, 0.90625
7468, 0, 0.984375, 0.90625
7469, 1, 1, 0.890625
7470, 0, 1, 0.890625
7471, 1, 1, 0.9375
7472, 0, 1, 0.9375
7473, 1, 0.984375, 0.9375
7474, 0.5, 1, 0.9375
7475, 0, 0.984375, 0.9375
7476, 1, 1, 0.921875
7477, 0, 1, 0.921875
7478, 1, 1, 0.96875
7479, 0, 1, 0.96875
7480, 1, 0.984375, 0.96875
7481, 0.5, 1, 0.96875
7482, 0, 0.984375, 0.96875
7483, 1, 1, 0.953125
7484, 0, 1, 0.953125
7485, 1, 1, 1
7486, 0, 1, 1
7487, 1, 0.984375, 1
7488, 0.5, 1, 1
7489, 0, 0.984375, 1
7490, 1, 1, 0.984375
7491, 0, 1, 0.984375
7492, 1, 0, 0
7493, 2, 0, 0
7494, 2, 1, 0
7495, 1, 1, 0
7496, 1, 0, 1
7497, 2, 0, 1
7498, 2, 1, 1
7499, 1, 1, 1
7500, 1.5, 0, 0
7501, 2, 0.5, 0
7502, 1.5, 1, 0
7503, 1, 0.5, 0
7504, 1.5, 0, 1
7505, 2, 0.5, 1
7506, 1.5, 1, 1
7507, 1, 0.5, 1
7508, 1, 0, 0.5
7509, 2, 0, 0.5
7510, 2, 1, 0.5
7511, 1, 1, 0.5
*Element, type=C3D20, elset=PRIMARY
1, 1, 2, 3, 4, 5, 6, 7, 8, 9, 10, 11, 12, 13, 14, 15, 16, 17, 18, 19, 20
2, 5, 6, 7, 8, 21, 22, 23, 24, 13, 14, 15, 16, 25, 26, 27, 28, 29, 30, 31, 32
3, 21, 22, 23, 24, 33, 34, 35, 36, 25, 26, 27, 28, 37, 38, 39, 40, 41, 42, 43, 44
4, 33, 34, 35, 36, 45, 46, 47, 48, 37, 38, 39, 40, 49, 50, 51, 52, 53, 54, 55, 56
5, 45, 46, 47, 48, 57, 58, 59, 60, 49, 50, 51, 52, 61, 62, 63, 64, 65, 66, 67, 68
6, 57, 58, 59, 60, 69, 70, 71, 72, 61, 62, 63, 64, 73, 74, 75, 76, 77, 78, 79, 80
7, 69, 70, 71, 72, 81, 82, 83, 84, 73, 74, 75, 76, 85, 86, 87, 88, 89, 90, 91, 92
8, 81, 82, 83, 84, 93, 94, 95, 96, 85, 86, 87, 88, 97, 98, 99, 100, 101, 102, 103, 104
9, 93, 94, 95, 96, 105, 106, 107, 108, 97, 98, 99, 100, 109, 110, 111, 112, 113, 114, 115, 116
10, 105, 106, 107, 108, 117, 118, 119, 120, 109, 110, 111, 112, 121, 122, 123, 124, 125, 126, 127, 128
11, 117, 118, 119, 120, 129, 130, 131, 132, 121, 122, 123, 124, 133, 134, 135, 136, 137, 138, 139, 140
12, 129, 130, 131, 132, 141, 142, 143, 144, 133, 134, 135, 136, 145, 146, 147, 148, 149, 150, 151, 152
13, 141, 142, 143, 144, 153, 154, 155, 156, 145, 146, 147, 148, 157, 158, 159, 160, 161, 162, 163, 164
14, 153, 154, 155, 156, 165, 166, 167, 168, 157, 158, 159, 160, 169, 170, 171, 172, 173, 174, 175, 176
15, 165, 166, 167, 168, 177, 178, 179, 180, 169, 170, 171, 172, 181, 182, 183, 184, 185, 186, 187, 188
16, 177, 178, 179, 180, 189, 190, 191, 192, 181, 182, 183, 184, 193, 194, 195, 196, 197, 198, 199, 200
17, 189, 190, 191, 192, 201, 202, 203, 204, 193, 194, 195, 196, 205, 206, 207, 208, 209, 210, 211, 212
18, 201, 202, 203, 204, 213, 214, 215, 216, 205, 206, 207, 208, 217, 218, 219, 220, 221, 222, 223, 224
19, 213, 214, 215, 216, 225, 226, 227, 228, 217, 218, 219, 220, 229, 230, 231, 232, 233, 234, 235, 236
20, 225, 226, 227, 228, 237, 238, 239, 240, 229, 230, 231, 232, 241, 242, 243, 244, 245, 246, 247, 248
21, 237, 238, 239, 240, 249, 250, 251, 252, 241, 242, 243, 244, 253, 254, 255, 256, 257, 258, 259, 260
22, 249, 250, 251, 252, 261, 262, 263, 264, 253, 254, 255, 256, 265, 266, 267, 268, 269, 270, 271, 272
23, 261, 262, 263, 264, 273, 274, 275, 276, 265, 266, 267, 268, 277, 278, 279, 280, 281, 282, 283, 284
24, 273, 274, 275, 276, 285, 286, 287, 288, 277, 278, 279, 280, 289, 290, 291, 292, 293, 294, 295, 296
25, 285, 286, 287, 288, 297, 298, 299, 300, 289, 290, 291, 292, 301, 302, 303, 304, 305, 306, 307, 308
26, 297, 298, 299, 300, 309, 310, 311, 312, 301, 302, 303, 304, 313, 314, 315, 316, 317, 318, 319, 320
27, 309, 310, 311, 312, 321, 322, 323, 324, 313, 314, 315, 316, 325, 326, 327, 328, 329, 330, 331, 332
28, 321, 322, 323, 324, 333, 334, 335, 336, 325, 326, 327, 328, 337, 338, 339, 340, 341, 342, 343, 344
29, 333, 334, 335, 336, 345, 346, 347, 348, 337, 338, 339, 340, 349, 350, 351, 352, 353, 354, 355, 356
30, 345, 346, 347, 348, 357, 358, 359, 360, 349, 350, 351, 352, 361, 362, 363, 364, 365, 366, 367, 368
31, 357, 358, 359, 360, 369, 370, 371, 372, 361, 362, 363, 364, 373, 374, 375, 376, 377, 378, 379, 380
32, 369, 370, 371, 372, 381, 382, 383, 384, 373, 374, 375, 376, 385, 386, 387, 388, 389, 390, 391, 392
33, 4, 3, 393, 394, 8, 7, 395, 396, 11, 397, 398, 399, 15, 400, 401, 402, 20, 19, 403, 404
34, 8, 7, 395, 396, 24, 23, 405, 406, 15, 400, 401, 402, 27, 407, 408, 409, 32, 31, 410, 411
35, 24, 23, 405, 406, 36, 35, 412, 413, 27, 407, 408, 409, 39, 414, 415, 416, 44, 43, 417, 418
36, 36, 35, 412, 413, 48, 47, 419, 420, 39, 414, 415, 416, 51, 421, 422, 423, 56, 55, 424, 425
37, 48, 47, 419, 420, 60, 59, 426, 427, 51, 421, 422, 423, 63, 428, 429, 430, 68, 67, 431, 432
38, 60, 59, 426, 427, 72, 71, 433, 434, 63, 428, 429, 430, 75, 435, 436, 437, 80, 79, 438, 439
39, 72, 71, 433, 434, 84, 83, 440, 441, 75, 435, 436, 437, 87, 442, 443, 444, 92, 91, 445, 446
40, 84, 83, 440, 441, 96, 95, 447, 448, 87, 442, 443, 444, 99, 449, 450, 451, 104, 103, 452, 453
41, 96, 95, 447, 448, 108, 107, 454, 455, 99, 449, 450, 451, 111, 456, 457, 458, 116, 115, 459, 460
42, 108, 107, 454, 455, 120, 119, 461, 462, 111, 456, 457, 458, 123, 463, 464, 465, 128, 127, 466, 467
43, 120, 119, 461, 462, 132, 131, 468, 469, 123, 463, 464, 465, 135, 470, 471, 472, 140, 139, 473, 474
44, 132, 131, 468, 469, 144, 143, 475, 476, 135, 470, 471, 472, 147, 477, 478, 479, 152, 151, 480, 481
45, 144, 143, 475, 476, 156, 155, 482, 483, 147, 477, 478, 479, 159, 484, 485, 486, 164, 163, 487, 488
46, 156, 155, 482, 483, 168, 167, 489, 490, 159, 484, 485, 486, 171, 491, 492, 493, 176, 175, 494, 495
47, 168, 167, 489, 490, 180, 179, 496, 497, 171, 491, 492, 493, 183, 498, 499, 500, 188, 187, 501, 502
48, 180, 179, 496, 497, 192, 191, 503, 504, 183, 498, 499, 500, 195, 505, 506, 507, 200, 199, 508, 509
49, 192, 191, 503, 504, 204, 203, 510, 511, 195, 505, 506, 507, 207, 512, 513, 514, 212, 211, 515, 516
50, 204, 203, 510, 511, 216, 215, 517, 518, 207, 512, 513, 514, 219, 519, 520, 521, 224, 223, 522, 523
51, 216, 215, 517, 518, 228, 227, 524, 525, 219, 519, 520, 521, 231, 526, 527, 528, 236, 235, 529, 530
52, 228, 227, 524, 525, 240, 239, 531, 532, 231, 526, 527, 528, 243, 533, 534, 535, 248, 247, 536, 537
53, 240, 239, 531, 532, 252, 251, 538, 539, 243, 533, 534, 535, 255, 540, 541, 542, 260, 259, 543, 544
54, 252, 251, 538, 539, 264, 263, 545, 546, 255, 540, 541, 542, 267, 547, 548, 549, 272, 271, 550, 551
55, 264, 263, 545, 546, 276, 275, 552, 553, 267, 547, 548, 549, 279, 554, 555, 556, 284, 283, 557, 558
56, 276, 275, 552, 553, 288, 287, 559, 560, 279, 554, 555, 556, 291, 561, 562, 563, 296, 295, 564, 565
57, 288, 287, 559, 560, 300, 299, 566, 567, 291, 561, 562, 563, 303, 568, 569, 570, 308, 307, 571, 572
58, 300, 299, 566, 567, 312, 311, 573, 574, 303, 568, 569, 570, 315, 575, 576, 577, 320, 319, 578, 579
59, 312, 311, 573, 574, 324, 323, 580, 581, 315, 575, 576, 577, 327, 582, 583, 584, 332, 331, 585, 586
60, 324, 323, 580, 581, 336, 335, 587, 588, 327, 582, 583, 584, 339, 589, 590, 591, 344, 343, 592, 593
61, 336, 335, 587, 588, 348, 347, 594, 595, 339, 589, 590, 591, 351, 596, 597, 598, 356, 355, 599, 600
62, 348, 347, 594, 595, 360, 359, 601, 602, 351, 596, 597, 598, 363, 603, 604, 605, 368, 367, 606, 607
63, 360, 359, 601, 602, 372, 371, 608, 609, 363, 603, 604, 605, 375, 610, 611, 612, 380, 379, 613, 614
64, 372, 371, 608, 609, 384, 383, 615, 616, 375, 610, 611, 612, 387, 617, 618, 619, 392, 391, 620, 621
65, 394, 393, 622, 623, 396, 395, 624, 625, 398, 626, 627, 628, 401, 629, 630, 631, 404, 403, 632, 633
66, 396, 395, 624, 625, 406, 405, 634, 635, 401, 629, 630, 631, 408, 636, 637, 638, 411, 410, 639, 640
67, 406, 405, 634, 635, 413, 412, 641, 642, 408, 636, 637, 638, 415, 643, 644, 645, 418, 417, 646, 647
68, 413, 412, 641, 642, 420, 419, 648, 649, 415, 643, 644, 645, 422, 650, 651, 652, 425, 424, 653, 654
69, 420, 419, 648, 649, 427, 426, 655, 656, 422, 650, 651, 652, 429, 657, 658, 659, 432, 431, 660, 661
70, 427, 426, 655, 656, 434, 433, 662, 663, 429, 657, 658, 659, 436, 664, 665, 666, 439, 438, 667, 668
71, 434, 433, 662, 663, 441, 440, 669, 670, 436, 664, 665, 666, 443, 671, 672, 673, 446, 445, 674, 675
72, 441, 440, 669, 670, 448, 447, 676, 677, 443, 671, 672, 673, 450, 678, 679, 680, 453, 452, 681, 682
73, 448, 447, 676, 677, 455, 454, 683, 684, 450, 678, 679, 680, 457, 685, 686, 687, 460, 459, 688, 689
74, 455, 454, 683, 684, 462, 461, 690, 691, 457, 685, 686, 687, 464, 692, 693, 694, 467, 466, 695, 696
75, 462, 461, 690, 691, 469, 468, 697, 698, 464, 692, 693, 694, 471, 699, 700, 701, 474, 473, 702, 703
76, 469, 468, 697, 698, 476, 475, 704, 705, 471, 699, 700, 701, 478, 706, 707, 708, 481, 480, 709, 710
77, 476, 475, 704, 705, 483, 482, 711, 712, 478, 706, 707, 708, 485, 713, 714, 715, 488, 487, 716, 717
78, 483, 482, 711, 712, 490, 489, 718, 719, 485, 713, 714, 715, 492, 720, 721, 722, 495, 494, 723, 724
79, 490, 489, 718, 719, 497, 496, 725, 726, 492, 720, 721, 722, 499, 727, 728, 729, 502, 501, 730, 731
80, 497, 496, 725, 726, 504, 503, 732, 733, 499, 727, 728, 729, 506, 734, 735, 736, 509, 508, 737, 738
81, 504, 503, 732, 733, 511, 510, 739, 740, 506, 734, 735, 736, 513, 741, 742, 743, 516, 515, 744, 745
82, 511, 510, 739, 740, 518, 517, 746, 747, 513, 741, 742, 743, 520, 748, 749, 750, 523, 522, 751, 752
83, 518, 517, 746, 747, 525, 524, 753, 754, 520, 748, 749, 750, 527, 755, 756, 757, 530, 529, 758, 759
84, 525, 524, 753, 754, 532, 531, 760, 761, 527, 755, 756, 757, 534, 762, 763, 764, 537, 536, 765, 766
85, 532, 531, 760, 761, 539, 538, 767, 768, 534, 762, 763, 764, 541, 769, 770, 771, 544, 543, 772, 773
86, 539, 538, 767, 768, 546, 545, 774, 775, 541, 769, 770, 771, 548, 776, 777, 778, 551, 550, 779, 780
87, 546, 545, 774, 775, 553, 552, 781, 782, 548, 776, 777, 778, 555, 783, 784, 785, 558, 557, 786, 787
88, 553, 552, 781, 782, 560, 559, 788, 789, 555, 783, 784, 785, 562, 790, 791, 792, 565, 564, 793, 794
89, 560, 559, 788, 789, 567, 566, 795, 796, 562, 790, 791, 792, 569, 797, 798, 799, 572, 571, 800, 801
90, 567, 566, 795, 796, 574, 573, 802, 803, 569, 797, 798, 799, 576, 804, 805, 806, 579, 578, 807, 808
91, 574, 573, 802, 803, 581, 580, 809, 810, 576, 804, 805, 806, 583, 811, 812, 813, 586, 585, 814, 815
92, 581, 580, 809, 810, 588, 587, 816, 817, 583, 811, 812, 813, 590, 818, 819, 820, 593, 592, 821, 822
93, 588, 587, 816, 817, 595, 594, 823, 824, 590, 818, 819, 820, 597, 825, 826, 827, 600, 599, 828, 829
94, 595, 594, 823, 824, 602, 601, 830, 831, 597, 825, 826, 827, 604, 832, 833, 834, 607, 606, 835, 836
95, 602, 601, 830, 831, 609, 608, 837, 838, 604, 832, 833, 834, 611, 839, 840, 841, 614, 613, 842, 843
96, 609, 608, 837, 838, 616, 615, 844, 845, 611, 839, 840, 841, 618, 846, 847, 848, 621, 620, 849, 850
97, 623, 622, 851, 852, 625, 624, 853, 854, 627, 855, 856, 857, 630, 858, 859, 860, 633, 632, 861, 862
98, 625, 624, 853, 854, 635, 634, 863, 864, 630, 858, 859, 860, 637, 865, 866, 867, 640, 639, 868, 869
99, 635, 634, 863, 864, 642, 641, 870, 871, 637, 865, 866, 867, 644, 872, 873, 874, 647, 646, 875, 876
100, 642, 641, 870, 871, 649, 648, 877, 878, 644, 872, 873, 874, 651, 879, 880, 881, 654, 653, 882, 883
101, 649, 648, 877, 878, 656, 655, 884, 885, 651, 879, 880, 881, 658, 886, 887, 888, 661, 660, 889, 890
102, 656, 655, 884, 885, 663, 662, 891, 892, 658, 886, 887, 888, 665, 893, 894, 895, 668, 667, 896, 897
103, 663, 662, 891, 892, 670, 669, 898, 899, 665, 893, 894, 895, 672, 900, 901, 902, 675, 674, 903, 904
104, 670, 669, 898, 899, 677, 676, 905, 906, 672, 900, 901, 902, 679, 907, 908, 909, 682, 681, 910, 911
105, 677, 676, 905, 906, 684, 683, 912, 913, 679, 907, 908, 909, 686, 914, 915, 916, 689, 688, 917, 918
106, 684, 683, 912, 913, 691, 690, 919, 920, 686, 914, 915, 916, 693, 921, 922, 923, 696, 695, 924, 925
107, 691, 690, 919, 920, 698, 697, 926, 927, 693, 921, 922, 923, 700, 928, 929, 930, 703, 702, 931, 932
108, 698, 697, 926, 927, 705, 704, 933, 934, 700, 928, 929, 930, 707, 935, 936, 937, 710, 709, 938, 939
109, 705, 704, 933, 934, 712, 711, 940, 941, 707, 935, 936, 937, 714, 942, 943, 944, 717, 716, 945, 946
110, 712, 711, 940, 941, 719, 718, 947, 948, 714, 942, 943, 944, 721, 949, 950, 951, 724, 723, 952, 953
111, 719, 718, 947, 948, 726, 725, 954, 955, 721, 949, 950, 951, 728, 956, 957, 958, 731, 730, 959, 960
112, 726, 725, 954, 955, 733, 732, 961, 962, 728, 956, 957, 958, 735, 963, 964, 965, 738, 737, 966, 967
113, 733, 732, 961, 962, 740, 739, 968, 969, 735, 963, 964, 965, 742, 970, 971, 972, 745, 744, 973, 974
114, 740, 739, 968, 969, 747, 746, 975, 976, 742, 970, 971, 972, 749, 977, 978, 979, 752, 751, 980, 981
115, 747, 746, 975, 976, 754, 753, 982, 983, 749, 977, 978, 979, 756, 984, 985, 986, 759, 758, 987, 988
116, 754, 753, 982, 983, 761, 760, 989, 990, 756, 984, 985, 986, 763, 991, 992, 993, 766, 765, 994, 995
117, 761, 760, 989, 990, 768, 767, 996, 997, 763, 991, 992, 993, 770, 998, 999, 1000, 773, 772, 1001, 1002
118, 768, 767, 996, 997, 775, 774, 1003, 1004, 770, 998, 999, 1000, 777, 1005, 1006, 1007, 780, 779, 1008, 1009
119, 775, 774, 1003, 1004, 782, 781, 1010, 1011, 777, 1005, 1006, 1007, 784, 1012, 1013, 1014, 787, 786, 1015, 1016
120, 782, 781, 1010, 1011, 789, 788, 1017, 1018, 784, 1012, 1013, 1014, 791, 1019, 1020, 1021, 794, 793, 1022, 1023
121, 789, 788, 1017, 1018, 796, 795, 1024, 1025, 791, 1019, 1020, 1021, 798, 1026, 1027, 1028, 801, 800, 1029, 1030
122, 796, 795, 1024, 1025, 803, 802, 1031, 1032, 798, 1026, 1027, 1028, 805, 1033, 1034, 1035, 808, 807, 1036, 1037
123, 803, 802, 1031, 1032, 810, 809, 1038, 1039, 805, 1033, 1034, 1035, 812, 1040, 1041, 1042, 815, 814, 1043, 1044
124, 810, 809, 1038, 1039, 817, 816, 1045, 1046, 812, 1040, 1041, 1042, 819, 1047, 1048, 1049, 822, 821, 1050, 1051
125, 817, 816, 1045, 1046, 824, 823, 1052, 1053, 819, 1047, 1048, 1049, 826, 1054, 1055, 1056, 829, 828, 1057, 1058
126, 824, 823, 1052, 1053, 831, 830, 1059, 1060, 826, 1054, 1055, 1056, 833, 1061, 1062, 1063, 836, 835, 1064, 1065
127, 831, 830, 1059, 1060, 838, 837, 1066, 1067, 833, 1061, 1062, 1063, 840, 1068, 1069, 1070, 843, 842, 1071, 1072
128, 838, 837, 1066, 1067, 845, 844, 1073, 1074, 840, 1068, 1069, 1070, 847, 1075, 1076, 1077, 850, 849, 1078, 1079
129, 852, 851, 1080, 1081, 854, 853, 1082, 1083, 856, 1084, 1085, 1086, 859, 1087, 1088, 1089, 862, 861, 1090, 1091
130, 854, 853, 1082, 1083, 864, 863, 1092, 1093, 859, 1087, 1088, 1089, 866, 1094, 1095, 1096, 869, 868, 1097, 1098
131, 864, 863, 1092, 1093, 871, 870, 1099, 1100, 866, 1094, 1095, 1096, 873, 1101, 1102, 1103, 876, 875, 1104, 1105
132, 871, 870, 1099, 1100, 878, 877, 1106, 1107, 873, 1101, 1102, 1103, 880, 1108, 1109, 1110, 883, 882, 1111, 1112
133, 878, 877, 1106, 1107, 885, 884, 1113, 1114, 880, 1108, 1109, 1110, 887, 1115, 1116, 1117, 890, 889, 1118, 1119
134, 885, 884, 1113, 1114, 892, 891, 1120, 1121, 887, 1115, 1116, 1117, 894, 1122, 1123, 1124, 897, 896, 1125, 1126
135, 892, 891, 1120, 1121, 899, 898, 1127, 1128, 894, 1122, 1123, 1124, 901, 1129, 1130, 1131, 904, 903, 1132, 1133
136, 899, 898, 1127, 1128, 906, 905, 1134, 1135, 901, 1129, 1130, 1131, 908, 1136, 1137, 1138, 911, 910, 1139, 1140
137, 906, 905, 1134, 1135, 913, 912, 1141, 1142, 908, 1136, 1137, 1138, 915, 1143, 1144, 1145, 918, 917, 1146, 1147
138, 913, 912, 1141, 1142, 920, 919, 1148, 1149, 915, 1143, 1144, 1145, 922, 1150, 1151, 1152, 925, 924, 1153, 1154
139, 920, 919, 1148, 1149, 927, 926, 1155, 1156, 922, 1150, 1151, 1152, 929, 1157, 1158, 1159, 932, 931, 1160, 1161
140, 927, 926, 1155, 1156, 934, 933, 1162, 1163, 929, 1157, 1158, 1159, 936, 1164, 1165, 1166, 939, 938, 1167, 1168
141, 934, 933, 1162, 1163, 941, 940, 1169, 1170, 936, 1164, 1165, 1166, 943, 1171, 1172, 1173, 946, 945, 1174, 1175
142, 941, 940, 1169, 1170, 948, 947, 1176, 1177, 943, 1171, 1172, 1173, 950, 1178, 1179, 1180, 953, 952, 1181, 1182
143, 948, 947, 1176, 1177, 955, 954, 1183, 1184, 950, 1178, 1179, 1180, 957, 1185, 1186, 1187, 960, 959, 1188, 1189
144, 955, 954, 1183, 1184, 962, 961, 1190, 1191, 957, 1185, 1186, 1187, 964, 1192, 1193, 1194, 967, 966, 1195, 1196
145, 962, 961, 1190, 1191, 969, 968, 1197, 1198, 964, 1192, 1193, 1194, 971, 1199, 1200, 1201, 974, 973, 1202, 1203
146, 969, 968, 1197, 1198, 976, 975, 1204, 1205, 971, 1199, 1200, 1201, 978, 1206, 1207, 1208, 981, 980, 1209, 1210
147, 976, 975, 1204, 1205, 983, 982, 1211, 1212, 978, 1206, 1207, 1208, 985, 1213, 1214, 1215, 988, 987, 1216, 1217
148, 983, 982, 1211, 1212, 990, 989, 1218, 1219, 985, 1213, 1214, 1215, 992, 1220, 1221, 1222, 995, 994, 1223, 1224
149, 990, 989, 1218, 1219, 997, 996, 1225, 1226, 992, 1220, 1221, 1222, 999, 1227, 1228, 1229, 1002, 1001, 1230, 1231
150, 997, 996, 1225, 1226, 1004, 1003, 1232, 1233, 999, 1227, 1228, 1229, 1006, 1234, 1235, 1236, 1009, 1008, 1237, 1238
151, 1004, 1003, 1232, 1233, 1011, 1010, 1239, 1240, 1006, 1234, 1235, 1236, 1013, 1241, 1242, 1243, 1016, 1015, 1244, 1245
152, 1011, 1010, 1239, 1240, 1018, 1017, 1246, 1247, 1013, 1241, 1242, 1243, 1020, 1248, 1249, 1250, 1023, 1022, 1251, 1252
153, 1018, 1017, 1246, 1247, 1025, 1024, 1253, 1254, 1020, 1248, 1249, 1250, 1027, 1255, 1256, 1257, 1030, 1029, 1258, 1259
154, 1025, 1024, 1253, 1254, 1032, 1031, 1260, 1261, 1027, 1255, 1256, 1257, 1034, 1262, 1263, 1264, 1037, 1036, 1265, 1266
155, 1032, 1031, 1260, 1261, 1039, 1038, 1267, 1268, 1034, 1262, 1263, 1264, 1041, 1269, 1270, 1271, 1044, 1043, 1272, 1273
156, 1039, 1038, 1267, 1268, 1046, 1045, 1274, 1275, 1041, 1269, 1270, 1271, 1048, 1276, 1277, 1278, 1051, 1050, 1279, 1280
157, 1046, 1045, 1274, 1275, 1053, 1052, 1281, 1282, 1048, 1276, 1277, 1278, 1055, 1283, 1284, 1285, 1058, 1057, 1286, 1287
158, 1053, 1052, 1281, 1282, 1060, 1059, 1288, 1289, 1055, 1283, 1284, 1285, 1062, 1290, 1291, 1292, 1065, 1064, 1293, 1294
159, 1060, 1059, 1288, 1289, 1067, 1066, 1295, 1296, 1062, 1290, 1291, 1292, 1069, 1297, 1298, 1299, 1072, 1071, 1300, 1301
160, 1067, 1066, 1295, 1296, 1074, 1073, 1302, 1303, 1069, 1297, 1298, 1299, 1076, 1304, 1305, 1306, 1079, 1078, 1307, 1308
161, 1081, 1080, 1309, 1310, 1083, 1082, 1311, 1312, 1085, 1313, 1314, 1315, 1088, 1316, 1317, 1318, 1091, 1090, 1319, 1320
162, 1083, 1082, 1311, 1312, 1093, 1092, 1321, 1322, 1088, 1316, 1317, 1318, 1095, 1323, 1324, 1325, 1098, 1097, 1326, 1327
163, 1093, 1092, 1321, 1322, 1100, 1099, 1328, 1329, 1095, 1323, 1324, 1325, 1102, 1330, 1331, 1332, 1105, 1104, 1333, 1334
164, 1100, 1099, 1328, 1329, 1107, 1106, 1335, 1336, 1102, 1330, 1331, 1332, 1109, 1337, 1338, 1339, 1112, 1111, 1340, 1341
165, 1107, 1106, 1335, 1336, 1114, 1113, 1342, 1343, 1109, 1337, 1338, 1339, 1116, 1344, 1345, 1346, 1119, 1118, 1347, 1348
166, 1114, 1113, 1342, 1343, 1121, 1120, 1349, 1350, 1116, 1344, 1345, 1346, 1123, 1351, 1352, 1353, 1126, 1125, 1354, 1355
167, 1121, 1120, 1349, 1350, 1128, 1127, 1356, 1357, 1123, 1351, 1352, 1353, 1130, 1358, 1359, 1360, 1133, 1132, 1361, 1362
168, 1128, 1127, 1356, 1357, 1135, 1134, 1363, 1364, 1130, 1358, 1359, 1360, 1137, 1365, 1366, 1367, 1140, 1139, 1368, 1369
169, 1135, 1134, 1363, 1364, 1142, 1141, 1370, 1371, 1137, 1365, 1366, 1367, 1144, 1372, 1373, 1374, 1147, 1146, 1375, 1376
170, 1142, 1141, 1370, 1371, 1149, 1148, 1377, 1378, 1144, 1372, 1373, 1374, 1151, 1379, 1380, 1381, 1154, 1153, 1382, 1383
171, 1149, 1148, 1377, 1378, 1156, 1155, 1384, 1385, 1151, 1379, 1380, 1381, 1158, 1386, 1387, 1388, 1161, 1160, 1389, 1390
172, 1156, 1155, 1384, 1385, 1163, 1162, 1391, 1392, 1158, 1386, 1387, 1388, 1165, 1393, 1394, 1395, 1168, 1167, 1396, 1397
173, 1163, 1162, 1391, 1392, 1170, 1169, 1398, 1399, 1165, 1393, 1394, 1395, 1172, 1400, 1401, 1402, 1175, 1174, 1403, 1404
174, 1170, 1169, 1398, 1399, 1177, 1176, 1405, 1406, 1172, 1400, 1401, 1402, 1179, 1407, 1408, 1409, 1182, 1181, 1410, 1411
175, 1177, 1176, 1405, 1406, 1184, 1183, 1412, 1413, 1179, 1407, 1408, 1409, 1186, 1414, 1415, 1416, 1189, 1188, 1417, 1418
176, 1184, 1183, 1412, 1413, 1191, 1190, 1419, 1420, 1186, 1414, 1415, 1416, 1193, 1421, 1422, 1423, 1196, 1195, 1424, 1425
177, 1191, 1190, 1419, 1420, 1198, 1197, 1426, 1427, 1193, 1421, 1422, 1423, 1200, 1428, 1429, 1430, 1203, 1202, 1431, 1432
178, 1198, 1197, 1426, 1427, 1205, 1204, 1433, 1434, 1200, 1428, 1429, 1430, 1207, 1435, 1436, 1437, 1210, 1209, 1438, 1439
179, 1205, 1204, 1433, 1434, 1212, 1211, 1440, 1441, 1207, 1435, 1436, 1437, 1214, 1442, 1443, 1444, 1217, 1216, 1445, 1446
180, 1212, 1211, 1440, 1441, 1219, 1218, 1447, 1448, 1214, 1442, 1443, 1444, 1221, 1449, 1450, 1451, 1224, 1223, 1452, 1453
181, 1219, 1218, 1447, 1448, 1226, 1225, 1454, 1455, 1221, 1449, 1450, 1451, 1228, 1456, 1457, 1458, 1231, 1230, 1459, 1460
182, 1226, 1225, 1454, 1455, 1233, 1232, 1461, 1462, 1228, 1456, 1457, 1458, 1235, 1463, 1464, 1465, 1238, 1237, 1466, 1467
183, 1233, 1232, 1461, 1462, 1240, 1239, 1468, 1469, 1235, 1463, 1464, 1465, 1242, 1470, 1471, 1472, 1245, 1244, 1473, 1474
184, 1240, 1239, 1468, 1469, 1247, 1246, 1475, 1476, 1242, 1470, 1471, 1472, 1249, 1477, 1478, 1479, 1252, 1251, 1480, 1481
185, 1247, 1246, 1475, 1476, 1254, 1253, 1482, 1483, 1249, 1477, 1478, 1479, 1256, 1484, 1485, 1486, 1259, 1258, 1487, 1488
186, 1254, 1253, 1482, 1483, 1261, 1260, 1489, 1490, 1256, 1484, 1485, 1486, 1263, 1491, 1492, 1493, 1266, 1265, 1494, 1495
187, 1261, 1260, 1489, 1490, 1268, 1267, 1496, 1497, 1263, 1491, 1492, 1493, 1270, 1498, 1499, 1500, 1273, 1272, 1501, 1502
188, 1268, 1267, 1496, 1497, 1275, 1274, 1503, 1504, 1270, 1498, 1499, 1500, 1277, 1505, 1506, 1507, 1280, 1279, 1508, 1509
189, 1275, 1274, 1503, 1504, 1282, 1281, 1510, 1511, 1277, 1505, 1506, 1507, 1284, 1512, 1513, 1514, 1287, 1286, 1515, 1516
190, 1282, 1281, 1510, 1511, 1289, 1288, 1517, 1518, 1284, 1512, 1513, 1514, 1291, 1519, 1520, 1521, 1294, 1293, 1522, 1523
191, 1289, 1288, 1517, 1518, 1296, 1295, 1524, 1525, 1291, 1519, 1520, 1521, 1298, 1526, 1527, 1528, 1301, 1300, 1529, 1530
192, 1296, 1295, 1524, 1525, 1303, 1302, 1531, 1532, 1298, 1526, 1527, 1528, 1305, 1533, 1534, 1535, 1308, 1307, 1536, 1537
193, 1310, 1309, 1538, 1539, 1312, 1311, 1540, 1541, 1314, 1542, 1543, 1544, 1317, 1545, 1546, 1547, 1320, 1319, 1548, 1549
194, 1312, 1311, 1540, 1541, 1322, 1321, 1550, 1551, 1317, 1545, 1546, 1547, 1324, 1552, 1553, 1554, 1327, 1326, 1555, 1556
195, 1322, 1321, 1550, 1551, 1329, 1328, 1557, 1558, 1324, 1552, 1553, 1554, 1331, 1559, 1560, 1561, 1334, 1333, 1562, 1563
196, 1329, 1328, 1557, 1558, 1336, 1335, 1564, 1565, 1331, 1559, 1560, 1561, 1338, 1566, 1567, 1568, 1341, 1340, 1569, 1570
197, 1336, 1335, 1564, 1565, 1343, 1342, 1571, 1572, 1338, 1566, 1567, 1568, 1345, 1573, 1574, 1575, 1348, 1347, 1576, 1577
198, 1343, 1342, 1571, 1572, 1350, 1349, 1578, 1579, 1345, 1573, 1574, 1575, 1352, 1580, 1581, 1582, 1355, 1354, 1583, 1584
199, 1350, 1349, 1578, 1579, 1357, 1356, 1585, 1586, 1352, 1580, 1581, 1582, 1359, 1587, 1588, 1589, 1362, 1361, 1590, 1591
200, 1357, 1356, 1585, 1586, 1364, 1363, 1592, 1593, 1359, 1587, 1588, 1589, 1366, 1594, 1595, 1596, 1369, 1368, 1597, 1598
201, 1364, 1363, 1592, 1593, 1371, 1370, 1599, 1600, 1366, 1594, 1595, 1596, 1373, 1601, 1602, 1603, 1376, 1375, 1604, 1605
202, 1371, 1370, 1599, 1600, 1378, 1377, 1606, 1607, 1373, 1601, 1602, 1603, 1380, 1608, 1609, 1610, 1383, 1382, 1611, 1612
203, 1378, 1377, 1606, 1607, 1385, 1384, 1613, 1614, 1380, 1608, 1609, 1610, 1387, 1615, 1616, 1617, 1390, 1389, 1618, 1619
204, 1385, 1384, 1613, 1614, 1392, 1391, 1620, 1621, 1387, 1615, 1616, 1617, 1394, 1622, 1623, 1624, 1397, 1396, 1625, 1626
205, 1392, 1391, 1620, 1621, 1399, 1398, 1627, 1628, 1394, 1622, 1623, 1624, 1401, 1629, 1630, 1631, 1404, 1403, 1632, 1633
206, 1399, 1398, 1627, 1628, 1406, 1405, 1634, 1635, 1401, 1629, 1630, 1631, 1408, 1636, 1637, 1638, 1411, 1410, 1639, 1640
207, 1406, 1405, 1634, 1635, 1413, 1412, 1641, 1642, 1408, 1636, 1637, 1638, 1415, 1643, 1644, 1645, 1418, 1417, 1646, 1647
208, 1413, 1412, 1641, 1642, 1420, 1419, 1648, 1649, 1415, 1643, 1644, 1645, 1422, 1650, 1651, 1652, 1425, 1424, 1653, 1654
209, 1420, 1419, 1648, 1649, 1427, 1426, 1655, 1656, 1422, 1650, 1651, 1652, 1429, 1657, 1658, 1659, 1432, 1431, 1660, 1661
210, 1427, 1426, 1655, 1656, 1434, 1433, 1662, 1663, 1429, 1657, 1658, 1659, 1436, 1664, 1665, 1666, 1439, 1438, 1667, 1668
211, 1434, 1433, 1662, 1663, 1441, 1440, 1669, 1670, 1436, 1664, 1665, 1666, 1443, 1671, 1672, 1673, 1446, 1445, 1674, 1675
212, 1441, 1440, 1669, 1670, 1448, 1447, 1676, 1677, 1443, 1671, 1672, 1673, 1450, 1678, 1679, 1680, 1453, 1452, 1681, 1682
213, 1448, 1447, 1676, 1677, 1455, 1454, 1683, 1684, 1450, 1678, 1679, 1680, 1457, 1685, 1686, 1687, 1460, 1459, 1688, 1689
214, 1455, 1454, 1683, 1684, 1462, 1461, 1690, 1691, 1457, 1685, 1686, 1687, 1464, 1692, 1693, 1694, 1467, 1466, 1695, 1696
215, 1462, 1461, 1690, 1691, 1469, 1468, 1697, 1698, 1464, 1692, 1693, 1694, 1471, 1699, 1700, 1701, 1474, 1473, 1702, 1703
216, 1469, 1468, 1697, 1698, 1476, 1475, 1704, 1705, 1471, 1699, 1700, 1701, 1478, 1706, 1707, 1708, 1481, 1480, 1709, 1710
217, 1476, 1475, 1704, 1705, 1483, 1482, 1711, 1712, 1478, 1706, 1707, 1708, 1485, 1713, 1714, 1715, 1488, 1487, 1716, 1717
218, 1483, 1482, 1711, 1712, 1490, 1489, 1718, 1719, 1485, 1713, 1714, 1715, 1492, 1720, 1721, 1722, 1495, 1494, 1723, 1724
219, 1490, 1489, 1718, 1719, 1497, 1496, 1725, 1726, 1492, 1720, 1721, 1722, 1499, 1727, 1728, 1729, 1502, 1501, 1730, 1731
220, 1497, 1496, 1725, 1726, 1504, 1503, 1732, 1733, 1499, 1727, 1728, 1729, 1506, 1734, 1735, 1736, 1509, 1508, 1737, 1738
221, 1504, 1503, 1732, 1733, 1511, 1510, 1739, 1740, 1506, 1734, 1735, 1736, 1513, 1741, 1742, 1743, 1516, 1515, 1744, 1745
222, 1511, 1510, 1739, 1740, 1518, 1517, 1746, 1747, 1513, 1741, 1742, 1743, 1520, 1748, 1749, 1750, 1523, 1522, 1751, 1752
223, 1518, 1517, 1746, 1747, 1525, 1524, 1753, 1754, 1520, 1748, 1749, 1750, 1527, 1755, 1756, 1757, 1530, 1529, 1758, 1759
224, 1525, 1524, 1753, 1754, 1532, 1531, 1760, 1761, 1527, 1755, 1756, 1757, 1534, 1762, 1763, 1764, 1537, 1536, 1765, 1766
225, 1539, 1538, 1767, 1768, 1541, 1540, 1769, 1770, 1543, 1771, 1772, 1773, 1546, 1774, 1775, 1776, 1549, 1548, 1777, 1778
226, 1541, 1540, 1769, 1770, 1551, 1550, 1779, 1780, 1546, 1774, 1775, 1776, 1553, 1781, 1782, 1783, 1556, 1555, 1784, 1785
227, 1551, 1550, 1779, 1780, 1558, 1557, 1786, 1787, 1553, 1781, 1782, 1783, 1560, 1788, 1789, 1790, 1563, 1562, 1791, 1792
228, 1558, 1557, 1786, 1787, 1565, 1564, 1793, 1794, 1560, 1788, 1789, 1790, 1567, 1795, 1796, 1797, 1570, 1569, 1798, 1799
229, 1565, 1564, 1793, 1794, 1572, 1571, 1800, 1801, 1567, 1795, 1796, 1797, 1574, 1802, 1803, 1804, 1577, 1576, 1805, 1806
230, 1572, 1571, 1800, 1801, 1579, 1578, 1807, 1808, 1574, 1802, 1803, 1804, 1581, 1809, 1810, 1811, 1584, 1583, 1812, 1813
231, 1579, 1578, 1807, 1808, 1586, 1585, 1814, 1815, 1581, 1809, 1810, 1811, 1588, 1816, 1817, 1818, 1591, 1590, 1819, 1820
232, 1586, 1585, 1814, 1815, 1593, 1592, 1821, 1822, 1588, 1816, 1817, 1818, 1595, 1823, 1824, 1825, 1598, 1597, 1826, 1827
233, 1593, 1592, 1821, 1822, 1600, 1599, 1828, 1829, 1595, 1823, 1824, 1825, 1602, 1830, 1831, 1832, 1605, 1604, 1833, 1834
234, 1600, 1599, 1828, 1829, 1607, 1606, 1835, 1836, 1602, 1830, 1831, 1832, 1609, 1837, 1838, 1839, 1612, 1611, 1840, 1841
235, 1607, 1606, 1835, 1836, 1614, 1613, 1842, 1843, 1609, 1837, 1838, 1839, 1616, 1844, 1845, 1846, 1619, 1618, 1847, 1848
236, 1614, 1613, 1842, 1843, 1621, 1620, 1849, 1850, 1616, 1844, 1845, 1846, 1623, 1851, 1852, 1853, 1626, 1625, 1854, 1855
237, 1621, 1620, 1849, 1850, 1628, 1627, 1856, 1857, 1623, 1851, 1852, 1853, 1630, 1858, 1859, 1860, 1633, 1632, 1861, 1862
238, 1628, 1627, 1856, 1857, 1635, 1634, 1863, 1864, 1630, 1858, 1859, 1860, 1637, 1865, 1866, 1867, 1640, 1639, 1868, 1869
239, 1635, 1634, 1863, 1864, 1642, 1641, 1870, 1871, 1637, 1865, 1866, 1867, 1644, 1872, 1873, 1874, 1647, 1646, 1875, 1876
240, 1642, 1641, 1870, 1871, 1649, 1648, 1877, 1878, 1644, 1872, 1873, 1874, 1651, 1879, 1880, 1881, 1654, 1653, 1882, 1883
241, 1649, 1648, 1877, 1878, 1656, 1655, 1884, 1885, 1651, 1879, 1880, 1881, 1658, 1886, 1887, 1888, 1661, 1660, 1889, 1890
242, 1656, 1655, 1884, 1885, 1663, 1662, 1891, 1892, 1658, 1886, 1887, 1888, 1665, 1893, 1894, 1895, 1668, 1667, 1896, 1897
243, 1663, 1662, 1891, 1892, 1670, 1669, 1898, 1899, 1665, 1893, 1894, 1895, 1672, 1900, 1901, 1902, 1675, 1674, 1903, 1904
244, 1670, 1669, 1898, 1899, 1677, 1676, 1905, 1906, 1672, 1900, 1901, 1902, 1679, 1907, 1908, 1909, 1682, 1681, 1910, 1911
245, 1677, 1676, 1905, 1906, 1684, 1683, 1912, 1913, 1679, 1907, 1908, 1909, 1686, 1914, 1915, 1916, 1689, 1688, 1917, 1918
246, 1684, 1683, 1912, 1913, 1691, 1690, 1919, 1920, 1686, 1914, 1915, 1916, 1693, 1921, 1922, 1923, 1696, 1695, 1924, 1925
247, 1691, 1690, 1919, 1920, 1698, 1697, 1926, 1927, 1693, 1921, 1922, 1923, 1700, 1928, 1929, 1930, 1703, 1702, 1931, 1932
248, 1698, 1697, 1926, 1927, 1705, 1704, 1933, 1934, 1700, 1928, 1929, 1930, 1707, 1935, 1936, 1937, 1710, 1709, 1938, 1939
249, 1705, 1704, 1933, 1934, 1712, 1711, 1940, 1941, 1707, 1935, 1936, 1937, 1714, 1942, 1943, 1944, 1717, 1716, 1945, 1946
250, 1712, 1711, 1940, 1941, 1719, 1718, 1947, 1948, 1714, 1942, 1943, 1944, 1721, 1949, 1950, 1951, 1724, 1723, 1952, 1953
251, 1719, 1718, 1947, 1948, 1726, 1725, 1954, 1955, 1721, 1949, 1950, 1951, 1728, 1956, 1957, 1958, 1731, 1730, 1959, 1960
252, 1726, 1725, 1954, 1955, 1733, 1732, 1961, 1962, 1728, 1956, 1957, 1958, 1735, 1963, 1964, 1965, 1738, 1737, 1966, 1967
253, 1733, 1732, 1961, 1962, 1740, 1739, 1968, 1969, 1735, 1963, 1964, 1965, 1742, 1970, 1971, 1972, 1745, 1744, 1973, 1974
254, 1740, 1739, 1968, 1969, 1747, 1746, 1975, 1976, 1742, 1970, 1971, 1972, 1749, 1977, 1978, 1979, 1752, 1751, 1980, 1981
255, 1747, 1746, 1975, 1976, 1754, 1753, 1982, 1983, 1749, 1977, 1978, 1979, 1756, 1984, 1985, 1986, 1759, 1758, 1987, 1988
256, 1754, 1753, 1982, 1983, 1761, 1760, 1989, 1990, 1756, 1984, 1985, 1986, 1763, 1991, 1992, 1993, 1766, 1765, 1994, 1995
257, 1768, 1767, 1996, 1997, 1770, 1769, 1998, 1999, 1772, 2000, 2001, 2002, 1775, 2003, 2004, 2005, 1778, 1777, 2006, 2007
258, 1770, 1769, 1998, 1999, 1780, 1779, 2008, 2009, 1775, 2003, 2004, 2005, 1782, 2010, 2011, 2012, 1785, 1784, 2013, 2014
259, 1780, 1779, 2008, 2009, 1787, 1786, 2015, 2016, 1782, 2010, 2011, 2012, 1789, 2017, 2018, 2019, 1792, 1791, 2020, 2021
260, 1787, 1786, 2015, 2016, 1794, 1793, 2022, 2023, 1789, 2017, 2018, 2019, 1796, 2024, 2025, 2026, 1799, 1798, 2027, 2028
261, 1794, 1793, 2022, 2023, 1801, 1800, 2029, 2030, 1796, 2024, 2025, 2026, 1803, 2031, 2032, 2033, 1806, 1805, 2034, 2035
262, 1801, 1800, 2029, 2030, 1808, 1807, 2036, 2037, 1803, 2031, 2032, 2033, 1810, 2038, 2039, 2040, 1813, 1812, 2041, 2042
263, 1808, 1807, 2036, 2037, 1815, 1814, 2043, 2044, 1810, 2038, 2039, 2040, 1817, 2045, 2046, 2047, 1820, 1819, 2048, 2049
264, 1815, 1814, 2043, 2044, 1822, 1821, 2050, 2051, 1817, 2045, 2046, 2047, 1824, 2052, 2053, 2054, 1827, 1826, 2055, 2056
265, 1822, 1821, 2050, 2051, 1829, 1828, 2057, 2058, 1824, 2052, 2053, 2054, 1831, 2059, 2060, 2061, 1834, 1833, 2062, 2063
266, 1829, 1828, 2057, 2058, 1836, 1835, 2064, 2065, 1831, 2059, 2060, 2061, 1838, 2066, 2067, 2068, 1841, 1840, 2069, 2070
267, 1836, 1835, 2064, 2065, 1843, 1842, 2071, 2072, 1838, 2066, 2067, 2068, 1845, 2073, 2074, 2075, 1848, 1847, 2076, 2077
268, 1843, 1842, 2071, 2072, 1850, 1849, 2078, 2079, 1845, 2073, 2074, 2075, 1852, 2080, 2081, 2082, 1855, 1854, 2083, 2084
269, 1850, 1849, 2078, 2079, 1857, 1856, 2085, 2086, 1852, 2080, 2081, 2082, 1859, 2087, 2088, 2089, 1862, 1861, 2090, 2091
270, 1857, 1856, 2085, 2086, 1864, 1863, 2092, 2093, 1859, 2087, 2088, 2089, 1866, 2094, 2095, 2096, 1869, 1868, 2097, 2098
271, 1864, 1863, 2092, 2093, 1871, 1870, 2099, 2100, 1866, 2094, 2095, 2096, 1873, 2101, 2102, 2103, 1876, 1875, 2104, 2105
272, 1871, 1870, 2099, 2100, 1878, 1877, 2106, 2107, 1873, 2101, 2102, 2103, 1880, 2108, 2109, 2110, 1883, 1882, 2111, 2112
273, 1878, 1877, 2106, 2107, 1885, 1884, 2113, 2114, 1880, 2108, 2109, 2110, 1887, 2115, 2116, 2117, 1890, 1889, 2118, 2119
274, 1885, 1884, 2113, 2114, 1892, 1891, 2120, 2121, 1887, 2115, 2116, 2117, 1894, 2122, 2123, 2124, 1897, 1896, 2125, 2126
275, 1892, 1891, 2120, 2121, 1899, 1898, 2127, 2128, 1894, 2122, 2123, 2124, 1901, 2129, 2130, 2131, 1904, 1903, 2132, 2133
276, 1899, 1898, 2127, 2128, 1906, 1905, 2134, 2135, 1901, 2129, 2130, 2131, 1908, 2136, 2137, 2138, 1911, 1910, 2139, 2140
277, 1906, 1905, 2134, 2135, 1913, 1912, 2141, 2142, 1908, 2136, 2137, 2138, 1915, 2143, 2144, 2145, 1918, 1917, 2146, 2147
278, 1913, 1912, 2141, 2142, 1920, 1919, 2148, 2149, 1915, 2143, 2144, 2145, 1922, 2150, 2151, 2152, 1925, 1924, 2153, 2154
279, 1920, 1919, 2148, 2149, 1927, 1926, 2155, 2156, 1922, 2150, 2151, 2152, 1929, 2157, 2158, 2159, 1932, 1931, 2160, 2161
280, 1927, 1926, 2155, 2156, 1934, 1933, 2162, 2163, 1929, 2157, 2158, 2159, 1936, 2164, 2165, 2166, 1939, 1938, 2167, 2168
281, 1934, 1933, 2162, 2163, 1941, 1940, 2169, 2170, 1936, 2164, 2165, 2166, 1943, 2171, 2172, 2173, 1946, 1945, 2174, 2175
282, 1941, 1940, 2169, 2170, 1948, 1947, 2176, 2177, 1943, 2171, 2172, 2173, 1950, 2178, 2179, 2180, 1953, 1952, 2181, 2182
283, 1948, 1947, 2176, 2177, 1955, 1954, 2183, 2184, 1950, 2178, 2179, 2180, 1957, 2185, 2186, 2187, 1960, 1959, 2188, 2189
284, 1955, 1954, 2183, 2184, 1962, 1961, 2190, 2191, 1957, 2185, 2186, 2187, 1964, 2192, 2193, 2194, 1967, 1966, 2195, 2196
285, 1962, 1961, 2190, 2191, 1969, 1968, 2197, 2198, 1964, 2192, 2193, 2194, 1971, 2199, 2200, 2201, 1974, 1973, 2202, 2203
286, 1969, 1968, 2197, 2198, 1976, 1975, 2204, 2205, 1971, 2199, 2200, 2201, 1978, 2206, 2207, 2208, 1981, 1980, 2209, 2210
287, 1976, 1975, 2204, 2205, 1983, 1982, 2211, 2212, 1978, 2206, 2207, 2208, 1985, 2213, 2214, 2215, 1988, 1987, 2216, 2217
288, 1983, 1982, 2211, 2212, 1990, 1989, 2218, 2219, 1985, 2213, 2214, 2215, 1992, 2220, 2221, 2222, 1995, 1994, 2223, 2224
289, 1997, 1996, 2225, 2226, 1999, 1998, 2227, 2228, 2001, 2229, 2230, 2231, 2004, 2232, 2233, 2234, 2007, 2006, 2235, 2236
290, 1999, 1998, 2227, 2228, 2009, 2008, 2237, 2238, 2004, 2232, 2233, 2234, 2011, 2239, 2240, 2241, 2014, 2013, 2242, 2243
291, 2009, 2008, 2237, 2238, 2016, 2015, 2244, 2245, 2011, 2239, 2240, 2241, 2018, 2246, 2247, 2248, 2021, 2020, 2249, 2250
292, 2016, 2015, 2244, 2245, 2023, 2022, 2251, 2252, 2018, 2246, 2247, 2248, 2025, 2253, 2254, 2255, 2028, 2027, 2256, 2257
293, 2023, 2022, 2251, 2252, 2030, 2029, 2258, 2259, 2025, 2253, 2254, 2255, 2032, 2260, 2261, 2262, 2035, 2034, 2263, 2264
294, 2030, 2029, 2258, 2259, 2037, 2036, 2265, 2266, 2032, 2260, 2261, 2262, 2039, 2267, 2268, 2269, 2042, 2041, 2270, 2271
295, 2037, 2036, 2265, 2266, 2044, 2043, 2272, 2273, 2039, 2267, 2268, 2269, 2046, 2274, 2275, 2276, 2049, 2048, 2277, 2278
296, 2044, 2043, 2272, 2273, 2051, 2050, 2279, 2280, 2046, 2274, 2275, 2276, 2053, 2281, 2282, 2283, 2056, 2055, 2284, 2285
297, 2051, 2050, 2279, 2280, 2058, 2057, 2286, 2287, 2053, 2281, 2282, 2283, 2060, 2288, 2289, 2290, 2063, 2062, 2291, 2292
298, 2058, 2057, 2286, 2287, 2065, 2064, 2293, 2294, 2060, 2288, 2289, 2290, 2067, 2295, 2296, 2297, 2070, 2069, 2298, 2299
299, 2065, 2064, 2293, 2294, 2072, 2071, 2300, 2301, 2067, 2295, 2296, 2297, 2074, 2302, 2303, 2304, 2077, 2076, 2305, 2306
300, 2072, 2071, 2300, 2301, 2079, 2078, 2307, 2308, 2074, 2302, 2303, 2304, 2081, 2309, 2310, 2311, 2084, 2083, 2312, 2313
301, 2079, 2078, 2307, 2308, 2086, 2085, 2314, 2315, 2081, 2309, 2310, 2311, 2088, 2316, 2317, 2318, 2091, 2090, 2319, 2320
302, 2086, 2085, 2314, 2315, 2093, 2092, 2321, 2322, 2088, 2316, 2317, 2318, 2095, 2323, 2324, 2325, 2098, 2097, 2326, 2327
303, 2093, 2092, 2321, 2322, 2100, 2099, 2328, 2329, 2095, 2323, 2324, 2325, 2102, 2330, 2331, 2332, 2105, 2104, 2333, 2334
304, 2100, 2099, 2328, 2329, 2107, 2106, 2335, 2336, 2102, 2330, 2331, 2332, 2109, 2337, 2338, 2339, 2112, 2111, 2340, 2341
305, 2107, 2106, 2335, 2336, 2114, 2113, 2342, 2343, 2109, 2337, 2338, 2339, 2116, 2344, 2345, 2346, 2119, 2118, 2347, 2348
306, 2114, 2113, 2342, 2343, 2121, 2120, 2349, 2350, 2116, 2344, 2345, 2346, 2123, 2351, 2352, 2353, 2126, 2125, 2354, 2355
307, 2121, 2120, 2349, 2350, 2128, 2127, 2356, 2357, 2123, 2351, 2352, 2353, 2130, 2358, 2359, 2360, 2133, 2132, 2361, 2362
308, 2128, 2127, 2356, 2357, 2135, 2134, 2363, 2364, 2130, 2358, 2359, 2360, 2137, 2365, 2366, 2367, 2140, 2139, 2368, 2369
309, 2135, 2134, 2363, 2364, 2142, 2141, 2370, 2371, 2137, 2365, 2366, 2367, 2144, 2372, 2373, 2374, 2147, 2146, 2375, 2376
310, 2142, 2141, 2370, 2371, 2149, 2148, 2377, 2378, 2144, 2372, 2373, 2374, 2151, 2379, 2380, 2381, 2154, 2153, 2382, 2383
311, 2149, 2148, 2377, 2378, 2156, 2155, 2384, 2385, 2151, 2379, 2380, 2381, 2158, 2386, 2387, 2388, 2161, 2160, 2389, 2390
312, 2156, 2155, 2384, 2385, 2163, 2162, 2391, 2392, 2158, 2386, 2387, 2388, 2165, 2393, 2394, 2395, 2168, 2167, 2396, 2397
313, 2163, 2162, 2391, 2392, 2170, 2169, 2398, 2399, 2165, 2393, 2394, 2395, 2172, 2400, 2401, 2402, 2175, 2174, 2403, 2404
314, 2170, 2169, 2398, 2399, 2177, 2176, 2405, 2406, 2172, 2400, 2401, 2402, 2179, 2407, 2408, 2409, 2182, 2181, 2410, 2411
315, 2177, 2176, 2405, 2406, 2184, 2183, 2412, 2413, 2179, 2407, 2408, 2409, 2186, 2414, 2415, 2416, 2189, 2188, 2417, 2418
316, 2184, 2183, 2412, 2413, 2191, 2190, 2419, 2420, 2186, 2414, 2415, 2416, 2193, 2421, 2422, 2423, 2196, 2195, 2424, 2425
317, 2191, 2190, 2419, 2420, 2198, 2197, 2426, 2427, 2193, 2421, 2422, 2423, 2200, 2428, 2429, 2430, 2203, 2202, 2431, 2432
318, 2198, 2197, 2426, 2427, 2205, 2204, 2433, 2434, 2200, 2428, 2429, 2430, 2207, 2435, 2436, 2437, 2210, 2209, 2438, 2439
319, 2205, 2204, 2433, 2434, 2212, 2211, 2440, 2441, 2207, 2435, 2436, 2437, 2214, 2442, 2443, 2444, 2217, 2216, 2445, 2446
320, 2212, 2211, 2440, 2441, 2219, 2218, 2447, 2448, 2214, 2442, 2443, 2444, 2221, 2449, 2450, 2451, 2224, 2223, 2452, 2453
321, 2226, 2225, 2454, 2455, 2228, 2227, 2456, 2457, 2230, 2458, 2459, 2460, 2233, 2461, 2462, 2463, 2236, 2235, 2464, 2465
322, 2228, 2227, 2456, 2457, 2238, 2237, 2466, 2467, 2233, 2461, 2462, 2463, 2240, 2468, 2469, 2470, 2243, 2242, 2471, 2472
323, 2238, 2237, 2466, 2467, 2245, 2244, 2473, 2474, 2240, 2468, 2469, 2470, 2247, 2475, 2476, 2477, 2250, 2249, 2478, 2479
324, 2245, 2244, 2473, 2474, 2252, 2251, 2480, 2481, 2247, 2475, 2476, 2477, 2254, 2482, 2483, 2484, 2257, 2256, 2485, 2486
325, 2252, 2251, 2480, 2481, 2259, 2258, 2487, 2488, 2254, 2482, 2483, 2484, 2261, 2489, 2490, 2491, 2264, 2263, 2492, 2493
326, 2259, 2258, 2487, 2488, 2266, 2265, 2494, 2495, 2261, 2489, 2490, 2491, 2268, 2496, 2497, 2498, 2271, 2270, 2499, 2500
327, 2266, 2265, 2494, 2495, 2273, 2272, 2501, 2502, 2268, 2496, 2497, 2498, 2275, 2503, 2504, 2505, 2278, 2277, 2506, 2507
328, 2273, 2272, 2501, 2502, 2280, 2279, 2508, 2509, 2275, 2503, 2504, 2505, 2282, 2510, 2511, 2512, 2285, 2284, 2513, 2514
329, 2280, 2279, 2508, 2509, 2287, 2286, 2515, 2516, 2282, 2510, 2511, 2512, 2289, 2517, 2518, 2519, 2292, 2291, 2520, 2521
330, 2287, 2286, 2515, 2516, 2294, 2293, 2522, 2523, 2289, 2517, 2518, 2519, 2296, 2524, 2525, 2526, 2299, 2298, 2527, 2528
331, 2294, 2293, 2522, 2523, 2301, 2300, 2529, 2530, 2296, 2524, 2525, 2526, 2303, 2531, 2532, 2533, 2306, 2305, 2534, 2535
332, 2301, 2300, 2529, 2530, 2308, 2307, 2536, 2537, 2303, 2531, 2532, 2533, 2310, 2538, 2539, 2540, 2313, 2312, 2541, 2542
333, 2308, 2307, 2536, 2537, 2315, 2314, 2543, 2544, 2310, 2538, 2539, 2540, 2317, 2545, 2546, 2547, 2320, 2319, 2548, 2549
334, 2315, 2314, 2543, 2544, 2322, 2321, 2550, 2551, 2317, 2545, 2546, 2547, 2324, 2552, 2553, 2554, 2327, 2326, 2555, 2556
335, 2322, 2321, 2550, 2551, 2329, 2328, 2557, 2558, 2324, 2552, 2553, 2554, 2331, 2559, 2560, 2561, 2334, 2333, 2562, 2563
336, 2329, 2328, 2557, 2558, 2336, 2335, 2564, 2565, 2331, 2559, 2560, 2561, 2338, 2566, 2567, 2568, 2341, 2340, 2569, 2570
337, 2336, 2335, 2564, 2565, 2343, 2342, 2571, 2572, 2338, 2566, 2567, 2568, 2345, 2573, 2574, 2575, 2348, 2347, 2576, 2577
338, 2343, 2342, 2571, 2572, 2350, 2349, 2578, 2579, 2345, 2573, 2574, 2575, 2352, 2580, 2581, 2582, 2355, 2354, 2583, 2584
339, 2350, 2349, 2578, 2579, 2357, 2356, 2585, 2586, 2352, 2580, 2581, 2582, 2359, 2587, 2588, 2589, 2362, 2361, 2590, 2591
340, 2357, 2356, 2585, 2586, 2364, 2363, 2592, 2593, 2359, 2587, 2588, 2589, 2366, 2594, 2595, 2596, 2369, 2368, 2597, 2598
341, 2364, 2363, 2592, 2593, 2371, 2370, 2599, 2600, 2366, 2594, 2595, 2596, 2373, 2601, 2602, 2603, 2376, 2375, 2604, 2605
342, 2371, 2370, 2599, 2600, 2378, 2377, 2606, 2607, 2373, 2601, 2602, 2603, 2380, 2608, 2609, 2610, 2383, 2382, 2611, 2612
343, 2378, 2377, 2606, 2607, 2385, 2384, 2613, 2614, 2380, 2608, 2609, 2610, 2387, 2615, 2616, 2617, 2390, 2389, 2618, 2619
344, 2385, 2384, 2613, 2614, 2392, 2391, 2620, 2621, 2387, 2615, 2616, 2617, 2394, 2622, 2623, 2624, 2397, 2396, 2625, 2626
345, 2392, 2391, 2620, 2621, 2399, 2398, 2627, 2628, 2394, 2622, 2623, 2624, 2401, 2629, 2630, 2631, 2404, 2403, 2632, 2633
346, 2399, 2398, 2627, 2628, 2406, 2405, 2634, 2635, 2401, 2629, 2630, 2631, 2408, 2636, 2637, 2638, 2411, 2410, 2639, 2640
347, 2406, 2405, 2634, 2635, 2413, 2412, 2641, 2642, 2408, 2636, 2637, 2638, 2415, 2643, 2644, 2645, 2418, 2417, 2646, 2647
348, 2413, 2412, 2641, 2642, 2420, 2419, 2648, 2649, 2415, 2643, 2644, 2645, 2422, 2650, 2651, 2652, 2425, 2424, 2653, 2654
349, 2420, 2419, 2648, 2649, 2427, 2426, 2655, 2656, 2422, 2650, 2651, 2652, 2429, 2657, 2658, 2659, 2432, 2431, 2660, 2661
350, 2427, 2426, 2655, 2656, 2434, 2433, 2662, 2663, 2429, 2657, 2658, 2659, 2436, 2664, 2665, 2666, 2439, 2438, 2667, 2668
351, 2434, 2433, 2662, 2663, 2441, 2440, 2669, 2670, 2436, 2664, 2665, 2666, 2443, 2671, 2672, 2673, 2446, 2445, 2674, 2675
352, 2441, 2440, 2669, 2670, 2448, 2447, 2676, 2677, 2443, 2671, 2672, 2673, 2450, 2678, 2679, 2680, 2453, 2452, 2681, 2682
353, 2455, 2454, 2683, 2684, 2457, 2456, 2685, 2686, 2459, 2687, 2688, 2689, 2462, 2690, 2691, 2692, 2465, 2464, 2693, 2694
354, 2457, 2456, 2685, 2686, 2467, 2466, 2695, 2696, 2462, 2690, 2691, 2692, 2469, 2697, 2698, 2699, 2472, 2471, 2700, 2701
355, 2467, 2466, 2695, 2696, 2474, 2473, 2702, 2703, 2469, 2697, 2698, 2699, 2476, 2704, 2705, 2706, 2479, 2478, 2707, 2708
356, 2474, 2473, 2702, 2703, 2481, 2480, 2709, 2710, 2476, 2704, 2705, 2706, 2483, 2711, 2712, 2713, 2486, 2485, 2714, 2715
357, 2481, 2480, 2709, 2710, 2488, 2487, 2716, 2717, 2483, 2711, 2712, 2713, 2490, 2718, 2719, 2720, 2493, 2492, 2721, 2722
358, 2488, 2487, 2716, 2717, 2495, 2494, 2723, 2724, 2490, 2718, 2719, 2720, 2497, 2725, 2726, 2727, 2500, 2499, 2728, 2729
359, 2495, 2494, 2723, 2724, 2502, 2501, 2730, 2731, 2497, 2725, 2726, 2727, 2504, 2732, 2733, 2734, 2507, 2506, 2735, 2736
360, 2502, 2501, 2730, 2731, 2509, 2508, 2737, 2738, 2504, 2732, 2733, 2734, 2511, 2739, 2740, 2741, 2514, 2513, 2742, 2743
361, 2509, 2508, 2737, 2738, 2516, 2515, 2744, 2745, 2511, 2739, 2740, 2741, 2518, 2746, 2747, 2748, 2521, 2520, 2749, 2750
362, 2516, 2515, 2744, 2745, 2523, 2522, 2751, 2752, 2518, 2746, 2747, 2748, 2525, 2753, 2754, 2755, 2528, 2527, 2756, 2757
363, 2523, 2522, 2751, 2752, 2530, 2529, 2758, 2759, 2525, 2753, 2754, 2755, 2532, 2760, 2761, 2762, 2535, 2534, 2763, 2764
364, 2530, 2529, 2758, 2759, 2537, 2536, 2765, 2766, 2532, 2760, 2761, 2762, 2539, 2767, 2768, 2769, 2542, 2541, 2770, 2771
365, 2537, 2536, 2765, 2766, 2544, 2543, 2772, 2773, 2539, 2767, 2768, 2769, 2546, 2774, 2775, 2776, 2549, 2548, 2777, 2778
366, 2544, 2543, 2772, 2773, 2551, 2550, 2779, 2780, 2546, 2774, 2775, 2776, 2553, 2781, 2782, 2783, 2556, 2555, 2784, 2785
367, 2551, 2550, 2779, 2780, 2558, 2557, 2786, 2787, 2553, 2781, 2782, 2783, 2560, 2788, 2789, 2790, 2563, 2562, 2791, 2792
368, 2558, 2557, 2786, 2787, 2565, 2564, 2793, 2794, 2560, 2788, 2789, 2790, 2567, 2795, 2796, 2797, 2570, 2569, 2798, 2799
369, 2565, 2564, 2793, 2794, 2572, 2571, 2800, 2801, 2567, 2795, 2796, 2797, 2574, 2802, 2803, 2804, 2577, 2576, 2805, 2806
370, 2572, 2571, 2800, 2801, 2579, 2578, 2807, 2808, 2574, 2802, 2803, 2804, 2581, 2809, 2810, 2811, 2584, 2583, 2812, 2813
371, 2579, 2578, 2807, 2808, 2586, 2585, 2814, 2815, 2581, 2809, 2810, 2811, 2588, 2816, 2817, 2818, 2591, 2590, 2819, 2820
372, 2586, 2585, 2814, 2815, 2593, 2592, 2821, 2822, 2588, 2816, 2817, 2818, 2595, 2823, 2824, 2825, 2598, 2597, 2826, 2827
373, 2593, 2592, 2821, 2822, 2600, 2599, 2828, 2829, 2595, 2823, 2824, 2825, 2602, 2830, 2831, 2832, 2605, 2604, 2833, 2834
374, 2600, 2599, 2828, 2829, 2607, 2606, 2835, 2836, 2602, 2830, 2831, 2832, 2609, 2837, 2838, 2839, 2612, 2611, 2840, 2841
375, 2607, 2606, 2835, 2836, 2614, 2613, 2842, 2843, 2609, 2837, 2838, 2839, 2616, 2844, 2845, 2846, 2619, 2618, 2847, 2848
376, 2614, 2613, 2842, 2843, 2621, 2620, 2849, 2850, 2616, 2844, 2845, 2846, 2623, 2851, 2852, 2853, 2626, 2625, 2854, 2855
377, 2621, 2620, 2849, 2850, 2628, 2627, 2856, 2857, 2623, 2851, 2852, 2853, 2630, 2858, 2859, 2860, 2633, 2632, 2861, 2862
378, 2628, 2627, 2856, 2857, 2635, 2634, 2863, 2864, 2630, 2858, 2859, 2860, 2637, 2865, 2866, 2867, 2640, 2639, 2868, 2869
379, 2635, 2634, 2863, 2864, 2642, 2641, 2870, 2871, 2637, 2865, 2866, 2867, 2644, 2872, 2873, 2874, 2647, 2646, 2875, 2876
380, 2642, 2641, 2870, 2871, 2649, 2648, 2877, 2878, 2644, 2872, 2873, 2874, 2651, 2879, 2880, 2881, 2654, 2653, 2882, 2883
381, 2649, 2648, 2877, 2878, 2656, 2655, 2884, 2885, 2651, 2879, 2880, 2881, 2658, 2886, 2887, 2888, 2661, 2660, 2889, 2890
382, 2656, 2655, 2884, 2885, 2663, 2662, 2891, 2892, 2658, 2886, 2887, 2888, 2665, 2893, 2894, 2895, 2668, 2667, 2896, 2897
383, 2663, 2662, 2891, 2892, 2670, 2669, 2898, 2899, 2665, 2893, 2894, 2895, 2672, 2900, 2901, 2902, 2675, 2674, 2903, 2904
384, 2670, 2669, 2898, 2899, 2677, 2676, 2905, 2906, 2672, 2900, 2901, 2902, 2679, 2907, 2908, 2909, 2682, 2681, 2910, 2911
385, 2684, 2683, 2912, 2913, 2686, 2685, 2914, 2915, 2688, 2916, 2917, 2918, 2691, 2919, 2920, 2921, 2694, 2693, 2922, 2923
386, 2686, 2685, 2914, 2915, 2696, 2695, 2924, 2925, 2691, 2919, 2920, 2921, 2698, 2926, 2927, 2928, 2701, 2700, 2929, 2930
387, 2696, 2695, 2924, 2925, 2703, 2702, 2931, 2932, 2698, 2926, 2927, 2928, 2705, 2933, 2934, 2935, 2708, 2707, 2936, 2937
388, 2703, 2702, 2931, 2932, 2710, 2709, 2938, 2939, 2705, 2933, 2934, 2935, 2712, 2940, 2941, 2942, 2715, 2714, 2943, 2944
389, 2710, 2709, 2938, 2939, 2717, 2716, 2945, 2946, 2712, 2940, 2941, 2942, 2719, 2947, 2948, 2949, 2722, 2721, 2950, 2951
390, 2717, 2716, 2945, 2946, 2724, 2723, 2952, 2953, 2719, 2947, 2948, 2949, 2726, 2954, 2955, 2956, 2729, 2728, 2957, 2958
391, 2724, 2723, 2952, 2953, 2731, 2730, 2959, 2960, 2726, 2954, 2955, 2956, 2733, 2961, 2962, 2963, 2736, 2735, 2964, 2965
392, 2731, 2730, 2959, 2960, 2738, 2737, 2966, 2967, 2733, 2961, 2962, 2963, 2740, 2968, 2969, 2970, 2743, 2742, 2971, 2972
393, 2738, 2737, 2966, 2967, 2745, 2744, 2973, 2974, 2740, 2968, 2969, 2970, 2747, 2975, 2976, 2977, 2750, 2749, 2978, 2979
394, 2745, 2744, 2973, 2974, 2752, 2751, 2980, 2981, 2747, 2975, 2976, 2977, 2754, 2982, 2983, 2984, 2757, 2756, 2985, 2986
395, 2752, 2751, 2980, 2981, 2759, 2758, 2987, 2988, 2754, 2982, 2983, 2984, 2761, 2989, 2990, 2991, 2764, 2763, 2992, 2993
396, 2759, 2758, 2987, 2988, 2766, 2765, 2994, 2995, 2761, 2989, 2990, 2991, 2768, 2996, 2997, 2998, 2771, 2770, 2999, 3000
397, 2766, 2765, 2994, 2995, 2773, 2772, 3001, 3002, 2768, 2996, 2997, 2998, 2775, 3003, 3004, 3005, 2778, 2777, 3006, 3007
398, 2773, 2772, 3001, 3002, 2780, 2779, 3008, 3009, 2775, 3003, 3004, 3005, 2782, 3010, 3011, 3012, 2785, 2784, 3013, 3014
399, 2780, 2779, 3008, 3009, 2787, 2786, 3015, 3016, 2782, 3010, 3011, 3012, 2789, 3017, 3018, 3019, 2792, 2791, 3020, 3021
400, 2787, 2786, 3015, 3016, 2794, 2793, 3022, 3023, 2789, 3017, 3018, 3019, 2796, 3024, 3025, 3026, 2799, 2798, 3027, 3028
401, 2794, 2793, 3022, 3023, 2801, 2800, 3029, 3030, 2796, 3024, 3025, 3026, 2803, 3031, 3032, 3033, 2806, 2805, 3034, 3035
402, 2801, 2800, 3029, 3030, 2808, 2807, 3036, 3037, 2803, 3031, 3032, 3033, 2810, 3038, 3039, 3040, 2813, 2812, 3041, 3042
403, 2808, 2807, 3036, 3037, 2815, 2814, 3043, 3044, 2810, 3038, 3039, 3040, 2817, 3045, 3046, 3047, 2820, 2819, 3048, 3049
404, 2815, 2814, 3043, 3044, 2822, 2821, 3050, 3051, 2817, 3045, 3046, 3047, 2824, 3052, 3053, 3054, 2827, 2826, 3055, 3056
405, 2822, 2821, 3050, 3051, 2829, 2828, 3057, 3058, 2824, 3052, 3053, 3054, 2831, 3059, 3060, 3061, 2834, 2833, 3062, 3063
406, 2829, 2828, 3057, 3058, 2836, 2835, 3064, 3065, 2831, 3059, 3060, 3061, 2838, 3066, 3067, 3068, 2841, 2840, 3069, 3070
407, 2836, 2835, 3064, 3065, 2843, 2842, 3071, 3072, 2838, 3066, 3067, 3068, 2845, 3073, 3074, 3075, 2848, 2847, 3076, 3077
408, 2843, 2842, 3071, 3072, 2850, 2849, 3078, 3079, 2845, 3073, 3074, 3075, 2852, 3080, 3081, 3082, 2855, 2854, 3083, 3084
409, 2850, 2849, 3078, 3079, 2857, 2856, 3085, 3086, 2852, 3080, 3081, 3082, 2859, 3087, 3088, 3089, 2862, 2861, 3090, 3091
410, 2857, 2856, 3085, 3086, 2864, 2863, 3092, 3093, 2859, 3087, 3088, 3089, 2866, 3094, 3095, 3096, 2869, 2868, 3097, 3098
411, 2864, 2863, 3092, 3093, 2871, 2870, 3099, 3100, 2866, 3094, 3095, 3096, 2873, 3101, 3102, 3103, 2876, 2875, 3104, 3105
412, 2871, 2870, 3099, 3100, 2878, 2877, 3106, 3107, 2873, 3101, 3102, 3103, 2880, 3108, 3109, 3110, 2883, 2882, 3111, 3112
413, 2878, 2877, 3106, 3107, 2885, 2884, 3113, 3114, 2880, 3108, 3109, 3110, 2887, 3115, 3116, 3117, 2890, 2889, 3118, 3119
414, 2885, 2884, 3113, 3114, 2892, 2891, 3120, 3121, 2887, 3115, 3116, 3117, 2894, 3122, 3123, 3124, 2897, 2896, 3125, 3126
415, 2892, 2891, 3120, 3121, 2899, 2898, 3127, 3128, 2894, 3122, 3123, 3124, 2901, 3129, 3130, 3131, 2904, 2903, 3132, 3133
416, 2899, 2898, 3127, 3128, 2906, 2905, 3134, 3135, 2901, 3129, 3130, 3131, 2908, 3136, 3137, 3138, 2911, 2910, 3139, 3140
417, 2913, 2912, 3141, 3142, 2915, 2914, 3143, 3144, 2917, 3145, 3146, 3147, 2920, 3148, 3149, 3150, 2923, 2922, 3151, 3152
418, 2915, 2914, 3143, 3144, 2925, 2924, 3153, 3154, 2920, 3148, 3149, 3150, 2927, 3155, 3156, 3157, 2930, 2929, 3158, 3159
419, 2925, 2924, 3153, 3154, 2932, 2931, 3160, 3161, 2927, 3155, 3156, 3157, 2934, 3162, 3163, 3164, 2937, 2936, 3165, 3166
420, 2932, 2931, 3160, 3161, 2939, 2938, 3167, 3168, 2934, 3162, 3163, 3164, 2941, 3169, 3170, 3171, 2944, 2943, 3172, 3173
421, 2939, 2938, 3167, 3168, 2946, 2945, 3174, 3175, 2941, 3169, 3170, 3171, 2948, 3176, 3177, 3178, 2951, 2950, 3179, 3180
422, 2946, 2945, 3174, 3175, 2953, 2952, 3181, 3182, 2948, 3176, 3177, 3178, 2955, 3183, 3184, 3185, 2958, 2957, 3186, 3187
423, 2953, 2952, 3181, 3182, 2960, 2959, 3188, 3189, 2955, 3183, 3184, 3185, 2962, 3190, 3191, 3192, 2965, 2964, 3193, 3194
424, 2960, 2959, 3188, 3189, 2967, 2966, 3195, 3196, 2962, 3190, 3191, 3192, 2969, 3197, 3198, 3199, 2972, 2971, 3200, 3201
425, 2967, 2966, 3195, 3196, 2974, 2973, 3202, 3203, 2969, 3197, 3198, 3199, 2976, 3204, 3205, 3206, 2979, 2978, 3207, 3208
426, 2974, 2973, 3202, 3203, 2981, 2980, 3209, 3210, 2976, 3204, 3205, 3206, 2983, 3211, 3212, 3213, 2986, 2985, 3214, 3215
427, 2981, 2980, 3209, 3210, 2988, 2987, 3216, 3217, 2983, 3211, 3212, 3213, 2990, 3218, 3219, 3220, 2993, 2992, 3221, 3222
428, 2988, 2987, 3216, 3217, 2995, 2994, 3223, 3224, 2990, 3218, 3219, 3220, 2997, 3225, 3226, 3227, 3000, 2999, 3228, 3229
429, 2995, 2994, 3223, 3224, 3002, 3001, 3230, 3231, 2997, 3225, 3226, 3227, 3004, 3232, 3233, 3234, 3007, 3006, 3235, 3236
430, 3002, 3001, 3230, 3231, 3009, 3008, 3237, 3238, 3004, 3232, 3233, 3234, 3011, 3239, 3240, 3241, 3014, 3013, 3242, 3243
431, 3009, 3008, 3237, 3238, 3016, 3015, 3244, 3245, 3011, 3239, 3240, 3241, 3018, 3246, 3247, 3248, 3021, 3020, 3249, 3250
432, 3016, 3015, 3244, 3245, 3023, 3022, 3251, 3252, 3018, 3246, 3247, 3248, 3025, 3253, 3254, 3255, 3028, 3027, 3256, 3257
433, 3023, 3022, 3251, 3252, 3030, 3029, 3258, 3259, 3025, 3253, 3254, 3255, 3032, 3260, 3261, 3262, 3035, 3034, 3263, 3264
434, 3030, 3029, 3258, 3259, 3037, 3036, 3265, 3266, 3032, 3260, 3261, 3262, 3039, 3267, 3268, 3269, 3042, 3041, 3270, 3271
435, 3037, 3036, 3265, 3266, 3044, 3043, 3272, 3273, 3039, 3267, 3268, 3269, 3046, 3274, 3275, 3276, 3049, 3048, 3277, 3278
436, 3044, 3043, 3272, 3273, 3051, 3050, 3279, 3280, 3046, 3274, 3275, 3276, 3053, 3281, 3282, 3283, 3056, 3055, 3284, 3285
437, 3051, 3050, 3279, 3280, 3058, 3057, 3286, 3287, 3053, 3281, 3282, 3283, 3060, 3288, 3289, 3290, 3063, 3062, 3291, 3292
438, 3058, 3057, 3286, 3287, 3065, 3064, 3293, 3294, 3060, 3288, 3289, 3290, 3067, 3295, 3296, 3297, 3070, 3069, 3298, 3299
439, 3065, 3064, 3293, 3294, 3072, 3071, 3300, 3301, 3067, 3295, 3296, 3297, 3074, 3302, 3303, 3304, 3077, 3076, 3305, 3306
440, 3072, 3071, 3300, 3301, 3079, 3078, 3307, 3308, 3074, 3302, 3303, 3304, 3081, 3309, 3310, 3311, 3084, 3083, 3312, 3313
441, 3079, 3078, 3307, 3308, 3086, 3085, 3314, 3315, 3081, 3309, 3310, 3311, 3088, 3316, 3317, 3318, 3091, 3090, 3319, 3320
442, 3086, 3085, 3314, 3315, 3093, 3092, 3321, 3322, 3088, 3316, 3317, 3318, 3095, 3323, 3324, 3325, 3098, 3097, 3326, 3327
443, 3093, 3092, 3321, 3322, 3100, 3099, 3328, 3329, 3095, 3323, 3324, 3325, 3102, 3330, 3331, 3332, 3105, 3104, 3333, 3334
444, 3100, 3099, 3328, 3329, 3107, 3106, 3335, 3336, 3102, 3330, 3331, 3332, 3109, 3337, 3338, 3339, 3112, 3111, 3340, 3341
445, 3107, 3106, 3335, 3336, 3114, 3113, 3342, 3343, 3109, 3337, 3338, 3339, 3116, 3344, 3345, 3346, 3119, 3118, 3347, 3348
446, 3114, 3113, 3342, 3343, 3121, 3120, 3349, 3350, 3116, 3344, 3345, 3346, 3123, 3351, 3352, 3353, 3126, 3125, 3354, 3355
447, 3121, 3120, 3349, 3350, 3128, 3127, 3356, 3357, 3123, 3351, 3352, 3353, 3130, 3358, 3359, 3360, 3133, 3132, 3361, 3362
448, 3128, 3127, 3356, 3357, 3135, 3134, 3363, 3364, 3130, 3358, 3359, 3360, 3137, 3365, 3366, 3367, 3140, 3139, 3368, 3369
449, 3142, 3141, 3370, 3371, 3144, 3143, 3372, 3373, 3146, 3374, 3375, 3376, 3149, 3377, 3378, 3379, 3152, 3151, 3380, 3381
450, 3144, 3143, 3372, 3373, 3154, 3153, 3382, 3383, 3149, 3377, 3378, 3379, 3156, 3384, 3385, 3386, 3159, 3158, 3387, 3388
451, 3154, 3153, 3382, 3383, 3161, 3160, 3389, 3390, 3156, 3384, 3385, 3386, 3163, 3391, 3392, 3393, 3166, 3165, 3394, 3395
452, 3161, 3160, 3389, 3390, 3168, 3167, 3396, 3397, 3163, 3391, 3392, 3393, 3170, 3398, 3399, 3400, 3173, 3172, 3401, 3402
453, 3168, 3167, 3396, 3397, 3175, 3174, 3403, 3404, 3170, 3398, 3399, 3400, 3177, 3405, 3406, 3407, 3180, 3179, 3408, 3409
454, 3175, 3174, 3403, 3404, 3182, 3181, 3410, 3411, 3177, 3405, 3406, 3407, 3184, 3412, 3413, 3414, 3187, 3186, 3415, 3416
455, 3182, 3181, 3410, 3411, 3189, 3188, 3417, 3418, 3184, 3412, 3413, 3414, 3191, 3419, 3420, 3421, 3194, 3193, 3422, 3423
456, 3189, 3188, 3417, 3418, 3196, 3195, 3424, 3425, 3191, 3419, 3420, 3421, 3198, 3426, 3427, 3428, 3201, 3200, 3429, 3430
457, 3196, 3195, 3424, 3425, 3203, 3202, 3431, 3432, 3198, 3426, 3427, 3428, 3205, 3433, 3434, 3435, 3208, 3207, 3436, 3437
458, 3203, 3202, 3431, 3432, 3210, 3209, 3438, 3439, 3205, 3433, 3434, 3435, 3212, 3440, 3441, 3442, 3215, 3214, 3443, 3444
459, 3210, 3209, 3438, 3439, 3217, 3216, 3445, 3446, 3212, 3440, 3441, 3442, 3219, 3447, 3448, 3449, 3222, 3221, 3450, 3451
460, 3217, 3216, 3445, 3446, 3224, 3223, 3452, 3453, 3219, 3447, 3448, 3449, 3226, 3454, 3455, 3456, 3229, 3228, 3457, 3458
461, 3224, 3223, 3452, 3453, 3231, 3230, 3459, 3460, 3226, 3454, 3455, 3456, 3233, 3461, 3462, 3463, 3236, 3235, 3464, 3465
462, 3231, 3230, 3459, 3460, 3238, 3237, 3466, 3467, 3233, 3461, 3462, 3463, 3240, 3468, 3469, 3470, 3243, 3242, 3471, 3472
463, 3238, 3237, 3466, 3467, 3245, 3244, 3473, 3474, 3240, 3468, 3469, 3470, 3247, 3475, 3476, 3477, 3250, 3249, 3478, 3479
464, 3245, 3244, 3473, 3474, 3252, 3251, 3480, 3481, 3247, 3475, 3476, 3477, 3254, 3482, 3483, 3484, 3257, 3256, 3485, 3486
465, 3252, 3251, 3480, 3481, 3259, 3258, 3487, 3488, 3254, 3482, 3483, 3484, 3261, 3489, 3490, 3491, 3264, 3263, 3492, 3493
466, 3259, 3258, 3487, 3488, 3266, 3265, 3494, 3495, 3261, 3489, 3490, 3491, 3268, 3496, 3497, 3498, 3271, 3270, 3499, 3500
467, 3266, 3265, 3494, 3495, 3273, 3272, 3501, 3502, 3268, 3496, 3497, 3498, 3275, 3503, 3504, 3505, 3278, 3277, 3506, 3507
468, 3273, 3272, 3501, 3502, 3280, 3279, 3508, 3509, 3275, 3503, 3504, 3505, 3282, 3510, 3511, 3512, 3285, 3284, 3513, 3514
469, 3280, 3279, 3508, 3509, 3287, 3286, 3515, 3516, 3282, 3510, 3511, 3512, 3289, 3517, 3518, 3519, 3292, 3291, 3520, 3521
470, 3287, 3286, 3515, 3516, 3294, 3293, 3522, 3523, 3289, 3517, 3518, 3519, 3296, 3524, 3525, 3526, 3299, 3298, 3527, 3528
471, 3294, 3293, 3522, 3523, 3301, 3300, 3529, 3530, 3296, 3524, 3525, 3526, 3303, 3531, 3532, 3533, 3306, 3305, 3534, 3535
472, 3301, 3300, 3529, 3530, 3308, 3307, 3536, 3537, 3303, 3531, 3532, 3533, 3310, 3538, 3539, 3540, 3313, 3312, 3541, 3542
473, 3308, 3307, 3536, 3537, 3315, 3314, 3543, 3544, 3310, 3538, 3539, 3540, 3317, 3545, 3546, 3547, 3320, 3319, 3548, 3549
474, 3315, 3314, 3543, 3544, 3322, 3321, 3550, 3551, 3317, 3545, 3546, 3547, 3324, 3552, 3553, 3554, 3327, 3326, 3555, 3556
475, 3322, 3321, 3550, 3551, 3329, 3328, 3557, 3558, 3324, 3552, 3553, 3554, 3331, 3559, 3560, 3561, 3334, 3333, 3562, 3563
476, 3329, 3328, 3557, 3558, 3336, 3335, 3564, 3565, 3331, 3559, 3560, 3561, 3338, 3566, 3567, 3568, 3341, 3340, 3569, 3570
477, 3336, 3335, 3564, 3565, 3343, 3342, 3571, 3572, 3338, 3566, 3567, 3568, 3345, 3573, 3574, 3575, 3348, 3347, 3576, 3577
478, 3343, 3342, 3571, 3572, 3350, 3349, 3578, 3579, 3345, 3573, 3574, 3575, 3352, 3580, 3581, 3582, 3355, 3354, 3583, 3584
479, 3350, 3349, 3578, 3579, 3357, 3356, 3585, 3586, 3352, 3580, 3581, 3582, 3359, 3587, 3588, 3589, 3362, 3361, 3590, 3591
480, 3357, 3356, 3585, 3586, 3364, 3363, 3592, 3593, 3359, 3587, 3588, 3589, 3366, 3594, 3595, 3596, 3369, 3368, 3597, 3598
481, 3371, 3370, 3599, 3600, 3373, 3372, 3601, 3602, 3375, 3603, 3604, 3605, 3378, 3606, 3607, 3608, 3381, 3380, 3609, 3610
482, 3373, 3372, 3601, 3602, 3383, 3382, 3611, 3612, 3378, 3606, 3607, 3608, 3385, 3613, 3614, 3615, 3388, 3387, 3616, 3617
483, 3383, 3382, 3611, 3612, 3390, 3389, 3618, 3619, 3385, 3613, 3614, 3615, 3392, 3620, 3621, 3622, 3395, 3394, 3623, 3624
484, 3390, 3389, 3618, 3619, 3397, 3396, 3625, 3626, 3392, 3620, 3621, 3622, 3399, 3627, 3628, 3629, 3402, 3401, 3630, 3631
485, 3397, 3396, 3625, 3626, 3404, 3403, 3632, 3633, 3399, 3627, 3628, 3629, 3406, 3634, 3635, 3636, 3409, 3408, 3637, 3638
486, 3404, 3403, 3632, 3633, 3411, 3410, 3639, 3640, 3406, 3634, 3635, 3636, 3413, 3641, 3642, 3643, 3416, 3415, 3644, 3645
487, 3411, 3410, 3639, 3640, 3418, 3417, 3646, 3647, 3413, 3641, 3642, 3643, 3420, 3648, 3649, 3650, 3423, 3422, 3651, 3652
488, 3418, 3417, 3646, 3647, 3425, 3424, 3653, 3654, 3420, 3648, 3649, 3650, 3427, 3655, 3656, 3657, 3430, 3429, 3658, 3659
489, 3425, 3424, 3653, 3654, 3432, 3431, 3660, 3661, 3427, 3655, 3656, 3657, 3434, 3662, 3663, 3664, 3437, 3436, 3665, 3666
490, 3432, 3431, 3660, 3661, 3439, 3438, 3667, 3668, 3434, 3662, 3663, 3664, 3441, 3669, 3670, 3671, 3444, 3443, 3672, 3673
491, 3439, 3438, 3667, 3668, 3446, 3445, 3674, 3675, 3441, 3669, 3670, 3671, 3448, 3676, 3677, 3678, 3451, 3450, 3679, 3680
492, 3446, 3445, 3674, 3675, 3453, 3452, 3681, 3682, 3448, 3676, 3677, 3678, 3455, 3683, 3684, 3685, 3458, 3457, 3686, 3687
493, 3453, 3452, 3681, 3682, 3460, 3459, 3688, 3689, 3455, 3683, 3684, 3685, 3462, 3690, 3691, 3692, 3465, 3464, 3693, 3694
494, 3460, 3459, 3688, 3689, 3467, 3466, 3695, 3696, 3462, 3690, 3691, 3692, 3469, 3697, 3698, 3699, 3472, 3471, 3700, 3701
495, 3467, 3466, 3695, 3696, 3474, 3473, 3702, 3703, 3469, 3697, 3698, 3699, 3476, 3704, 3705, 3706, 3479, 3478, 3707, 3708
496, 3474, 3473, 3702, 3703, 3481, 3480, 3709, 3710, 3476, 3704, 3705, 3706, 3483, 3711, 3712, 3713, 3486, 3485, 3714, 3715
497, 3481, 3480, 3709, 3710, 3488, 3487, 3716, 3717, 3483, 3711, 3712, 3713, 3490, 3718, 3719, 3720, 3493, 3492, 3721, 3722
498, 3488, 3487, 3716, 3717, 3495, 3494, 3723, 3724, 3490, 3718, 3719, 3720, 3497, 3725, 3726, 3727, 3500, 3499, 3728, 3729
499, 3495, 3494, 3723, 3724, 3502, 3501, 3730, 3731, 3497, 3725, 3726, 3727, 3504, 3732, 3733, 3734, 3507, 3506, 3735, 3736
500, 3502, 3501, 3730, 3731, 3509, 3508, 3737, 3738, 3504, 3732, 3733, 3734, 3511, 3739, 3740, 3741, 3514, 3513, 3742, 3743
501, 3509, 3508, 3737, 3738, 3516, 3515, 3744, 3745, 3511, 3739, 3740, 3741, 3518, 3746, 3747, 3748, 3521, 3520, 3749, 3750
502, 3516, 3515, 3744, 3745, 3523, 3522, 3751, 3752, 3518, 3746, 3747, 3748, 3525, 3753, 3754, 3755, 3528, 3527, 3756, 3757
503, 3523, 3522, 3751, 3752, 3530, 3529, 3758, 3759, 3525, 3753, 3754, 3755, 3532, 3760, 3761, 3762, 3535, 3534, 3763, 3764
504, 3530, 3529, 3758, 3759, 3537, 3536, 3765, 3766, 3532, 3760, 3761, 3762, 3539, 3767, 3768, 3769, 3542, 3541, 3770, 3771
505, 3537, 3536, 3765, 3766, 3544, 3543, 3772, 3773, 3539, 3767, 3768, 3769, 3546, 3774, 3775, 3776, 3549, 3548, 3777, 3778
506, 3544, 3543, 3772, 3773, 3551, 3550, 3779, 3780, 3546, 3774, 3775, 3776, 3553, 3781, 3782, 3783, 3556, 3555, 3784, 3785
507, 3551, 3550, 3779, 3780, 3558, 3557, 3786, 3787, 3553, 3781, 3782, 3783, 3560, 3788, 3789, 3790, 3563, 3562, 3791, 3792
508, 3558, 3557, 3786, 3787, 3565, 3564, 3793, 3794, 3560, 3788, 3789, 3790, 3567, 3795, 3796, 3797, 3570, 3569, 3798, 3799
509, 3565, 3564, 3793, 3794, 3572, 3571, 3800, 3801, 3567, 3795, 3796, 3797, 3574, 3802, 3803, 3804, 3577, 3576, 3805, 3806
510, 3572, 3571, 3800, 3801, 3579, 3578, 3807, 3808, 3574, 3802, 3803, 3804, 3581, 3809, 3810, 3811, 3584, 3583, 3812, 3813
511, 3579, 3578, 3807, 3808, 3586, 3585, 3814, 3815, 3581, 3809, 3810, 3811, 3588, 3816, 3817, 3818, 3591, 3590, 3819, 3820
512, 3586, 3585, 3814, 3815, 3593, 3592, 3821, 3822, 3588, 3816, 3817, 3818, 3595, 3823, 3824, 3825, 3598, 3597, 3826, 3827
513, 3600, 3599, 3828, 3829, 3602, 3601, 3830, 3831, 3604, 3832, 3833, 3834, 3607, 3835, 3836, 3837, 3610, 3609, 3838, 3839
514, 3602, 3601, 3830, 3831, 3612, 3611, 3840, 3841, 3607, 3835, 3836, 3837, 3614, 3842, 3843, 3844, 3617, 3616, 3845, 3846
515, 3612, 3611, 3840, 3841, 3619, 3618, 3847, 3848, 3614, 3842, 3843, 3844, 3621, 3849, 3850, 3851, 3624, 3623, 3852, 3853
516, 3619, 3618, 3847, 3848, 3626, 3625, 3854, 3855, 3621, 3849, 3850, 3851, 3628, 3856, 3857, 3858, 3631, 3630, 3859, 3860
517, 3626, 3625, 3854, 3855, 3633, 3632, 3861, 3862, 3628, 3856, 3857, 3858, 3635, 3863, 3864, 3865, 3638, 3637, 3866, 3867
518, 3633, 3632, 3861, 3862, 3640, 3639, 3868, 3869, 3635, 3863, 3864, 3865, 3642, 3870, 3871, 3872, 3645, 3644, 3873, 3874
519, 3640, 3639, 3868, 3869, 3647, 3646, 3875, 3876, 3642, 3870, 3871, 3872, 3649, 3877, 3878, 3879, 3652, 3651, 3880, 3881
520, 3647, 3646, 3875, 3876, 3654, 3653, 3882, 3883, 3649, 3877, 3878, 3879, 3656, 3884, 3885, 3886, 3659, 3658, 3887, 3888
521, 3654, 3653, 3882, 3883, 3661, 3660, 3889, 3890, 3656, 3884, 3885, 3886, 3663, 3891, 3892, 3893, 3666, 3665, 3894, 3895
522, 3661, 3660, 3889, 3890, 3668, 3667, 3896, 3897, 3663, 3891, 3892, 3893, 3670, 3898, 3899, 3900, 3673, 3672, 3901, 3902
523, 3668, 3667, 3896, 3897, 3675, 3674, 3903, 3904, 3670, 3898, 3899, 3900, 3677, 3905, 3906, 3907, 3680, 3679, 3908, 3909
524, 3675, 3674, 3903, 3904, 3682, 3681, 3910, 3911, 3677, 3905, 3906, 3907, 3684, 3912, 3913, 3914, 3687, 3686, 3915, 3916
525, 3682, 3681, 3910, 3911, 3689, 3688, 3917, 3918, 3684, 3912, 3913, 3914, 3691, 3919, 3920, 3921, 3694, 3693, 3922, 3923
526, 3689, 3688, 3917, 3918, 3696, 3695, 3924, 3925, 3691, 3919, 3920, 3921, 3698, 3926, 3927, 3928, 3701, 3700, 3929, 3930
527, 3696, 3695, 3924, 3925, 3703, 3702, 3931, 3932, 3698, 3926, 3927, 3928, 3705, 3933, 3934, 3935, 3708, 3707, 3936, 3937
528, 3703, 3702, 3931, 3932, 3710, 3709, 3938, 3939, 3705, 3933, 3934, 3935, 3712, 3940, 3941, 3942, 3715, 3714, 3943, 3944
529, 3710, 3709, 3938, 3939, 3717, 3716, 3945, 3946, 3712, 3940, 3941, 3942, 3719, 3947, 3948, 3949, 3722, 3721, 3950, 3951
530, 3717, 3716, 3945, 3946, 3724, 3723, 3952, 3953, 3719, 3947, 3948, 3949, 3726, 3954, 3955, 3956, 3729, 3728, 3957, 3958
531, 3724, 3723, 3952, 3953, 3731, 3730, 3959, 3960, 3726, 3954, 3955, 3956, 3733, 3961, 3962, 3963, 3736, 3735, 3964, 3965
532, 3731, 3730, 3959, 3960, 3738, 3737, 3966, 3967, 3733, 3961, 3962, 3963, 3740, 3968, 3969, 3970, 3743, 3742, 3971, 3972
533, 3738, 3737, 3966, 3967, 3745, 3744, 3973, 3974, 3740, 3968, 3969, 3970, 3747, 3975, 3976, 3977, 3750, 3749, 3978, 3979
534, 3745, 3744, 3973, 3974, 3752, 3751, 3980, 3981, 3747, 3975, 3976, 3977, 3754, 3982, 3983, 3984, 3757, 3756, 3985, 3986
535, 3752, 3751, 3980, 3981, 3759, 3758, 3987, 3988, 3754, 3982, 3983, 3984, 3761, 3989, 3990, 3991, 3764, 3763, 3992, 3993
536, 3759, 3758, 3987, 3988, 3766, 3765, 3994, 3995, 3761, 3989, 3990, 3991, 3768, 3996, 3997, 3998, 3771, 3770, 3999, 4000
537, 3766, 3765, 3994, 3995, 3773, 3772, 4001, 4002, 3768, 3996, 3997, 3998, 3775, 4003, 4004, 4005, 3778, 3777, 4006, 4007
538, 3773, 3772, 4001, 4002, 3780, 3779, 4008, 4009, 3775, 4003, 4004, 4005, 3782, 4010, 4011, 4012, 3785, 3784, 4013, 4014
539, 3780, 3779, 4008, 4009, 3787, 3786, 4015, 4016, 3782, 4010, 4011, 4012, 3789, 4017, 4018, 4019, 3792, 3791, 4020, 4021
540, 3787, 3786, 4015, 4016, 3794, 3793, 4022, 4023, 3789, 4017, 4018, 4019, 3796, 4024, 4025, 4026, 3799, 3798, 4027, 4028
541, 3794, 3793, 4022, 4023, 3801, 3800, 4029, 4030, 3796, 4024, 4025, 4026, 3803, 4031, 4032, 4033, 3806, 3805, 4034, 4035
542, 3801, 3800, 4029, 4030, 3808, 3807, 4036, 4037, 3803, 4031, 4032, 4033, 3810, 4038, 4039, 4040, 3813, 3812, 4041, 4042
543, 3808, 3807, 4036, 4037, 3815, 3814, 4043, 4044, 3810, 4038, 4039, 4040, 3817, 4045, 4046, 4047, 3820, 3819, 4048, 4049
544, 3815, 3814, 4043, 4044, 3822, 3821, 4050, 4051, 3817, 4045, 4046, 4047, 3824, 4052, 4053, 4054, 3827, 3826, 4055, 4056
545, 3829, 3828, 4057, 4058, 3831, 3830, 4059, 4060, 3833, 4061, 4062, 4063, 3836, 4064, 4065, 4066, 3839, 3838, 4067, 4068
546, 3831, 3830, 4059, 4060, 3841, 3840, 4069, 4070, 3836, 4064, 4065, 4066, 3843, 4071, 4072, 4073, 3846, 3845, 4074, 4075
547, 3841, 3840, 4069, 4070, 3848, 3847, 4076, 4077, 3843, 4071, 4072, 4073, 3850, 4078, 4079, 4080, 3853, 3852, 4081, 4082
548, 3848, 3847, 4076, 4077, 3855, 3854, 4083, 4084, 3850, 4078, 4079, 4080, 3857, 4085, 4086, 4087, 3860, 3859, 4088, 4089
549, 3855, 3854, 4083, 4084, 3862, 3861, 4090, 4091, 3857, 4085, 4086, 4087, 3864, 4092, 4093, 4094, 3867, 3866, 4095, 4096
550, 3862, 3861, 4090, 4091, 3869, 3868, 4097, 4098, 3864, 4092, 4093, 4094, 3871, 4099, 4100, 4101, 3874, 3873, 4102, 4103
551, 3869, 3868, 4097, 4098, 3876, 3875, 4104, 4105, 3871, 4099, 4100, 4101, 3878, 4106, 4107, 4108, 3881, 3880, 4109, 4110
552, 3876, 3875, 4104, 4105, 3883, 3882, 4111, 4112, 3878, 4106, 4107, 4108, 3885, 4113, 4114, 4115, 3888, 3887, 4116, 4117
553, 3883, 3882, 4111, 4112, 3890, 3889, 4118, 4119, 3885, 4113, 4114, 4115, 3892, 4120, 4121, 4122, 3895, 3894, 4123, 4124
554, 3890, 3889, 4118, 4119, 3897, 3896, 4125, 4126, 3892, 4120, 4121, 4122, 3899, 4127, 4128, 4129, 3902, 3901, 4130, 4131
555, 3897, 3896, 4125, 4126, 3904, 3903, 4132, 4133, 3899, 4127, 4128, 4129, 3906, 4134, 4135, 4136, 3909, 3908, 4137, 4138
556, 3904, 3903, 4132, 4133, 3911, 3910, 4139, 4140, 3906, 4134, 4135, 4136, 3913, 4141, 4142, 4143, 3916, 3915, 4144, 4145
557, 3911, 3910, 4139, 4140, 3918, 3917, 4146, 4147, 3913, 4141, 4142, 4143, 3920, 4148, 4149, 4150, 3923, 3922, 4151, 4152
558, 3918, 3917, 4146, 4147, 3925, 3924, 4153, 4154, 3920, 4148, 4149, 4150, 3927, 4155, 4156, 4157, 3930, 3929, 4158, 4159
559, 3925, 3924, 4153, 4154, 3932, 3931, 4160, 4161, 3927, 4155, 4156, 4157, 3934, 4162, 4163, 4164, 3937, 3936, 4165, 4166
560, 3932, 3931, 4160, 4161, 3939, 3938, 4167, 4168, 3934, 4162, 4163, 4164, 3941, 4169, 4170, 4171, 3944, 3943, 4172, 4173
561, 3939, 3938, 4167, 4168, 3946, 3945, 4174, 4175, 3941, 4169, 4170, 4171, 3948, 4176, 4177, 4178, 3951, 3950, 4179, 4180
562, 3946, 3945, 4174, 4175, 3953, 3952, 4181, 4182, 3948, 4176, 4177, 4178, 3955, 4183, 4184, 4185, 3958, 3957, 4186, 4187
563, 3953, 3952, 4181, 4182, 3960, 3959, 4188, 4189, 3955, 4183, 4184, 4185, 3962, 4190, 4191, 4192, 3965, 3964, 4193, 4194
564, 3960, 3959, 4188, 4189, 3967, 3966, 4195, 4196, 3962, 4190, 4191, 4192, 3969, 4197, 4198, 4199, 3972, 3971, 4200, 4201
565, 3967, 3966, 4195, 4196, 3974, 3973, 4202, 4203, 3969, 4197, 4198, 4199, 3976, 4204, 4205, 4206, 3979, 3978, 4207, 4208
566, 3974, 3973, 4202, 4203, 3981, 3980, 4209, 4210, 3976, 4204, 4205, 4206, 3983, 4211, 4212, 4213, 3986, 3985, 4214, 4215
567, 3981, 3980, 4209, 4210, 3988, 3987, 4216, 4217, 3983, 4211, 4212, 4213, 3990, 4218, 4219, 4220, 3993, 3992, 4221, 4222
568, 3988, 3987, 4216, 4217, 3995, 3994, 4223, 4224, 3990, 4218, 4219, 4220, 3997, 4225, 4226, 4227, 4000, 3999, 4228, 4229
569, 3995, 3994, 4223, 4224, 4002, 4001, 4230, 4231, 3997, 4225, 4226, 4227, 4004, 4232, 4233, 4234, 4007, 4006, 4235, 4236
570, 4002, 4001, 4230, 4231, 4009, 4008, 4237, 4238, 4004, 4232, 4233, 4234, 4011, 4239, 4240, 4241, 4014, 4013, 4242, 4243
571, 4009, 4008, 4237, 4238, 4016, 4015, 4244, 4245, 4011, 4239, 4240, 4241, 4018, 4246, 4247, 4248, 4021, 4020, 4249, 4250
572, 4016, 4015, 4244, 4245, 4023, 4022, 4251, 4252, 4018, 4246, 4247, 4248, 4025, 4253, 4254, 4255, 4028, 4027, 4256, 4257
573, 4023, 4022, 4251, 4252, 4030, 4029, 4258, 4259, 4025, 4253, 4254, 4255, 4032, 4260, 4261, 4262, 4035, 4034, 4263, 4264
574, 4030, 4029, 4258, 4259, 4037, 4036, 4265, 4266, 4032, 4260, 4261, 4262, 4039, 4267, 4268, 4269, 4042, 4041, 4270, 4271
575, 4037, 4036, 4265, 4266, 4044, 4043, 4272, 4273, 4039, 4267, 4268, 4269, 4046, 4274, 4275, 4276, 4049, 4048, 4277, 4278
576, 4044, 4043, 4272, 4273, 4051, 4050, 4279, 4280, 4046, 4274, 4275, 4276, 4053, 4281, 4282, 4283, 4056, 4055, 4284, 4285
577, 4058, 4057, 4286, 4287, 4060, 4059, 4288, 4289, 4062, 4290, 4291, 4292, 4065, 4293, 4294, 4295, 4068, 4067, 4296, 4297
578, 4060, 4059, 4288, 4289, 4070, 4069, 4298, 4299, 4065, 4293, 4294, 4295, 4072, 4300, 4301, 4302, 4075, 4074, 4303, 4304
579, 4070, 4069, 4298, 4299, 4077, 4076, 4305, 4306, 4072, 4300, 4301, 4302, 4079, 4307, 4308, 4309, 4082, 4081, 4310, 4311
580, 4077, 4076, 4305, 4306, 4084, 4083, 4312, 4313, 4079, 4307, 4308, 4309, 4086, 4314, 4315, 4316, 4089, 4088, 4317, 4318
581, 4084, 4083, 4312, 4313, 4091, 4090, 4319, 4320, 4086, 4314, 4315, 4316, 4093, 4321, 4322, 4323, 4096, 4095, 4324, 4325
582, 4091, 4090, 4319, 4320, 4098, 4097, 4326, 4327, 4093, 4321, 4322, 4323, 4100, 4328, 4329, 4330, 4103, 4102, 4331, 4332
583, 4098, 4097, 4326, 4327, 4105, 4104, 4333, 4334, 4100, 4328, 4329, 4330, 4107, 4335, 4336, 4337, 4110, 4109, 4338, 4339
584, 4105, 4104, 4333, 4334, 4112, 4111, 4340, 4341, 4107, 4335, 4336, 4337, 4114, 4342, 4343, 4344, 4117, 4116, 4345, 4346
585, 4112, 4111, 4340, 4341, 4119, 4118, 4347, 4348, 4114, 4342, 4343, 4344, 4121, 4349, 4350, 4351, 4124, 4123, 4352, 4353
586, 4119, 4118, 4347, 4348, 4126, 4125, 4354, 4355, 4121, 4349, 4350, 4351, 4128, 4356, 4357, 4358, 4131, 4130, 4359, 4360
587, 4126, 4125, 4354, 4355, 4133, 4132, 4361, 4362, 4128, 4356, 4357, 4358, 4135, 4363, 4364, 4365, 4138, 4137, 4366, 4367
588, 4133, 4132, 4361, 4362, 4140, 4139, 4368, 4369, 4135, 4363, 4364, 4365, 4142, 4370, 4371, 4372, 4145, 4144, 4373, 4374
589, 4140, 4139, 4368, 4369, 4147, 4146, 4375, 4376, 4142, 4370, 4371, 4372, 4149, 4377, 4378, 4379, 4152, 4151, 4380, 4381
590, 4147, 4146, 4375, 4376, 4154, 4153, 4382, 4383, 4149, 4377, 4378, 4379, 4156, 4384, 4385, 4386, 4159, 4158, 4387, 4388
591, 4154, 4153, 4382, 4383, 4161, 4160, 4389, 4390, 4156, 4384, 4385, 4386, 4163, 4391, 4392, 4393, 4166, 4165, 4394, 4395
592, 4161, 4160, 4389, 4390, 4168, 4167, 4396, 4397, 4163, 4391, 4392, 4393, 4170, 4398, 4399, 4400, 4173, 4172, 4401, 4402
593, 4168, 4167, 4396, 4397, 4175, 4174, 4403, 4404, 4170, 4398, 4399, 4400, 4177, 4405, 4406, 4407, 4180, 4179, 4408, 4409
594, 4175, 4174, 4403, 4404, 4182, 4181, 4410, 4411, 4177, 4405, 4406, 4407, 4184, 4412, 4413, 4414, 4187, 4186, 4415, 4416
595, 4182, 4181, 4410, 4411, 4189, 4188, 4417, 4418, 4184, 4412, 4413, 4414, 4191, 4419, 4420, 4421, 4194, 4193, 4422, 4423
596, 4189, 4188, 4417, 4418, 4196, 4195, 4424, 4425, 4191, 4419, 4420, 4421, 4198, 4426, 4427, 4428, 4201, 4200, 4429, 4430
597, 4196, 4195, 4424, 4425, 4203, 4202, 4431, 4432, 4198, 4426, 4427, 4428, 4205, 4433, 4434, 4435, 4208, 4207, 4436, 4437
598, 4203, 4202, 4431, 4432, 4210, 4209, 4438, 4439, 4205, 4433, 4434, 4435, 4212, 4440, 4441, 4442, 4215, 4214, 4443, 4444
599, 4210, 4209, 4438, 4439, 4217, 4216, 4445, 4446, 4212, 4440, 4441, 4442, 4219, 4447, 4448, 4449, 4222, 4221, 4450, 4451
600, 4217, 4216, 4445, 4446, 4224, 4223, 4452, 4453, 4219, 4447, 4448, 4449, 4226, 4454, 4455, 4456, 4229, 4228, 4457, 4458
601, 4224, 4223, 4452, 4453, 4231, 4230, 4459, 4460, 4226, 4454, 4455, 4456, 4233, 4461, 4462, 4463, 4236, 4235, 4464, 4465
602, 4231, 4230, 4459, 4460, 4238, 4237, 4466, 4467, 4233, 4461, 4462, 4463, 4240, 4468, 4469, 4470, 4243, 4242, 4471, 4472
603, 4238, 4237, 4466, 4467, 4245, 4244, 4473, 4474, 4240, 4468, 4469, 4470, 4247, 4475, 4476, 4477, 4250, 4249, 4478, 4479
604, 4245, 4244, 4473, 4474, 4252, 4251, 4480, 4481, 4247, 4475, 4476, 4477, 4254, 4482, 4483, 4484, 4257, 4256, 4485, 4486
605, 4252, 4251, 4480, 4481, 4259, 4258, 4487, 4488, 4254, 4482, 4483, 4484, 4261, 4489, 4490, 4491, 4264, 4263, 4492, 4493
606, 4259, 4258, 4487, 4488, 4266, 4265, 4494, 4495, 4261, 4489, 4490, 4491, 4268, 4496, 4497, 4498, 4271, 4270, 4499, 4500
607, 4266, 4265, 4494, 4495, 4273, 4272, 4501, 4502, 4268, 4496, 4497, 4498, 4275, 4503, 4504, 4505, 4278, 4277, 4506, 4507
608, 4273, 4272, 4501, 4502, 4280, 4279, 4508, 4509, 4275, 4503, 4504, 4505, 4282, 4510, 4511, 4512, 4285, 4284, 4513, 4514
609, 4287, 4286, 4515, 4516, 4289, 4288, 4517, 4518, 4291, 4519, 4520, 4521, 4294, 4522, 4523, 4524, 4297, 4296, 4525, 4526
610, 4289, 4288, 4517, 4518, 4299, 4298, 4527, 4528, 4294, 4522, 4523, 4524, 4301, 4529, 4530, 4531, 4304, 4303, 4532, 4533
611, 4299, 4298, 4527, 4528, 4306, 4305, 4534, 4535, 4301, 4529, 4530, 4531, 4308, 4536, 4537, 4538, 4311, 4310, 4539, 4540
612, 4306, 4305, 4534, 4535, 4313, 4312, 4541, 4542, 4308, 4536, 4537, 4538, 4315, 4543, 4544, 4545, 4318, 4317, 4546, 4547
613, 4313, 4312, 4541, 4542, 4320, 4319, 4548, 4549, 4315, 4543, 4544, 4545, 4322, 4550, 4551, 4552, 4325, 4324, 4553, 4554
614, 4320, 4319, 4548, 4549, 4327, 4326, 4555, 4556, 4322, 4550, 4551, 4552, 4329, 4557, 4558, 4559, 4332, 4331, 4560, 4561
615, 4327, 4326, 4555, 4556, 4334, 4333, 4562, 4563, 4329, 4557, 4558, 4559, 4336, 4564, 4565, 4566, 4339, 4338, 4567, 4568
616, 4334, 4333, 4562, 4563, 4341, 4340, 4569, 4570, 4336, 4564, 4565, 4566, 4343, 4571, 4572, 4573, 4346, 4345, 4574, 4575
617, 4341, 4340, 4569, 4570, 4348, 4347, 4576, 4577, 4343, 4571, 4572, 4573, 4350, 4578, 4579, 4580, 4353, 4352, 4581, 4582
618, 4348, 4347, 4576, 4577, 4355, 4354, 4583, 4584, 4350, 4578, 4579, 4580, 4357, 4585, 4586, 4587, 4360, 4359, 4588, 4589
619, 4355, 4354, 4583, 4584, 4362, 4361, 4590, 4591, 4357, 4585, 4586, 4587, 4364, 4592, 4593, 4594, 4367, 4366, 4595, 4596
620, 4362, 4361, 4590, 4591, 4369, 4368, 4597, 4598, 4364, 4592, 4593, 4594, 4371, 4599, 4600, 4601, 4374, 4373, 4602, 4603
621, 4369, 4368, 4597, 4598, 4376, 4375, 4604, 4605, 4371, 4599, 4600, 4601, 4378, 4606, 4607, 4608, 4381, 4380, 4609, 4610
622, 4376, 4375, 4604, 4605, 4383, 4382, 4611, 4612, 4378, 4606, 4607, 4608, 4385, 4613, 4614, 4615, 4388, 4387, 4616, 4617
623, 4383, 4382, 4611, 4612, 4390, 4389, 4618, 4619, 4385, 4613, 4614, 4615, 4392, 4620, 4621, 4622, 4395, 4394, 4623, 4624
624, 4390, 4389, 4618, 4619, 4397, 4396, 4625, 4626, 4392, 4620, 4621, 4622, 4399, 4627, 4628, 4629, 4402, 4401, 4630, 4631
625, 4397, 4396, 4625, 4626, 4404, 4403, 4632, 4633, 4399, 4627, 4628, 4629, 4406, 4634, 4635, 4636, 4409, 4408, 4637, 4638
626, 4404, 4403, 4632, 4633, 4411, 4410, 4639, 4640, 4406, 4634, 4635, 4636, 4413, 4641, 4642, 4643, 4416, 4415, 4644, 4645
627, 4411, 4410, 4639, 4640, 4418, 4417, 4646, 4647, 4413, 4641, 4642, 4643, 4420, 4648, 4649, 4650, 4423, 4422, 4651, 4652
628, 4418, 4417, 4646, 4647, 4425, 4424, 4653, 4654, 4420, 4648, 4649, 4650, 4427, 4655, 4656, 4657, 4430, 4429, 4658, 4659
629, 4425, 4424, 4653, 4654, 4432, 4431, 4660, 4661, 4427, 4655, 4656, 4657, 4434, 4662, 4663, 4664, 4437, 4436, 4665, 4666
630, 4432, 4431, 4660, 4661, 4439, 4438, 4667, 4668, 4434, 4662, 4663, 4664, 4441, 4669, 4670, 4671, 4444, 4443, 4672, 4673
631, 4439, 4438, 4667, 4668, 4446, 4445, 4674, 4675, 4441, 4669, 4670, 4671, 4448, 4676, 4677, 4678, 4451, 4450, 4679, 4680
632, 4446, 4445, 4674, 4675, 4453, 4452, 4681, 4682, 4448, 4676, 4677, 4678, 4455, 4683, 4684, 4685, 4458, 4457, 4686, 4687
633, 4453, 4452, 4681, 4682, 4460, 4459, 4688, 4689, 4455, 4683, 4684, 4685, 4462, 4690, 4691, 4692, 4465, 4464, 4693, 4694
634, 4460, 4459, 4688, 4689, 4467, 4466, 4695, 4696, 4462, 4690, 4691, 4692, 4469, 4697, 4698, 4699, 4472, 4471, 4700, 4701
635, 4467, 4466, 4695, 4696, 4474, 4473, 4702, 4703, 4469, 4697, 4698, 4699, 4476, 4704, 4705, 4706, 4479, 4478, 4707, 4708
636, 4474, 4473, 4702, 4703, 4481, 4480, 4709, 4710, 4476, 4704, 4705, 4706, 4483, 4711, 4712, 4713, 4486, 4485, 4714, 4715
637, 4481, 4480, 4709, 4710, 4488, 4487, 4716, 4717, 4483, 4711, 4712, 4713, 4490, 4718, 4719, 4720, 4493, 4492, 4721, 4722
638, 4488, 4487, 4716, 4717, 4495, 4494, 4723, 4724, 4490, 4718, 4719, 4720, 4497, 4725, 4726, 4727, 4500, 4499, 4728, 4729
639, 4495, 4494, 4723, 4724, 4502, 4501, 4730, 4731, 4497, 4725, 4726, 4727, 4504, 4732, 4733, 4734, 4507, 4506, 4735, 4736
640, 4502, 4501, 4730, 4731, 4509, 4508, 4737, 4738, 4504, 4732, 4733, 4734, 4511, 4739, 4740, 4741, 4514, 4513, 4742, 4743
641, 4516, 4515, 4744, 4745, 4518, 4517, 4746, 4747, 4520, 4748, 4749, 4750, 4523, 4751, 4752, 4753, 4526, 4525, 4754, 4755
642, 4518, 4517, 4746, 4747, 4528, 4527, 4756, 4757, 4523, 4751, 4752, 4753, 4530, 4758, 4759, 4760, 4533, 4532, 4761, 4762
643, 4528, 4527, 4756, 4757, 4535, 4534, 4763, 4764, 4530, 4758, 4759, 4760, 4537, 4765, 4766, 4767, 4540, 4539, 4768, 4769
644, 4535, 4534, 4763, 4764, 4542, 4541, 4770, 4771, 4537, 4765, 4766, 4767, 4544, 4772, 4773, 4774, 4547, 4546, 4775, 4776
645, 4542, 4541, 4770, 4771, 4549, 4548, 4777, 4778, 4544, 4772, 4773, 4774, 4551, 4779, 4780, 4781, 4554, 4553, 4782, 4783
646, 4549, 4548, 4777, 4778, 4556, 4555, 4784, 4785, 4551, 4779, 4780, 4781, 4558, 4786, 4787, 4788, 4561, 4560, 4789, 4790
647, 4556, 4555, 4784, 4785, 4563, 4562, 4791, 4792, 4558, 4786, 4787, 4788, 4565, 4793, 4794, 4795, 4568, 4567, 4796, 4797
648, 4563, 4562, 4791, 4792, 4570, 4569, 4798, 4799, 4565, 4793, 4794, 4795, 4572, 4800, 4801, 4802, 4575, 4574, 4803, 4804
649, 4570, 4569, 4798, 4799, 4577, 4576, 4805, 4806, 4572, 4800, 4801, 4802, 4579, 4807, 4808, 4809, 4582, 4581, 4810, 4811
650, 4577, 4576, 4805, 4806, 4584, 4583, 4812, 4813, 4579, 4807, 4808, 4809, 4586, 4814, 4815, 4816, 4589, 4588, 4817, 4818
651, 4584, 4583, 4812, 4813, 4591, 4590, 4819, 4820, 4586, 4814, 4815, 4816, 4593, 4821, 4822, 4823, 4596, 4595, 4824, 4825
652, 4591, 4590, 4819, 4820, 4598, 4597, 4826, 4827, 4593, 4821, 4822, 4823, 4600, 4828, 4829, 4830, 4603, 4602, 4831, 4832
653, 4598, 4597, 4826, 4827, 4605, 4604, 4833, 4834, 4600, 4828, 4829, 4830, 4607, 4835, 4836, 4837, 4610, 4609, 4838, 4839
654, 4605, 4604, 4833, 4834, 4612, 4611, 4840, 4841, 4607, 4835, 4836, 4837, 4614, 4842, 4843, 4844, 4617, 4616, 4845, 4846
655, 4612, 4611, 4840, 4841, 4619, 4618, 4847, 4848, 4614, 4842, 4843, 4844, 4621, 4849, 4850, 4851, 4624, 4623, 4852, 4853
656, 4619, 4618, 4847, 4848, 4626, 4625, 4854, 4855, 4621, 4849, 4850, 4851, 4628, 4856, 4857, 4858, 4631, 4630, 4859, 4860
657, 4626, 4625, 4854, 4855, 4633, 4632, 4861, 4862, 4628, 4856, 4857, 4858, 4635, 4863, 4864, 4865, 4638, 4637, 4866, 4867
658, 4633, 4632, 4861, 4862, 4640, 4639, 4868, 4869, 4635, 4863, 4864, 4865, 4642, 4870, 4871, 4872, 4645, 4644, 4873, 4874
659, 4640, 4639, 4868, 4869, 4647, 4646, 4875, 4876, 4642, 4870, 4871, 4872, 4649, 4877, 4878, 4879, 4652, 4651, 4880, 4881
660, 4647, 4646, 4875, 4876, 4654, 4653, 4882, 4883, 4649, 4877, 4878, 4879, 4656, 4884, 4885, 4886, 4659, 4658, 4887, 4888
661, 4654, 4653, 4882, 4883, 4661, 4660, 4889, 4890, 4656, 4884, 4885, 4886, 4663, 4891, 4892, 4893, 4666, 4665, 4894, 4895
662, 4661, 4660, 4889, 4890, 4668, 4667, 4896, 4897, 4663, 4891, 4892, 4893, 4670, 4898, 4899, 4900, 4673, 4672, 4901, 4902
663, 4668, 4667, 4896, 4897, 4675, 4674, 4903, 4904, 4670, 4898, 4899, 4900, 4677, 4905, 4906, 4907, 4680, 4679, 4908, 4909
664, 4675, 4674, 4903, 4904, 4682, 4681, 4910, 4911, 4677, 4905, 4906, 4907, 4684, 4912, 4913, 4914, 4687, 4686, 4915, 4916
665, 4682, 4681, 4910, 4911, 4689, 4688, 4917, 4918, 4684, 4912, 4913, 4914, 4691, 4919, 4920, 4921, 4694, 4693, 4922, 4923
666, 4689, 4688, 4917, 4918, 4696, 4695, 4924, 4925, 4691, 4919, 4920, 4921, 4698, 4926, 4927, 4928, 4701, 4700, 4929, 4930
667, 4696, 4695, 4924, 4925, 4703, 4702, 4931, 4932, 4698, 4926, 4927, 4928, 4705, 4933, 4934, 4935, 4708, 4707, 4936, 4937
668, 4703, 4702, 4931, 4932, 4710, 4709, 4938, 4939, 4705, 4933, 4934, 4935, 4712, 4940, 4941, 4942, 4715, 4714, 4943, 4944
669, 4710, 4709, 4938, 4939, 4717, 4716, 4945, 4946, 4712, 4940, 4941, 4942, 4719, 4947, 4948, 4949, 4722, 4721, 4950, 4951
670, 4717, 4716, 4945, 4946, 4724, 4723, 4952, 4953, 4719, 4947, 4948, 4949, 4726, 4954, 4955, 4956, 4729, 4728, 4957, 4958
671, 4724, 4723, 4952, 4953, 4731, 4730, 4959, 4960, 4726, 4954, 4955, 4956, 4733, 4961, 4962, 4963, 4736, 4735, 4964, 4965
672, 4731, 4730, 4959, 4960, 4738, 4737, 4966, 4967, 4733, 4961, 4962, 4963, 4740, 4968, 4969, 4970, 4743, 4742, 4971, 4972
673, 4745, 4744, 4973, 4974, 4747, 4746, 4975, 4976, 4749, 4977, 4978, 4979, 4752, 4980, 4981, 4982, 4755, 4754, 4983, 4984
674, 4747, 4746, 4975, 4976, 4757, 4756, 4985, 4986, 4752, 4980, 4981, 4982, 4759, 4987, 4988, 4989, 4762, 4761, 4990, 4991
675, 4757, 4756, 4985, 4986, 4764, 4763, 4992, 4993, 4759, 4987, 4988, 4989, 4766, 4994, 4995, 4996, 4769, 4768, 4997, 4998
676, 4764, 4763, 4992, 4993, 4771, 4770, 4999, 5000, 4766, 4994, 4995, 4996, 4773, 5001, 5002, 5003, 4776, 4775, 5004, 5005
677, 4771, 4770, 4999, 5000, 4778, 4777, 5006, 5007, 4773, 5001, 5002, 5003, 4780, 5008, 5009, 5010, 4783, 4782, 5011, 5012
678, 4778, 4777, 5006, 5007, 4785, 4784, 5013, 5014, 4780, 5008, 5009, 5010, 4787, 5015, 5016, 5017, 4790, 4789, 5018, 5019
679, 4785, 4784, 5013, 5014, 4792, 4791, 5020, 5021, 4787, 5015, 5016, 5017, 4794, 5022, 5023, 5024, 4797, 4796, 5025, 5026
680, 4792, 4791, 5020, 5021, 4799, 4798, 5027, 5028, 4794, 5022, 5023, 5024, 4801, 5029, 5030, 5031, 4804, 4803, 5032, 5033
681, 4799, 4798, 5027, 5028, 4806, 4805, 5034, 5035, 4801, 5029, 5030, 5031, 4808, 5036, 5037, 5038, 4811, 4810, 5039, 5040
682, 4806, 4805, 5034, 5035, 4813, 4812, 5041, 5042, 4808, 5036, 5037, 5038, 4815, 5043, 5044, 5045, 4818, 4817, 5046, 5047
683, 4813, 4812, 5041, 5042, 4820, 4819, 5048, 5049, 4815, 5043, 5044, 5045, 4822, 5050, 5051, 5052, 4825, 4824, 5053, 5054
684, 4820, 4819, 5048, 5049, 4827, 4826, 5055, 5056, 4822, 5050, 5051, 5052, 4829, 5057, 5058, 5059, 4832, 4831, 5060, 5061
685, 4827, 4826, 5055, 5056, 4834, 4833, 5062, 5063, 4829, 5057, 5058, 5059, 4836, 5064, 5065, 5066, 4839, 4838, 5067, 5068
686, 4834, 4833, 5062, 5063, 4841, 4840, 5069, 5070, 4836, 5064, 5065, 5066, 4843, 5071, 5072, 5073, 4846, 4845, 5074, 5075
687, 4841, 4840, 5069, 5070, 4848, 4847, 5076, 5077, 4843, 5071, 5072, 5073, 4850, 5078, 5079, 5080, 4853, 4852, 5081, 5082
688, 4848, 4847, 5076, 5077, 4855, 4854, 5083, 5084, 4850, 5078, 5079, 5080, 4857, 5085, 5086, 5087, 4860, 4859, 5088, 5089
689, 4855, 4854, 5083, 5084, 4862, 4861, 5090, 5091, 4857, 5085, 5086, 5087, 4864, 5092, 5093, 5094, 4867, 4866, 5095, 5096
690, 4862, 4861, 5090, 5091, 4869, 4868, 5097, 5098, 4864, 5092, 5093, 5094, 4871, 5099, 5100, 5101, 4874, 4873, 5102, 5103
691, 4869, 4868, 5097, 5098, 4876, 4875, 5104, 5105, 4871, 5099, 5100, 5101, 4878, 5106, 5107, 5108, 4881, 4880, 5109, 5110
692, 4876, 4875, 5104, 5105, 4883, 4882, 5111, 5112, 4878, 5106, 5107, 5108, 4885, 5113, 5114, 5115, 4888, 4887, 5116, 5117
693, 4883, 4882, 5111, 5112, 4890, 4889, 5118, 5119, 4885, 5113, 5114, 5115, 4892, 5120, 5121, 5122, 4895, 4894, 5123, 5124
694, 4890, 4889, 5118, 5119, 4897, 4896, 5125, 5126, 4892, 5120, 5121, 5122, 4899, 5127, 5128, 5129, 4902, 4901, 5130, 5131
695, 4897, 4896, 5125, 5126, 4904, 4903, 5132, 5133, 4899, 5127, 5128, 5129, 4906, 5134, 5135, 5136, 4909, 4908, 5137, 5138
696, 4904, 4903, 5132, 5133, 4911, 4910, 5139, 5140, 4906, 5134, 5135, 5136, 4913, 5141, 5142, 5143, 4916, 4915, 5144, 5145
697, 4911, 4910, 5139, 5140, 4918, 4917, 5146, 5147, 4913, 5141, 5142, 5143, 4920, 5148, 5149, 5150, 4923, 4922, 5151, 5152
698, 4918, 4917, 5146, 5147, 4925, 4924, 5153, 5154, 4920, 5148, 5149, 5150, 4927, 5155, 5156, 5157, 4930, 4929, 5158, 5159
699, 4925, 4924, 5153, 5154, 4932, 4931, 5160, 5161, 4927, 5155, 5156, 5157, 4934, 5162, 5163, 5164, 4937, 4936, 5165, 5166
700, 4932, 4931, 5160, 5161, 4939, 4938, 5167, 5168, 4934, 5162, 5163, 5164, 4941, 5169, 5170, 5171, 4944, 4943, 5172, 5173
701, 4939, 4938, 5167, 5168, 4946, 4945, 5174, 5175, 4941, 5169, 5170, 5171, 4948, 5176, 5177, 5178, 4951, 4950, 5179, 5180
702, 4946, 4945, 5174, 5175, 4953, 4952, 5181, 5182, 4948, 5176, 5177, 5178, 4955, 5183, 5184, 5185, 4958, 4957, 5186, 5187
703, 4953, 4952, 5181, 5182, 4960, 4959, 5188, 5189, 4955, 5183, 5184, 5185, 4962, 5190, 5191, 5192, 4965, 4964, 5193, 5194
704, 4960, 4959, 5188, 5189, 4967, 4966, 5195, 5196, 4962, 5190, 5191, 5192, 4969, 5197, 5198, 5199, 4972, 4971, 5200, 5201
705, 4974, 4973, 5202, 5203, 4976, 4975, 5204, 5205, 4978, 5206, 5207, 5208, 4981, 5209, 5210, 5211, 4984, 4983, 5212, 5213
706, 4976, 4975, 5204, 5205, 4986, 4985, 5214, 5215, 4981, 5209, 5210, 5211, 4988, 5216, 5217, 5218, 4991, 4990, 5219, 5220
707, 4986, 4985, 5214, 5215, 4993, 4992, 5221, 5222, 4988, 5216, 5217, 5218, 4995, 5223, 5224, 5225, 4998, 4997, 5226, 5227
708, 4993, 4992, 5221, 5222, 5000, 4999, 5228, 5229, 4995, 5223, 5224, 5225, 5002, 5230, 5231, 5232, 5005, 5004, 5233, 5234
709, 5000, 4999, 5228, 5229, 5007, 5006, 5235, 5236, 5002, 5230, 5231, 5232, 5009, 5237, 5238, 5239, 5012, 5011, 5240, 5241
710, 5007, 5006, 5235, 5236, 5014, 5013, 5242, 5243, 5009, 5237, 5238, 5239, 5016, 5244, 5245, 5246, 5019, 5018, 5247, 5248
711, 5014, 5013, 5242, 5243, 5021, 5020, 5249, 5250, 5016, 5244, 5245, 5246, 5023, 5251, 5252, 5253, 5026, 5025, 5254, 5255
712, 5021, 5020, 5249, 5250, 5028, 5027, 5256, 5257, 5023, 5251, 5252, 5253, 5030, 5258, 5259, 5260, 5033, 5032, 5261, 5262
713, 5028, 5027, 5256, 5257, 5035, 5034, 5263, 5264, 5030, 5258, 5259, 5260, 5037, 5265, 5266, 5267, 5040, 5039, 5268, 5269
714, 5035, 5034, 5263, 5264, 5042, 5041, 5270, 5271, 5037, 5265, 5266, 5267, 5044, 5272, 5273, 5274, 5047, 5046, 5275, 5276
715, 5042, 5041, 5270, 5271, 5049, 5048, 5277, 5278, 5044, 5272, 5273, 5274, 5051, 5279, 5280, 5281, 5054, 5053, 5282, 5283
716, 5049, 5048, 5277, 5278, 5056, 5055, 5284, 5285, 5051, 5279, 5280, 5281, 5058, 5286, 5287, 5288, 5061, 5060, 5289, 5290
717, 5056, 5055, 5284, 5285, 5063, 5062, 5291, 5292, 5058, 5286, 5287, 5288, 5065, 5293, 5294, 5295, 5068, 5067, 5296, 5297
718, 5063, 5062, 5291, 5292, 5070, 5069, 5298, 5299, 5065, 5293, 5294, 5295, 5072, 5300, 5301, 5302, 5075, 5074, 5303, 5304
719, 5070, 5069, 5298, 5299, 5077, 5076, 5305, 5306, 5072, 5300, 5301, 5302, 5079, 5307, 5308, 5309, 5082, 5081, 5310, 5311
720, 5077, 5076, 5305, 5306, 5084, 5083, 5312, 5313, 5079, 5307, 5308, 5309, 5086, 5314, 5315, 5316, 5089, 5088, 5317, 5318
721, 5084, 5083, 5312, 5313, 5091, 5090, 5319, 5320, 5086, 5314, 5315, 5316, 5093, 5321, 5322, 5323, 5096, 5095, 5324, 5325
722, 5091, 5090, 5319, 5320, 5098, 5097, 5326, 5327, 5093, 5321, 5322, 5323, 5100, 5328, 5329, 5330, 5103, 5102, 5331, 5332
723, 5098, 5097, 5326, 5327, 5105, 5104, 5333, 5334, 5100, 5328, 5329, 5330, 5107, 5335, 5336, 5337, 5110, 5109, 5338, 5339
724, 5105, 5104, 5333, 5334, 5112, 5111, 5340, 5341, 5107, 5335, 5336, 5337, 5114, 5342, 5343, 5344, 5117, 5116, 5345, 5346
725, 5112, 5111, 5340, 5341, 5119, 5118, 5347, 5348, 5114, 5342, 5343, 5344, 5121, 5349, 5350, 5351, 5124, 5123, 5352, 5353
726, 5119, 5118, 5347, 5348, 5126, 5125, 5354, 5355, 5121, 5349, 5350, 5351, 5128, 5356, 5357, 5358, 5131, 5130, 5359, 5360
727, 5126, 5125, 5354, 5355, 5133, 5132, 5361, 5362, 5128, 5356, 5357, 5358, 5135, 5363, 5364, 5365, 5138, 5137, 5366, 5367
728, 5133, 5132, 5361, 5362, 5140, 5139, 5368, 5369, 5135, 5363, 5364, 5365, 5142, 5370, 5371, 5372, 5145, 5144, 5373, 5374
729, 5140, 5139, 5368, 5369, 5147, 5146, 5375, 5376, 5142, 5370, 5371, 5372, 5149, 5377, 5378, 5379, 5152, 5151, 5380, 5381
730, 5147, 5146, 5375, 5376, 5154, 5153, 5382, 5383, 5149, 5377, 5378, 5379, 5156, 5384, 5385, 5386, 5159, 5158, 5387, 5388
731, 5154, 5153, 5382, 5383, 5161, 5160, 5389, 5390, 5156, 5384, 5385, 5386, 5163, 5391, 5392, 5393, 5166, 5165, 5394, 5395
732, 5161, 5160, 5389, 5390, 5168, 5167, 5396, 5397, 5163, 5391, 5392, 5393, 5170, 5398, 5399, 5400, 5173, 5172, 5401, 5402
733, 5168, 5167, 5396, 5397, 5175, 5174, 5403, 5404, 5170, 5398, 5399, 5400, 5177, 5405, 5406, 5407, 5180, 5179, 5408, 5409
734, 5175, 5174, 5403, 5404, 5182, 5181, 5410, 5411, 5177, 5405, 5406, 5407, 5184, 5412, 5413, 5414, 5187, 5186, 5415, 5416
735, 5182, 5181, 5410, 5411, 5189, 5188, 5417, 5418, 5184, 5412, 5413, 5414, 5191, 5419, 5420, 5421, 5194, 5193, 5422, 5423
736, 5189, 5188, 5417, 5418, 5196, 5195, 5424, 5425, 5191, 5419, 5420, 5421, 5198, 5426, 5427, 5428, 5201, 5200, 5429, 5430
737, 5203, 5202, 5431, 5432, 5205, 5204, 5433, 5434, 5207, 5435, 5436, 5437, 5210, 5438, 5439, 5440, 5213, 5212, 5441, 5442
738, 5205, 5204, 5433, 5434, 5215, 5214, 5443, 5444, 5210, 5438, 5439, 5440, 5217, 5445, 5446, 5447, 5220, 5219, 5448, 5449
739, 5215, 5214, 5443, 5444, 5222, 5221, 5450, 5451, 5217, 5445, 5446, 5447, 5224, 5452, 5453, 5454, 5227, 5226, 5455, 5456
740, 5222, 5221, 5450, 5451, 5229, 5228, 5457, 5458, 5224, 5452, 5453, 5454, 5231, 5459, 5460, 5461, 5234, 5233, 5462, 5463
741, 5229, 5228, 5457, 5458, 5236, 5235, 5464, 5465, 5231, 5459, 5460, 5461, 5238, 5466, 5467, 5468, 5241, 5240, 5469, 5470
742, 5236, 5235, 5464, 5465, 5243, 5242, 5471, 5472, 5238, 5466, 5467, 5468, 5245, 5473, 5474, 5475, 5248, 5247, 5476, 5477
743, 5243, 5242, 5471, 5472, 5250, 5249, 5478, 5479, 5245, 5473, 5474, 5475, 5252, 5480, 5481, 5482, 5255, 5254, 5483, 5484
744, 5250, 5249, 5478, 5479, 5257, 5256, 5485, 5486, 5252, 5480, 5481, 5482, 5259, 5487, 5488, 5489, 5262, 5261, 5490, 5491
745, 5257, 5256, 5485, 5486, 5264, 5263, 5492, 5493, 5259, 5487, 5488, 5489, 5266, 5494, 5495, 5496, 5269, 5268, 5497, 5498
746, 5264, 5263, 5492, 5493, 5271, 5270, 5499, 5500, 5266, 5494, 5495, 5496, 5273, 5501, 5502, 5503, 5276, 5275, 5504, 5505
747, 5271, 5270, 5499, 5500, 5278, 5277, 5506, 5507, 5273, 5501, 5502, 5503, 5280, 5508, 5509, 5510, 5283, 5282, 5511, 5512
748, 5278, 5277, 5506, 5507, 5285, 5284, 5513, 5514, 5280, 5508, 5509, 5510, 5287, 5515, 5516, 5517, 5290, 5289, 5518, 5519
749, 5285, 5284, 5513, 5514, 5292, 5291, 5520, 5521, 5287, 5515, 5516, 5517, 5294, 5522, 5523, 5524, 5297, 5296, 5525, 5526
750, 5292, 5291, 5520, 5521, 5299, 5298, 5527, 5528, 5294, 5522, 5523, 5524, 5301, 5529, 5530, 5531, 5304, 5303, 5532, 5533
751, 5299, 5298, 5527, 5528, 5306, 5305, 5534, 5535, 5301, 5529, 5530, 5531, 5308, 5536, 5537, 5538, 5311, 5310, 5539, 5540
752, 5306, 5305, 5534, 5535, 5313, 5312, 5541, 5542, 5308, 5536, 5537, 5538, 5315, 5543, 5544, 5545, 5318, 5317, 5546, 5547
753, 5313, 5312, 5541, 5542, 5320, 5319, 5548, 5549, 5315, 5543, 5544, 5545, 5322, 5550, 5551, 5552, 5325, 5324, 5553, 5554
754, 5320, 5319, 5548, 5549, 5327, 5326, 5555, 5556, 5322, 5550, 5551, 5552, 5329, 5557, 5558, 5559, 5332, 5331, 5560, 5561
755, 5327, 5326, 5555, 5556, 5334, 5333, 5562, 5563, 5329, 5557, 5558, 5559, 5336, 5564, 5565, 5566, 5339, 5338, 5567, 5568
756, 5334, 5333, 5562, 5563, 5341, 5340, 5569, 5570, 5336, 5564, 5565, 5566, 5343, 5571, 5572, 5573, 5346, 5345, 5574, 5575
757, 5341, 5340, 5569, 5570, 5348, 5347, 5576, 5577, 5343, 5571, 5572, 5573, 5350, 5578, 5579, 5580, 5353, 5352, 5581, 5582
758, 5348, 5347, 5576, 5577, 5355, 5354, 5583, 5584, 5350, 5578, 5579, 5580, 5357, 5585, 5586, 5587, 5360, 5359, 5588, 5589
759, 5355, 5354, 5583, 5584, 5362, 5361, 5590, 5591, 5357, 5585, 5586, 5587, 5364, 5592, 5593, 5594, 5367, 5366, 5595, 5596
760, 5362, 5361, 5590, 5591, 5369, 5368, 5597, 5598, 5364, 5592, 5593, 5594, 5371, 5599, 5600, 5601, 5374, 5373, 5602, 5603
761, 5369, 5368, 5597, 5598, 5376, 5375, 5604, 5605, 5371, 5599, 5600, 5601, 5378, 5606, 5607, 5608, 5381, 5380, 5609, 5610
762, 5376, 5375, 5604, 5605, 5383, 5382, 5611, 5612, 5378, 5606, 5607, 5608, 5385, 5613, 5614, 5615, 5388, 5387, 5616, 5617
763, 5383, 5382, 5611, 5612, 5390, 5389, 5618, 5619, 5385, 5613, 5614, 5615, 5392, 5620, 5621, 5622, 5395, 5394, 5623, 5624
764, 5390, 5389, 5618, 5619, 5397, 5396, 5625, 5626, 5392, 5620, 5621, 5622, 5399, 5627, 5628, 5629, 5402, 5401, 5630, 5631
765, 5397, 5396, 5625, 5626, 5404, 5403, 5632, 5633, 5399, 5627, 5628, 5629, 5406, 5634, 5635, 5636, 5409, 5408, 5637, 5638
766, 5404, 5403, 5632, 5633, 5411, 5410, 5639, 5640, 5406, 5634, 5635, 5636, 5413, 5641, 5642, 5643, 5416, 5415, 5644, 5645
767, 5411, 5410, 5639, 5640, 5418, 5417, 5646, 5647, 5413, 5641, 5642, 5643, 5420, 5648, 5649, 5650, 5423, 5422, 5651, 5652
768, 5418, 5417, 5646, 5647, 5425, 5424, 5653, 5654, 5420, 5648, 5649, 5650, 5427, 5655, 5656, 5657, 5430, 5429, 5658, 5659
769, 5432, 5431, 5660, 5661, 5434, 5433, 5662, 5663, 5436, 5664, 5665, 5666, 5439, 5667, 5668, 5669, 5442, 5441, 5670, 5671
770, 5434, 5433, 5662, 5663, 5444, 5443, 5672, 5673, 5439, 5667, 5668, 5669, 5446, 5674, 5675, 5676, 5449, 5448, 5677, 5678
771, 5444, 5443, 5672, 5673, 5451, 5450, 5679, 5680, 5446, 5674, 5675, 5676, 5453, 5681, 5682, 5683, 5456, 5455, 5684, 5685
772, 5451, 5450, 5679, 5680, 5458, 5457, 5686, 5687, 5453, 5681, 5682, 5683, 5460, 5688, 5689, 5690, 5463, 5462, 5691, 5692
773, 5458, 5457, 5686, 5687, 5465, 5464, 5693, 5694, 5460, 5688, 5689, 5690, 5467, 5695, 5696, 5697, 5470, 5469, 5698, 5699
774, 5465, 5464, 5693, 5694, 5472, 5471, 5700, 5701, 5467, 5695, 5696, 5697, 5474, 5702, 5703, 5704, 5477, 5476, 5705, 5706
775, 5472, 5471, 5700, 5701, 5479, 5478, 5707, 5708, 5474, 5702, 5703, 5704, 5481, 5709, 5710, 5711, 5484, 5483, 5712, 5713
776, 5479, 5478, 5707, 5708, 5486, 5485, 5714, 5715, 5481, 5709, 5710, 5711, 5488, 5716, 5717, 5718, 5491, 5490, 5719, 5720
777, 5486, 5485, 5714, 5715, 5493, 5492, 5721, 5722, 5488, 5716, 5717, 5718, 5495, 5723, 5724, 5725, 5498, 5497, 5726, 5727
778, 5493, 5492, 5721, 5722, 5500, 5499, 5728, 5729, 5495, 5723, 5724, 5725, 5502, 5730, 5731, 5732, 5505, 5504, 5733, 5734
779, 5500, 5499, 5728, 5729, 5507, 5506, 5735, 5736, 5502, 5730, 5731, 5732, 5509, 5737, 5738, 5739, 5512, 5511, 5740, 5741
780, 5507, 5506, 5735, 5736, 5514, 5513, 5742, 5743, 5509, 5737, 5738, 5739, 5516, 5744, 5745, 5746, 5519, 5518, 5747, 5748
781, 5514, 5513, 5742, 5743, 5521, 5520, 5749, 5750, 5516, 5744, 5745, 5746, 5523, 5751, 5752, 5753, 5526, 5525, 5754, 5755
782, 5521, 5520, 5749, 5750, 5528, 5527, 5756, 5757, 5523, 5751, 5752, 5753, 5530, 5758, 5759, 5760, 5533, 5532, 5761, 5762
783, 5528, 5527, 5756, 5757, 5535, 5534, 5763, 5764, 5530, 5758, 5759, 5760, 5537, 5765, 5766, 5767, 5540, 5539, 5768, 5769
784, 5535, 5534, 5763, 5764, 5542, 5541, 5770, 5771, 5537, 5765, 5766, 5767, 5544, 5772, 5773, 5774, 5547, 5546, 5775, 5776
785, 5542, 5541, 5770, 5771, 5549, 5548, 5777, 5778, 5544, 5772, 5773, 5774, 5551, 5779, 5780, 5781, 5554, 5553, 5782, 5783
786, 5549, 5548, 5777, 5778, 5556, 5555, 5784, 5785, 5551, 5779, 5780, 5781, 5558, 5786, 5787, 5788, 5561, 5560, 5789, 5790
787, 5556, 5555, 5784, 5785, 5563, 5562, 5791, 5792, 5558, 5786, 5787, 5788, 5565, 5793, 5794, 5795, 5568, 5567, 5796, 5797
788, 5563, 5562, 5791, 5792, 5570, 5569, 5798, 5799, 5565, 5793, 5794, 5795, 5572, 5800, 5801, 5802, 5575, 5574, 5803, 5804
789, 5570, 5569, 5798, 5799, 5577, 5576, 5805, 5806, 5572, 5800, 5801, 5802, 5579, 5807, 5808, 5809, 5582, 5581, 5810, 5811
790, 5577, 5576, 5805, 5806, 5584, 5583, 5812, 5813, 5579, 5807, 5808, 5809, 5586, 5814, 5815, 5816, 5589, 5588, 5817, 5818
791, 5584, 5583, 5812, 5813, 5591, 5590, 5819, 5820, 5586, 5814, 5815, 5816, 5593, 5821, 5822, 5823, 5596, 5595, 5824, 5825
792, 5591, 5590, 5819, 5820, 5598, 5597, 5826, 5827, 5593, 5821, 5822, 5823, 5600, 5828, 5829, 5830, 5603, 5602, 5831, 5832
793, 5598, 5597, 5826, 5827, 5605, 5604, 5833, 5834, 5600, 5828, 5829, 5830, 5607, 5835, 5836, 5837, 5610, 5609, 5838, 5839
794, 5605, 5604, 5833, 5834, 5612, 5611, 5840, 5841, 5607, 5835, 5836, 5837, 5614, 5842, 5843, 5844, 5617, 5616, 5845, 5846
795, 5612, 5611, 5840, 5841, 5619, 5618, 5847, 5848, 5614, 5842, 5843, 5844, 5621, 5849, 5850, 5851, 5624, 5623, 5852, 5853
796, 5619, 5618, 5847, 5848, 5626, 5625, 5854, 5855, 5621, 5849, 5850, 5851, 5628, 5856, 5857, 5858, 5631, 5630, 5859, 5860
797, 5626, 5625, 5854, 5855, 5633, 5632, 5861, 5862, 5628, 5856, 5857, 5858, 5635, 5863, 5864, 5865, 5638, 5637, 5866, 5867
798, 5633, 5632, 5861, 5862, 5640, 5639, 5868, 5869, 5635, 5863, 5864, 5865, 5642, 5870, 5871, 5872, 5645, 5644, 5873, 5874
799, 5640, 5639, 5868, 5869, 5647, 5646, 5875, 5876, 5642, 5870, 5871, 5872, 5649, 5877, 5878, 5879, 5652, 5651, 5880, 5881
800, 5647, 5646, 5875, 5876, 5654, 5653, 5882, 5883, 5649, 5877, 5878, 5879, 5656, 5884, 5885, 5886, 5659, 5658, 5887, 5888
801, 5661, 5660, 5889, 5890, 5663, 5662, 5891, 5892, 5665, 5893, 5894, 5895, 5668, 5896, 5897, 5898, 5671, 5670, 5899, 5900
802, 5663, 5662, 5891, 5892, 5673, 5672, 5901, 5902, 5668, 5896, 5897, 5898, 5675, 5903, 5904, 5905, 5678, 5677, 5906, 5907
803, 5673, 5672, 5901, 5902, 5680, 5679, 5908, 5909, 5675, 5903, 5904, 5905, 5682, 5910, 5911, 5912, 5685, 5684, 5913, 5914
804, 5680, 5679, 5908, 5909, 5687, 5686, 5915, 5916, 5682, 5910, 5911, 5912, 5689, 5917, 5918, 5919, 5692, 5691, 5920, 5921
805, 5687, 5686, 5915, 5916, 5694, 5693, 5922, 5923, 5689, 5917, 5918, 5919, 5696, 5924, 5925, 5926, 5699, 5698, 5927, 5928
806, 5694, 5693, 5922, 5923, 5701, 5700, 5929, 5930, 5696, 5924, 5925, 5926, 5703, 5931, 5932, 5933, 5706, 5705, 5934, 5935
807, 5701, 5700, 5929, 5930, 5708, 5707, 5936, 5937, 5703, 5931, 5932, 5933, 5710, 5938, 5939, 5940, 5713, 5712, 5941, 5942
808, 5708, 5707, 5936, 5937, 5715, 5714, 5943, 5944, 5710, 5938, 5939, 5940, 5717, 5945, 5946, 5947, 5720, 5719, 5948, 5949
809, 5715, 5714, 5943, 5944, 5722, 5721, 5950, 5951, 5717, 5945, 5946, 5947, 5724, 5952, 5953, 5954, 5727, 5726, 5955, 5956
810, 5722, 5721, 5950, 5951, 5729, 5728, 5957, 5958, 5724, 5952, 5953, 5954, 5731, 5959, 5960, 5961, 5734, 5733, 5962, 5963
811, 5729, 5728, 5957, 5958, 5736, 5735, 5964, 5965, 5731, 5959, 5960, 5961, 5738, 5966, 5967, 5968, 5741, 5740, 5969, 5970
812, 5736, 5735, 5964, 5965, 5743, 5742, 5971, 5972, 5738, 5966, 5967, 5968, 5745, 5973, 5974, 5975, 5748, 5747, 5976, 5977
813, 5743, 5742, 5971, 5972, 5750, 5749, 5978, 5979, 5745, 5973, 5974, 5975, 5752, 5980, 5981, 5982, 5755, 5754, 5983, 5984
814, 5750, 5749, 5978, 5979, 5757, 5756, 5985, 5986, 5752, 5980, 5981, 5982, 5759, 5987, 5988, 5989, 5762, 5761, 5990, 5991
815, 5757, 5756, 5985, 5986, 5764, 5763, 5992, 5993, 5759, 5987, 5988, 5989, 5766, 5994, 5995, 5996, 5769, 5768, 5997, 5998
816, 5764, 5763, 5992, 5993, 5771, 5770, 5999, 6000, 5766, 5994, 5995, 5996, 5773, 6001, 6002, 6003, 5776, 5775, 6004, 6005
817, 5771, 5770, 5999, 6000, 5778, 5777, 6006, 6007, 5773, 6001, 6002, 6003, 5780, 6008, 6009, 6010, 5783, 5782, 6011, 6012
818, 5778, 5777, 6006, 6007, 5785, 5784, 6013, 6014, 5780, 6008, 6009, 6010, 5787, 6015, 6016, 6017, 5790, 5789, 6018, 6019
819, 5785, 5784, 6013, 6014, 5792, 5791, 6020, 6021, 5787, 6015, 6016, 6017, 5794, 6022, 6023, 6024, 5797, 5796, 6025, 6026
820, 5792, 5791, 6020, 6021, 5799, 5798, 6027, 6028, 5794, 6022, 6023, 6024, 5801, 6029, 6030, 6031, 5804, 5803, 6032, 6033
821, 5799, 5798, 6027, 6028, 5806, 5805, 6034, 6035, 5801, 6029, 6030, 6031, 5808, 6036, 6037, 6038, 5811, 5810, 6039, 6040
822, 5806, 5805, 6034, 6035, 5813, 5812, 6041, 6042, 5808, 6036, 6037, 6038, 5815, 6043, 6044, 6045, 5818, 5817, 6046, 6047
823, 5813, 5812, 6041, 6042, 5820, 5819, 6048, 6049, 5815, 6043, 6044, 6045, 5822, 6050, 6051, 6052, 5825, 5824, 6053, 6054
824, 5820, 5819, 6048, 6049, 5827, 5826, 6055, 6056, 5822, 6050, 6051, 6052, 5829, 6057, 6058, 6059, 5832, 5831, 6060, 6061
825, 5827, 5826, 6055, 6056, 5834, 5833, 6062, 6063, 5829, 6057, 6058, 6059, 5836, 6064, 6065, 6066, 5839, 5838, 6067, 6068
826, 5834, 5833, 6062, 6063, 5841, 5840, 6069, 6070, 5836, 6064, 6065, 6066, 5843, 6071, 6072, 6073, 5846, 5845, 6074, 6075
827, 5841, 5840, 6069, 6070, 5848, 5847, 6076, 6077, 5843, 6071, 6072, 6073, 5850, 6078, 6079, 6080, 5853, 5852, 6081, 6082
828, 5848, 5847, 6076, 6077, 5855, 5854, 6083, 6084, 5850, 6078, 6079, 6080, 5857, 6085, 6086, 6087, 5860, 5859, 6088, 6089
829, 5855, 5854, 6083, 6084, 5862, 5861, 6090, 6091, 5857, 6085, 6086, 6087, 5864, 6092, 6093, 6094, 5867, 5866, 6095, 6096
830, 5862, 5861, 6090, 6091, 5869, 5868, 6097, 6098, 5864, 6092, 6093, 6094, 5871, 6099, 6100, 6101, 5874, 5873, 6102, 6103
831, 5869, 5868, 6097, 6098, 5876, 5875, 6104, 6105, 5871, 6099, 6100, 6101, 5878, 6106, 6107, 6108, 5881, 5880, 6109, 6110
832, 5876, 5875, 6104, 6105, 5883, 5882, 6111, 6112, 5878, 6106, 6107, 6108, 5885, 6113, 6114, 6115, 5888, 5887, 6116, 6117
833, 5890, 5889, 6118, 6119, 5892, 5891, 6120, 6121, 5894, 6122, 6123, 6124, 5897, 6125, 6126, 6127, 5900, 5899, 6128, 6129
834, 5892, 5891, 6120, 6121, 5902, 5901, 6130, 6131, 5897, 6125, 6126, 6127, 5904, 6132, 6133, 6134, 5907, 5906, 6135, 6136
835, 5902, 5901, 6130, 6131, 5909, 5908, 6137, 6138, 5904, 6132, 6133, 6134, 5911, 6139, 6140, 6141, 5914, 5913, 6142, 6143
836, 5909, 5908, 6137, 6138, 5916, 5915, 6144, 6145, 5911, 6139, 6140, 6141, 5918, 6146, 6147, 6148, 5921, 5920, 6149, 6150
837, 5916, 5915, 6144, 6145, 5923, 5922, 6151, 6152, 5918, 6146, 6147, 6148, 5925, 6153, 6154, 6155, 5928, 5927, 6156, 6157
838, 5923, 5922, 6151, 6152, 5930, 5929, 6158, 6159, 5925, 6153, 6154, 6155, 5932, 6160, 6161, 6162, 5935, 5934, 6163, 6164
839, 5930, 5929, 6158, 6159, 5937, 5936, 6165, 6166, 5932, 6160, 6161, 6162, 5939, 6167, 6168, 6169, 5942, 5941, 6170, 6171
840, 5937, 5936, 6165, 6166, 5944, 5943, 6172, 6173, 5939, 6167, 6168, 6169, 5946, 6174, 6175, 6176, 5949, 5948, 6177, 6178
841, 5944, 5943, 6172, 6173, 5951, 5950, 6179, 6180, 5946, 6174, 6175, 6176, 5953, 6181, 6182, 6183, 5956, 5955, 6184, 6185
842, 5951, 5950, 6179, 6180, 5958, 5957, 6186, 6187, 5953, 6181, 6182, 6183, 5960, 6188, 6189, 6190, 5963, 5962, 6191, 6192
843, 5958, 5957, 6186, 6187, 5965, 5964, 6193, 6194, 5960, 6188, 6189, 6190, 5967, 6195, 6196, 6197, 5970, 5969, 6198, 6199
844, 5965, 5964, 6193, 6194, 5972, 5971, 6200, 6201, 5967, 6195, 6196, 6197, 5974, 6202, 6203, 6204, 5977, 5976, 6205, 6206
845, 5972, 5971, 6200, 6201, 5979, 5978, 6207, 6208, 5974, 6202, 6203, 6204, 5981, 6209, 6210, 6211, 5984, 5983, 6212, 6213
846, 5979, 5978, 6207, 6208, 5986, 5985, 6214, 6215, 5981, 6209, 6210, 6211, 5988, 6216, 6217, 6218, 5991, 5990, 6219, 6220
847, 5986, 5985, 6214, 6215, 5993, 5992, 6221, 6222, 5988, 6216, 6217, 6218, 5995, 6223, 6224, 6225, 5998, 5997, 6226, 6227
848, 5993, 5992, 6221, 6222, 6000, 5999, 6228, 6229, 5995, 6223, 6224, 6225, 6002, 6230, 6231, 6232, 6005, 6004, 6233, 6234
849, 6000, 5999, 6228, 6229, 6007, 6006, 6235, 6236, 6002, 6230, 6231, 6232, 6009, 6237, 6238, 6239, 6012, 6011, 6240, 6241
850, 6007, 6006, 6235, 6236, 6014, 6013, 6242, 6243, 6009, 6237, 6238, 6239, 6016, 6244, 6245, 6246, 6019, 6018, 6247, 6248
851, 6014, 6013, 6242, 6243, 6021, 6020, 6249, 6250, 6016, 6244, 6245, 6246, 6023, 6251, 6252, 6253, 6026, 6025, 6254, 6255
852, 6021, 6020, 6249, 6250, 6028, 6027, 6256, 6257, 6023, 6251, 6252, 6253, 6030, 6258, 6259, 6260, 6033, 6032, 6261, 6262
853, 6028, 6027, 6256, 6257, 6035, 6034, 6263, 6264, 6030, 6258, 6259, 6260, 6037, 6265, 6266, 6267, 6040, 6039, 6268, 6269
854, 6035, 6034, 6263, 6264, 6042, 6041, 6270, 6271, 6037, 6265, 6266, 6267, 6044, 6272, 6273, 6274, 6047, 6046, 6275, 6276
855, 6042, 6041, 6270, 6271, 6049, 6048, 6277, 6278, 6044, 6272, 6273, 6274, 6051, 6279, 6280, 6281, 6054, 6053, 6282, 6283
856, 6049, 6048, 6277, 6278, 6056, 6055, 6284, 6285, 6051, 6279, 6280, 6281, 6058, 6286, 6287, 6288, 6061, 6060, 6289, 6290
857, 6056, 6055, 6284, 6285, 6063, 6062, 6291, 6292, 6058, 6286, 6287, 6288, 6065, 6293, 6294, 6295, 6068, 6067, 6296, 6297
858, 6063, 6062, 6291, 6292, 6070, 6069, 6298, 6299, 6065, 6293, 6294, 6295, 6072, 6300, 6301, 6302, 6075, 6074, 6303, 6304
859, 6070, 6069, 6298, 6299, 6077, 6076, 6305, 6306, 6072, 6300, 6301, 6302, 6079, 6307, 6308, 6309, 6082, 6081, 6310, 6311
860, 6077, 6076, 6305, 6306, 6084, 6083, 6312, 6313, 6079, 6307, 6308, 6309, 6086, 6314, 6315, 6316, 6089, 6088, 6317, 6318
861, 6084, 6083, 6312, 6313, 6091, 6090, 6319, 6320, 6086, 6314, 6315, 6316, 6093, 6321, 6322, 6323, 6096, 6095, 6324, 6325
862, 6091, 6090, 6319, 6320, 6098, 6097, 6326, 6327, 6093, 6321, 6322, 6323, 6100, 6328, 6329, 6330, 6103, 6102, 6331, 6332
863, 6098, 6097, 6326, 6327, 6105, 6104, 6333, 6334, 6100, 6328, 6329, 6330, 6107, 6335, 6336, 6337, 6110, 6109, 6338, 6339
864, 6105, 6104, 6333, 6334, 6112, 6111, 6340, 6341, 6107, 6335, 6336, 6337, 6114, 6342, 6343, 6344, 6117, 6116, 6345, 6346
865, 6119, 6118, 6347, 6348, 6121, 6120, 6349, 6350, 6123, 6351, 6352, 6353, 6126, 6354, 6355, 6356, 6129, 6128, 6357, 6358
866, 6121, 6120, 6349, 6350, 6131, 6130, 6359, 6360, 6126, 6354, 6355, 6356, 6133, 6361, 6362, 6363, 6136, 6135, 6364, 6365
867, 6131, 6130, 6359, 6360, 6138, 6137, 6366, 6367, 6133, 6361, 6362, 6363, 6140, 6368, 6369, 6370, 6143, 6142, 6371, 6372
868, 6138, 6137, 6366, 6367, 6145, 6144, 6373, 6374, 6140, 6368, 6369, 6370, 6147, 6375, 6376, 6377, 6150, 6149, 6378, 6379
869, 6145, 6144, 6373, 6374, 6152, 6151, 6380, 6381, 6147, 6375, 6376, 6377, 6154, 6382, 6383, 6384, 6157, 6156, 6385, 6386
870, 6152, 6151, 6380, 6381, 6159, 6158, 6387, 6388, 6154, 6382, 6383, 6384, 6161, 6389, 6390, 6391, 6164, 6163, 6392, 6393
871, 6159, 6158, 6387, 6388, 6166, 6165, 6394, 6395, 6161, 6389, 6390, 6391, 6168, 6396, 6397, 6398, 6171, 6170, 6399, 6400
872, 6166, 6165, 6394, 6395, 6173, 6172, 6401, 6402, 6168, 6396, 6397, 6398, 6175, 6403, 6404, 6405, 6178, 6177, 6406, 6407
873, 6173, 6172, 6401, 6402, 6180, 6179, 6408, 6409, 6175, 6403, 6404, 6405, 6182, 6410, 6411, 6412, 6185, 6184, 6413, 6414
874, 6180, 6179, 6408, 6409, 6187, 6186, 6415, 6416, 6182, 6410, 6411, 6412, 6189, 6417, 6418, 6419, 6192, 6191, 6420, 6421
875, 6187, 6186, 6415, 6416, 6194, 6193, 6422, 6423, 6189, 6417, 6418, 6419, 6196, 6424, 6425, 6426, 6199, 6198, 6427, 6428
876, 6194, 6193, 6422, 6423, 6201, 6200, 6429, 6430, 6196, 6424, 6425, 6426, 6203, 6431, 6432, 6433, 6206, 6205, 6434, 6435
877, 6201, 6200, 6429, 6430, 6208, 6207, 6436, 6437, 6203, 6431, 6432, 6433, 6210, 6438, 6439, 6440, 6213, 6212, 6441, 6442
878, 6208, 6207, 6436, 6437, 6215, 6214, 6443, 6444, 6210, 6438, 6439, 6440, 6217, 6445, 6446, 6447, 6220, 6219, 6448, 6449
879, 6215, 6214, 6443, 6444, 6222, 6221, 6450, 6451, 6217, 6445, 6446, 6447, 6224, 6452, 6453, 6454, 6227, 6226, 6455, 6456
880, 6222, 6221, 6450, 6451, 6229, 6228, 6457, 6458, 6224, 6452, 6453, 6454, 6231, 6459, 6460, 6461, 6234, 6233, 6462, 6463
881, 6229, 6228, 6457, 6458, 6236, 6235, 6464, 6465, 6231, 6459, 6460, 6461, 6238, 6466, 6467, 6468, 6241, 6240, 6469, 6470
882, 6236, 6235, 6464, 6465, 6243, 6242, 6471, 6472, 6238, 6466, 6467, 6468, 6245, 6473, 6474, 6475, 6248, 6247, 6476, 6477
883, 6243, 6242, 6471, 6472, 6250, 6249, 6478, 6479, 6245, 6473, 6474, 6475, 6252, 6480, 6481, 6482, 6255, 6254, 6483, 6484
884, 6250, 6249, 6478, 6479, 6257, 6256, 6485, 6486, 6252, 6480, 6481, 6482, 6259, 6487, 6488, 6489, 6262, 6261, 6490, 6491
885, 6257, 6256, 6485, 6486, 6264, 6263, 6492, 6493, 6259, 6487, 6488, 6489, 6266, 6494, 6495, 6496, 6269, 6268, 6497, 6498
886, 6264, 6263, 6492, 6493, 6271, 6270, 6499, 6500, 6266, 6494, 6495, 6496, 6273, 6501, 6502, 6503, 6276, 6275, 6504, 6505
887, 6271, 6270, 6499, 6500, 6278, 6277, 6506, 6507, 6273, 6501, 6502, 6503, 6280, 6508, 6509, 6510, 6283, 6282, 6511, 6512
888, 6278, 6277, 6506, 6507, 6285, 6284, 6513, 6514, 6280, 6508, 6509, 6510, 6287, 6515, 6516, 6517, 6290, 6289, 6518, 6519
889, 6285, 6284, 6513, 6514, 6292, 6291, 6520, 6521, 6287, 6515, 6516, 6517, 6294, 6522, 6523, 6524, 6297, 6296, 6525, 6526
890, 6292, 6291, 6520, 6521, 6299, 6298, 6527, 6528, 6294, 6522, 6523, 6524, 6301, 6529, 6530, 6531, 6304, 6303, 6532, 6533
891, 6299, 6298, 6527, 6528, 6306, 6305, 6534, 6535, 6301, 6529, 6530, 6531, 6308, 6536, 6537, 6538, 6311, 6310, 6539, 6540
892, 6306, 6305, 6534, 6535, 6313, 6312, 6541, 6542, 6308, 6536, 6537, 6538, 6315, 6543, 6544, 6545, 6318, 6317, 6546, 6547
893, 6313, 6312, 6541, 6542, 6320, 6319, 6548, 6549, 6315, 6543, 6544, 6545, 6322, 6550, 6551, 6552, 6325, 6324, 6553, 6554
894, 6320, 6319, 6548, 6549, 6327, 6326, 6555, 6556, 6322, 6550, 6551, 6552, 6329, 6557, 6558, 6559, 6332, 6331, 6560, 6561
895, 6327, 6326, 6555, 6556, 6334, 6333, 6562, 6563, 6329, 6557, 6558, 6559, 6336, 6564, 6565, 6566, 6339, 6338, 6567, 6568
896, 6334, 6333, 6562, 6563, 6341, 6340, 6569, 6570, 6336, 6564, 6565, 6566, 6343, 6571, 6572, 6573, 6346, 6345, 6574, 6575
897, 6348, 6347, 6576, 6577, 6350, 6349, 6578, 6579, 6352, 6580, 6581, 6582, 6355, 6583, 6584, 6585, 6358, 6357, 6586, 6587
898, 6350, 6349, 6578, 6579, 6360, 6359, 6588, 6589, 6355, 6583, 6584, 6585, 6362, 6590, 6591, 6592, 6365, 6364, 6593, 6594
899, 6360, 6359, 6588, 6589, 6367, 6366, 6595, 6596, 6362, 6590, 6591, 6592, 6369, 6597, 6598, 6599, 6372, 6371, 6600, 6601
900, 6367, 6366, 6595, 6596, 6374, 6373, 6602, 6603, 6369, 6597, 6598, 6599, 6376, 6604, 6605, 6606, 6379, 6378, 6607, 6608
901, 6374, 6373, 6602, 6603, 6381, 6380, 6609, 6610, 6376, 6604, 6605, 6606, 6383, 6611, 6612, 6613, 6386, 6385, 6614, 6615
902, 6381, 6380, 6609, 6610, 6388, 6387, 6616, 6617, 6383, 6611, 6612, 6613, 6390, 6618, 6619, 6620, 6393, 6392, 6621, 6622
903, 6388, 6387, 6616, 6617, 6395, 6394, 6623, 6624, 6390, 6618, 6619, 6620, 6397, 6625, 6626, 6627, 6400, 6399, 6628, 6629
904, 6395, 6394, 6623, 6624, 6402, 6401, 6630, 6631, 6397, 6625, 6626, 6627, 6404, 6632, 6633, 6634, 6407, 6406, 6635, 6636
905, 6402, 6401, 6630, 6631, 6409, 6408, 6637, 6638, 6404, 6632, 6633, 6634, 6411, 6639, 6640, 6641, 6414, 6413, 6642, 6643
906, 6409, 6408, 6637, 6638, 6416, 6415, 6644, 6645, 6411, 6639, 6640, 6641, 6418, 6646, 6647, 6648, 6421, 6420, 6649, 6650
907, 6416, 6415, 6644, 6645, 6423, 6422, 6651, 6652, 6418, 6646, 6647, 6648, 6425, 6653, 6654, 6655, 6428, 6427, 6656, 6657
908, 6423, 6422, 6651, 6652, 6430, 6429, 6658, 6659, 6425, 6653, 6654, 6655, 6432, 6660, 6661, 6662, 6435, 6434, 6663, 6664
909, 6430, 6429, 6658, 6659, 6437, 6436, 6665, 6666, 6432, 6660, 6661, 6662, 6439, 6667, 6668, 6669, 6442, 6441, 6670, 6671
910, 6437, 6436, 6665, 6666, 6444, 6443, 6672, 6673, 6439, 6667, 6668, 6669, 6446, 6674, 6675, 6676, 6449, 6448, 6677, 6678
911, 6444, 6443, 6672, 6673, 6451, 6450, 6679, 6680, 6446, 6674, 6675, 6676, 6453, 6681, 6682, 6683, 6456, 6455, 6684, 6685
912, 6451, 6450, 6679, 6680, 6458, 6457, 6686, 6687, 6453, 6681, 6682, 6683, 6460, 6688, 6689, 6690, 6463, 6462, 6691, 6692
913, 6458, 6457, 6686, 6687, 6465, 6464, 6693, 6694, 6460, 6688, 6689, 6690, 6467, 6695, 6696, 6697, 6470, 6469, 6698, 6699
914, 6465, 6464, 6693, 6694, 6472, 6471, 6700, 6701, 6467, 6695, 6696, 6697, 6474, 6702, 6703, 6704, 6477, 6476, 6705, 6706
915, 6472, 6471, 6700, 6701, 6479, 6478, 6707, 6708, 6474, 6702, 6703, 6704, 6481, 6709, 6710, 6711, 6484, 6483, 6712, 6713
916, 6479, 6478, 6707, 6708, 6486, 6485, 6714, 6715, 6481, 6709, 6710, 6711, 6488, 6716, 6717, 6718, 6491, 6490, 6719, 6720
917, 6486, 6485, 6714, 6715, 6493, 6492, 6721, 6722, 6488, 6716, 6717, 6718, 6495, 6723, 6724, 6725, 6498, 6497, 6726, 6727
918, 6493, 6492, 6721, 6722, 6500, 6499, 6728, 6729, 6495, 6723, 6724, 6725, 6502, 6730, 6731, 6732, 6505, 6504, 6733, 6734
919, 6500, 6499, 6728, 6729, 6507, 6506, 6735, 6736, 6502, 6730, 6731, 6732, 6509, 6737, 6738, 6739, 6512, 6511, 6740, 6741
920, 6507, 6506, 6735, 6736, 6514, 6513, 6742, 6743, 6509, 6737, 6738, 6739, 6516, 6744, 6745, 6746, 6519, 6518, 6747, 6748
921, 6514, 6513, 6742, 6743, 6521, 6520, 6749, 6750, 6516, 6744, 6745, 6746, 6523, 6751, 6752, 6753, 6526, 6525, 6754, 6755
922, 6521, 6520, 6749, 6750, 6528, 6527, 6756, 6757, 6523, 6751, 6752, 6753, 6530, 6758, 6759, 6760, 6533, 6532, 6761, 6762
923, 6528, 6527, 6756, 6757, 6535, 6534, 6763, 6764, 6530, 6758, 6759, 6760, 6537, 6765, 6766, 6767, 6540, 6539, 6768, 6769
924, 6535, 6534, 6763, 6764, 6542, 6541, 6770, 6771, 6537, 6765, 6766, 6767, 6544, 6772, 6773, 6774, 6547, 6546, 6775, 6776
925, 6542, 6541, 6770, 6771, 6549, 6548, 6777, 6778, 6544, 6772, 6773, 6774, 6551, 6779, 6780, 6781, 6554, 6553, 6782, 6783
926, 6549, 6548, 6777, 6778, 6556, 6555, 6784, 6785, 6551, 6779, 6780, 6781, 6558, 6786, 6787, 6788, 6561, 6560, 6789, 6790
927, 6556, 6555, 6784, 6785, 6563, 6562, 6791, 6792, 6558, 6786, 6787, 6788, 6565, 6793, 6794, 6795, 6568, 6567, 6796, 6797
928, 6563, 6562, 6791, 6792, 6570, 6569, 6798, 6799, 6565, 6793, 6794, 6795, 6572, 6800, 6801, 6802, 6575, 6574, 6803, 6804
929, 6577, 6576, 6805, 6806, 6579, 6578, 6807, 6808, 6581, 6809, 6810, 6811, 6584, 6812, 6813, 6814, 6587, 6586, 6815, 6816
930, 6579, 6578, 6807, 6808, 6589, 6588, 6817, 6818, 6584, 6812, 6813, 6814, 6591, 6819, 6820, 6821, 6594, 6593, 6822, 6823
931, 6589, 6588, 6817, 6818, 6596, 6595, 6824, 6825, 6591, 6819, 6820, 6821, 6598, 6826, 6827, 6828, 6601, 6600, 6829, 6830
932, 6596, 6595, 6824, 6825, 6603, 6602, 6831, 6832, 6598, 6826, 6827, 6828, 6605, 6833, 6834, 6835, 6608, 6607, 6836, 6837
933, 6603, 6602, 6831, 6832, 6610, 6609, 6838, 6839, 6605, 6833, 6834, 6835, 6612, 6840, 6841, 6842, 6615, 6614, 6843, 6844
934, 6610, 6609, 6838, 6839, 6617, 6616, 6845, 6846, 6612, 6840, 6841, 6842, 6619, 6847, 6848, 6849, 6622, 6621, 6850, 6851
935, 6617, 6616, 6845, 6846, 6624, 6623, 6852, 6853, 6619, 6847, 6848, 6849, 6626, 6854, 6855, 6856, 6629, 6628, 6857, 6858
936, 6624, 6623, 6852, 6853, 6631, 6630, 6859, 6860, 6626, 6854, 6855, 6856, 6633, 6861, 6862, 6863, 6636, 6635, 6864, 6865
937, 6631, 6630, 6859, 6860, 6638, 6637, 6866, 6867, 6633, 6861, 6862, 6863, 6640, 6868, 6869, 6870, 6643, 6642, 6871, 6872
938, 6638, 6637, 6866, 6867, 6645, 6644, 6873, 6874, 6640, 6868, 6869, 6870, 6647, 6875, 6876, 6877, 6650, 6649, 6878, 6879
939, 6645, 6644, 6873, 6874, 6652, 6651, 6880, 6881, 6647, 6875, 6876, 6877, 6654, 6882, 6883, 6884, 6657, 6656, 6885, 6886
940, 6652, 6651, 6880, 6881, 6659, 6658, 6887, 6888, 6654, 6882, 6883, 6884, 6661, 6889, 6890, 6891, 6664, 6663, 6892, 6893
941, 6659, 6658, 6887, 6888, 6666, 6665, 6894, 6895, 6661, 6889, 6890, 6891, 6668, 6896, 6897, 6898, 6671, 6670, 6899, 6900
942, 6666, 6665, 6894, 6895, 6673, 6672, 6901, 6902, 6668, 6896, 6897, 6898, 6675, 6903, 6904, 6905, 6678, 6677, 6906, 6907
943, 6673, 6672, 6901, 6902, 6680, 6679, 6908, 6909, 6675, 6903, 6904, 6905, 6682, 6910, 6911, 6912, 6685, 6684, 6913, 6914
944, 6680, 6679, 6908, 6909, 6687, 6686, 6915, 6916, 6682, 6910, 6911, 6912, 6689, 6917, 6918, 6919, 6692, 6691, 6920, 6921
945, 6687, 6686, 6915, 6916, 6694, 6693, 6922, 6923, 6689, 6917, 6918, 6919, 6696, 6924, 6925, 6926, 6699, 6698, 6927, 6928
946, 6694, 6693, 6922, 6923, 6701, 6700, 6929, 6930, 6696, 6924, 6925, 6926, 6703, 6931, 6932, 6933, 6706, 6705, 6934, 6935
947, 6701, 6700, 6929, 6930, 6708, 6707, 6936, 6937, 6703, 6931, 6932, 6933, 6710, 6938, 6939, 6940, 6713, 6712, 6941, 6942
948, 6708, 6707, 6936, 6937, 6715, 6714, 6943, 6944, 6710, 6938, 6939, 6940, 6717, 6945, 6946, 6947, 6720, 6719, 6948, 6949
949, 6715, 6714, 6943, 6944, 6722, 6721, 6950, 6951, 6717, 6945, 6946, 6947, 6724, 6952, 6953, 6954, 6727, 6726, 6955, 6956
950, 6722, 6721, 6950, 6951, 6729, 6728, 6957, 6958, 6724, 6952, 6953, 6954, 6731, 6959, 6960, 6961, 6734, 6733, 6962, 6963
951, 6729, 6728, 6957, 6958, 6736, 6735, 6964, 6965, 6731, 6959, 6960, 6961, 6738, 6966, 6967, 6968, 6741, 6740, 6969, 6970
952, 6736, 6735, 6964, 6965, 6743, 6742, 6971, 6972, 6738, 6966, 6967, 6968, 6745, 6973, 6974, 6975, 6748, 6747, 6976, 6977
953, 6743, 6742, 6971, 6972, 6750, 6749, 6978, 6979, 6745, 6973, 6974, 6975, 6752, 6980, 6981, 6982, 6755, 6754, 6983, 6984
954, 6750, 6749, 6978, 6979, 6757, 6756, 6985, 6986, 6752, 6980, 6981, 6982, 6759, 6987, 6988, 6989, 6762, 6761, 6990, 6991
955, 6757, 6756, 6985, 6986, 6764, 6763, 6992, 6993, 6759, 6987, 6988, 6989, 6766, 6994, 6995, 6996, 6769, 6768, 6997, 6998
956, 6764, 6763, 6992, 6993, 6771, 6770, 6999, 7000, 6766, 6994, 6995, 6996, 6773, 7001, 7002, 7003, 6776, 6775, 7004, 7005
957, 6771, 6770, 6999, 7000, 6778, 6777, 7006, 7007, 6773, 7001, 7002, 7003, 6780, 7008, 7009, 7010, 6783, 6782, 7011, 7012
958, 6778, 6777, 7006, 7007, 6785, 6784, 7013, 7014, 6780, 7008, 7009, 7010, 6787, 7015, 7016, 7017, 6790, 6789, 7018, 7019
959, 6785, 6784, 7013, 7014, 6792, 6791, 7020, 7021, 6787, 7015, 7016, 7017, 6794, 7022, 7023, 7024, 6797, 6796, 7025, 7026
960, 6792, 6791, 7020, 7021, 6799, 6798, 7027, 7028, 6794, 7022, 7023, 7024, 6801, 7029, 7030, 7031, 6804, 6803, 7032, 7033
961, 6806, 6805, 7034, 7035, 6808, 6807, 7036, 7037, 6810, 7038, 7039, 7040, 6813, 7041, 7042, 7043, 6816, 6815, 7044, 7045
962, 6808, 6807, 7036, 7037, 6818, 6817, 7046, 7047, 6813, 7041, 7042, 7043, 6820, 7048, 7049, 7050, 6823, 6822, 7051, 7052
963, 6818, 6817, 7046, 7047, 6825, 6824, 7053, 7054, 6820, 7048, 7049, 7050, 6827, 7055, 7056, 7057, 6830, 6829, 7058, 7059
964, 6825, 6824, 7053, 7054, 6832, 6831, 7060, 7061, 6827, 7055, 7056, 7057, 6834, 7062, 7063, 7064, 6837, 6836, 7065, 7066
965, 6832, 6831, 7060, 7061, 6839, 6838, 7067, 7068, 6834, 7062, 7063, 7064, 6841, 7069, 7070, 7071, 6844, 6843, 7072, 7073
966, 6839, 6838, 7067, 7068, 6846, 6845, 7074, 7075, 6841, 7069, 7070, 7071, 6848, 7076, 7077, 7078, 6851, 6850, 7079, 7080
967, 6846, 6845, 7074, 7075, 6853, 6852, 7081, 7082, 6848, 7076, 7077, 7078, 6855, 7083, 7084, 7085, 6858, 6857, 7086, 7087
968, 6853, 6852, 7081, 7082, 6860, 6859, 7088, 7089, 6855, 7083, 7084, 7085, 6862, 7090, 7091, 7092, 6865, 6864, 7093, 7094
969, 6860, 6859, 7088, 7089, 6867, 6866, 7095, 7096, 6862, 7090, 7091, 7092, 6869, 7097, 7098, 7099, 6872, 6871, 7100, 7101
970, 6867, 6866, 7095, 7096, 6874, 6873, 7102, 7103, 6869, 7097, 7098, 7099, 6876, 7104, 7105, 7106, 6879, 6878, 7107, 7108
971, 6874, 6873, 7102, 7103, 6881, 6880, 7109, 7110, 6876, 7104, 7105, 7106, 6883, 7111, 7112, 7113, 6886, 6885, 7114, 7115
972, 6881, 6880, 7109, 7110, 6888, 6887, 7116, 7117, 6883, 7111, 7112, 7113, 6890, 7118, 7119, 7120, 6893, 6892, 7121, 7122
973, 6888, 6887, 7116, 7117, 6895, 6894, 7123, 7124, 6890, 7118, 7119, 7120, 6897, 7125, 7126, 7127, 6900, 6899, 7128, 7129
974, 6895, 6894, 7123, 7124, 6902, 6901, 7130, 7131, 6897, 7125, 7126, 7127, 6904, 7132, 7133, 7134, 6907, 6906, 7135, 7136
975, 6902, 6901, 7130, 7131, 6909, 6908, 7137, 7138, 6904, 7132, 7133, 7134, 6911, 7139, 7140, 7141, 6914, 6913, 7142, 7143
976, 6909, 6908, 7137, 7138, 6916, 6915, 7144, 7145, 6911, 7139, 7140, 7141, 6918, 7146, 7147, 7148, 6921, 6920, 7149, 7150
977, 6916, 6915, 7144, 7145, 6923, 6922, 7151, 7152, 6918, 7146, 7147, 7148, 6925, 7153, 7154, 7155, 6928, 6927, 7156, 7157
978, 6923, 6922, 7151, 7152, 6930, 6929, 7158, 7159, 6925, 7153, 7154, 7155, 6932, 7160, 7161, 7162, 6935, 6934, 7163, 7164
979, 6930, 6929, 7158, 7159, 6937, 6936, 7165, 7166, 6932, 7160, 7161, 7162, 6939, 7167, 7168, 7169, 6942, 6941, 7170, 7171
980, 6937, 6936, 7165, 7166, 6944, 6943, 7172, 7173, 6939, 7167, 7168, 7169, 6946, 7174, 7175, 7176, 6949, 6948, 7177, 7178
981, 6944, 6943, 7172, 7173, 6951, 6950, 7179, 7180, 6946, 7174, 7175, 7176, 6953, 7181, 7182, 7183, 6956, 6955, 7184, 7185
982, 6951, 6950, 7179, 7180, 6958, 6957, 7186, 7187, 6953, 7181, 7182, 7183, 6960, 7188, 7189, 7190, 6963, 6962, 7191, 7192
983, 6958, 6957, 7186, 7187, 6965, 6964, 7193, 7194, 6960, 7188, 7189, 7190, 6967, 7195, 7196, 7197, 6970, 6969, 7198, 7199
984, 6965, 6964, 7193, 7194, 6972, 6971, 7200, 7201, 6967, 7195, 7196, 7197, 6974, 7202, 7203, 7204, 6977, 6976, 7205, 7206
985, 6972, 6971, 7200, 7201, 6979, 6978, 7207, 7208, 6974, 7202, 7203, 7204, 6981, 7209, 7210, 7211, 6984, 6983, 7212, 7213
986, 6979, 6978, 7207, 7208, 6986, 6985, 7214, 7215, 6981, 7209, 7210, 7211, 6988, 7216, 7217, 7218, 6991, 6990, 7219, 7220
987, 6986, 6985, 7214, 7215, 6993, 6992, 7221, 7222, 6988, 7216, 7217, 7218, 6995, 7223, 7224, 7225, 6998, 6997, 7226, 7227
988, 6993, 6992, 7221, 7222, 7000, 6999, 7228, 7229, 6995, 7223, 7224, 7225, 7002, 7230, 7231, 7232, 7005, 7004, 7233, 7234
989, 7000, 6999, 7228, 7229, 7007, 7006, 7235, 7236, 7002, 7230, 7231, 7232, 7009, 7237, 7238, 7239, 7012, 7011, 7240, 7241
990, 7007, 7006, 7235, 7236, 7014, 7013, 7242, 7243, 7009, 7237, 7238, 7239, 7016, 7244, 7245, 7246, 7019, 7018, 7247, 7248
991, 7014, 7013, 7242, 7243, 7021, 7020, 7249, 7250, 7016, 7244, 7245, 7246, 7023, 7251, 7252, 7253, 7026, 7025, 7254, 7255
992, 7021, 7020, 7249, 7250, 7028, 7027, 7256, 7257, 7023, 7251, 7252, 7253, 7030, 7258, 7259, 7260, 7033, 7032, 7261, 7262
993, 7035, 7034, 7263, 7264, 7037, 7036, 7265, 7266, 7039, 7267, 7268, 7269, 7042, 7270, 7271, 7272, 7045, 7044, 7273, 7274
994, 7037, 7036, 7265, 7266, 7047, 7046, 7275, 7276, 7042, 7270, 7271, 7272, 7049, 7277, 7278, 7279, 7052, 7051, 7280, 7281
995, 7047, 7046, 7275, 7276, 7054, 7053, 7282, 7283, 7049, 7277, 7278, 7279, 7056, 7284, 7285, 7286, 7059, 7058, 7287, 7288
996, 7054, 7053, 7282, 7283, 7061, 7060, 7289, 7290, 7056, 7284, 7285, 7286, 7063, 7291, 7292, 7293, 7066, 7065, 7294, 7295
997, 7061, 7060, 7289, 7290, 7068, 7067, 7296, 7297, 7063, 7291, 7292, 7293, 7070, 7298, 7299, 7300, 7073, 7072, 7301, 7302
998, 7068, 7067, 7296, 7297, 7075, 7074, 7303, 7304, 7070, 7298, 7299, 7300, 7077, 7305, 7306, 7307, 7080, 7079, 7308, 7309
999, 7075, 7074, 7303, 7304, 7082, 7081, 7310, 7311, 7077, 7305, 7306, 7307, 7084, 7312, 7313, 7314, 7087, 7086, 7315, 7316
1000, 7082, 7081, 7310, 7311, 7089, 7088, 7317, 7318, 7084, 7312, 7313, 7314, 7091, 7319, 7320, 7321, 7094, 7093, 7322, 7323
1001, 7089, 7088, 7317, 7318, 7096, 7095, 7324, 7325, 7091, 7319, 7320, 7321, 7098, 7326, 7327, 7328, 7101, 7100, 7329, 7330
1002, 7096, 7095, 7324, 7325, 7103, 7102, 7331, 7332, 7098, 7326, 7327, 7328, 7105, 7333, 7334, 7335, 7108, 7107, 7336, 7337
1003, 7103, 7102, 7331, 7332, 7110, 7109, 7338, 7339, 7105, 7333, 7334, 7335, 7112, 7340, 7341, 7342, 7115, 7114, 7343, 7344
1004, 7110, 7109, 7338, 7339, 7117, 7116, 7345, 7346, 7112, 7340, 7341, 7342, 7119, 7347, 7348, 7349, 7122, 7121, 7350, 7351
1005, 7117, 7116, 7345, 7346, 7124, 7123, 7352, 7353, 7119, 7347, 7348, 7349, 7126, 7354, 7355, 7356, 7129, 7128, 7357, 7358
1006, 7124, 7123, 7352, 7353, 7131, 7130, 7359, 7360, 7126, 7354, 7355, 7356, 7133, 7361, 7362, 7363, 7136, 7135, 7364, 7365
1007, 7131, 7130, 7359, 7360, 7138, 7137, 7366, 7367, 7133, 7361, 7362, 7363, 7140, 7368, 7369, 7370, 7143, 7142, 7371, 7372
1008, 7138, 7137, 7366, 7367, 7145, 7144, 7373, 7374, 7140, 7368, 7369, 7370, 7147, 7375, 7376, 7377, 7150, 7149, 7378, 7379
1009, 7145, 7144, 7373, 7374, 7152, 7151, 7380, 7381, 7147, 7375, 7376, 7377, 7154, 7382, 7383, 7384, 7157, 7156, 7385, 7386
1010, 7152, 7151, 7380, 7381, 7159, 7158, 7387, 7388, 7154, 7382, 7383, 7384, 7161, 7389, 7390, 7391, 7164, 7163, 7392, 7393
1011, 7159, 7158, 7387, 7388, 7166, 7165, 7394, 7395, 7161, 7389, 7390, 7391, 7168, 7396, 7397, 7398, 7171, 7170, 7399, 7400
1012, 7166, 7165, 7394, 7395, 7173, 7172, 7401, 7402, 7168, 7396, 7397, 7398, 7175, 7403, 7404, 7405, 7178, 7177, 7406, 7407
1013, 7173, 7172, 7401, 7402, 7180, 7179, 7408, 7409, 7175, 7403, 7404, 7405, 7182, 7410, 7411, 7412, 7185, 7184, 7413, 7414
1014, 7180, 7179, 7408, 7409, 7187, 7186, 7415, 7416, 7182, 7410, 7411, 7412, 7189, 7417, 7418, 7419, 7192, 7191, 7420, 7421
1015, 7187, 7186, 7415, 7416, 7194, 7193, 7422, 7423, 7189, 7417, 7418, 7419, 7196, 7424, 7425, 7426, 7199, 7198, 7427, 7428
1016, 7194, 7193, 7422, 7423, 7201, 7200, 7429, 7430, 7196, 7424, 7425, 7426, 7203, 7431, 7432, 7433, 7206, 7205, 7434, 7435
1017, 7201, 7200, 7429, 7430, 7208, 7207, 7436, 7437, 7203, 7431, 7432, 7433, 7210, 7438, 7439, 7440, 7213, 7212, 7441, 7442
1018, 7208, 7207, 7436, 7437, 7215, 7214, 7443, 7444, 7210, 7438, 7439, 7440, 7217, 7445, 7446, 7447, 7220, 7219, 7448, 7449
1019, 7215, 7214, 7443, 7444, 7222, 7221, 7450, 7451, 7217, 7445, 7446, 7447, 7224, 7452, 7453, 7454, 7227, 7226, 7455, 7456
1020, 7222, 7221, 7450, 7451, 7229, 7228, 7457, 7458, 7224, 7452, 7453, 7454, 7231, 7459, 7460, 7461, 7234, 7233, 7462, 7463
1021, 7229, 7228, 7457, 7458, 7236, 7235, 7464, 7465, 7231, 7459, 7460, 7461, 7238, 7466, 7467, 7468, 7241, 7240, 7469, 7470
1022, 7236, 7235, 7464, 7465, 7243, 7242, 7471, 7472, 7238, 7466, 7467, 7468, 7245, 7473, 7474, 7475, 7248, 7247, 7476, 7477
1023, 7243, 7242, 7471, 7472, 7250, 7249, 7478, 7479, 7245, 7473, 7474, 7475, 7252, 7480, 7481, 7482, 7255, 7254, 7483, 7484
1024, 7250, 7249, 7478, 7479, 7257, 7256, 7485, 7486, 7252, 7480, 7481, 7482, 7259, 7487, 7488, 7489, 7262, 7261, 7490, 7491
*Element, type=C3D20, elset=SECONDARY
1025, 7492, 7493, 7494, 7495, 7496, 7497, 7498, 7499, 7500, 7501, 7502, 7503, 7504, 7505, 7506, 7507, 7508, 7509, 7510, 7511
*Nset, nset=PRIMARY_ALL
1, 2, 3, 4, 5, 6, 7, 8, 9, 10, 11, 12, 13, 14, 15, 16
17, 18, 19, 20, 21, 22, 23, 24, 25, 26, 27, 28, 29, 30, 31, 32
33, 34, 35, 36, 37, 38, 39, 40, 41, 42, 43, 44, 45, 46, 47, 48
49, 50, 51, 52, 53, 54, 55, 56, 57, 58, 59, 60, 61, 62, 63, 64
65, 66, 67, 68, 69, 70, 71, 72, 73, 74, 75, 76, 77, 78, 79, 80
81, 82, 83, 84, 85, 86, 87, 88, 89, 90, 91, 92, 93, 94, 95, 96
97, 98, 99, 100, 101, 102, 103, 104, 105, 106, 107, 108, 109, 110, 111, 112
113, 114, 115, 116, 117, 118, 119, 120, 121, 122, 123, 124, 125, 126, 127, 128
129, 130, 131, 132, 133, 134, 135, 136, 137, 138, 139, 140, 141, 142, 143, 144
145, 146, 147, 148, 149, 150, 151, 152, 153, 154, 155, 156, 157, 158, 159, 160
161, 162, 163, 164, 165, 166, 167, 168, 169, 170, 171, 172, 173, 174, 175, 176
177, 178, 179, 180, 181, 182, 183, 184, 185, 186, 187, 188, 189, 190, 191, 192
193, 194, 195, 196, 197, 198, 199, 200, 201, 202, 203, 204, 205, 206, 207, 208
209, 210, 211, 212, 213, 214, 215, 216, 217, 218, 219, 220, 221, 222, 223, 224
225, 226, 227, 228, 229, 230, 231, 232, 233, 234, 235, 236, 237, 238, 239, 240
241, 242, 243, 244, 245, 246, 247, 248, 249, 250, 251, 252, 253, 254, 255, 256
257, 258, 259, 260, 261, 262, 263, 264, 265, 266, 267, 268, 269, 270, 271, 272
273, 274, 275, 276, 277, 278, 279, 280, 281, 282, 283, 284, 285, 286, 287, 288
289, 290, 291, 292, 293, 294, 295, 296, 297, 298, 299, 300, 301, 302, 303, 304
305, 306, 307, 308, 309, 310, 311, 312, 313, 314, 315, 316, 317, 318, 319, 320
321, 322, 323, 324, 325, 326, 327, 328, 329, 330, 331, 332, 333, 334, 335, 336
337, 338, 339, 340, 341, 342, 343, 344, 345, 346, 347, 348, 349, 350, 351, 352
353, 354, 355, 356, 357, 358, 359, 360, 361, 362, 363, 364, 365, 366, 367, 368
369, 370, 371, 372, 373, 374, 375, 376, 377, 378, 379, 380, 381, 382, 383, 384
385, 386, 387, 388, 389, 390, 391, 392, 393, 394, 395, 396, 397, 398, 399, 400
401, 402, 403, 404, 405, 406, 407, 408, 409, 410, 411, 412, 413, 414, 415, 416
417, 418, 419, 420, 421, 422, 423, 424, 425, 426, 427, 428, 429, 430, 431, 432
433, 434, 435, 436, 437, 438, 439, 440, 441, 442, 443, 444, 445, 446, 447, 448
449, 450, 451, 452, 453, 454, 455, 456, 457, 458, 459, 460, 461, 462, 463, 464
465, 466, 467, 468, 469, 470, 471, 472, 473, 474, 475, 476, 477, 478, 479, 480
481, 482, 483, 484, 485, 486, 487, 488, 489, 490, 491, 492, 493, 494, 495, 496
497, 498, 499, 500, 501, 502, 503, 504, 505, 506, 507, 508, 509, 510, 511, 512
513, 514, 515, 516, 517, 518, 519, 520, 521, 522, 523, 524, 525, 526, 527, 528
529, 530, 531, 532, 533, 534, 535, 536, 537, 538, 539, 540, 541, 542, 543, 544
545, 546, 547, 548, 549, 550, 551, 552, 553, 554, 555, 556, 557, 558, 559, 560
561, 562, 563, 564, 565, 566, 567, 568, 569, 570, 571, 572, 573, 574, 575, 576
577, 578, 579, 580, 581, 582, 583, 584, 585, 586, 587, 588, 589, 590, 591, 592
593, 594, 595, 596, 597, 598, 599, 600, 601, 602, 603, 604, 605, 606, 607, 608
609, 610, 611, 612, 613, 614, 615, 616, 617, 618, 619, 620, 621, 622, 623, 624
625, 626, 627, 628, 629, 630, 631, 632, 633, 634, 635, 636, 637, 638, 639, 640
641, 642, 643, 644, 645, 646, 647, 648, 649, 650, 651, 652, 653, 654, 655, 656
657, 658, 659, 660, 661, 662, 663, 664, 665, 666, 667, 668, 669, 670, 671, 672
673, 674, 675, 676, 677, 678, 679, 680, 681, 682, 683, 684, 685, 686, 687, 688
689, 690, 691, 692, 693, 694, 695, 696, 697, 698, 699, 700, 701, 702, 703, 704
705, 706, 707, 708, 709, 710, 711, 712, 713, 714, 715, 716, 717, 718, 719, 720
721, 722, 723, 724, 725, 726, 727, 728, 729, 730, 731, 732, 733, 734, 735, 736
737, 738, 739, 740, 741, 742, 743, 744, 745, 746, 747, 748, 749, 750, 751, 752
753, 754, 755, 756, 757, 758, 759, 760, 761, 762, 763, 764, 765, 766, 767, 768
769, 770, 771, 772, 773, 774, 775, 776, 777, 778, 779, 780, 781, 782, 783, 784
785, 786, 787, 788, 789, 790, 791, 792, 793, 794, 795, 796, 797, 798, 799, 800
801, 802, 803, 804, 805, 806, 807, 808, 809, 810, 811, 812, 813, 814, 815, 816
817, 818, 819, 820, 821, 822, 823, 824, 825, 826, 827, 828, 829, 830, 831, 832
833, 834, 835, 836, 837, 838, 839, 840, 841, 842, 843, 844, 845, 846, 847, 848
849, 850, 851, 852, 853, 854, 855, 856, 857, 858, 859, 860, 861, 862, 863, 864
865, 866, 867, 868, 869, 870, 871, 872, 873, 874, 875, 876, 877, 878, 879, 880
881, 882, 883, 884, 885, 886, 887, 888, 889, 890, 891, 892, 893, 894, 895, 896
897, 898, 899, 900, 901, 902, 903, 904, 905, 906, 907, 908, 909, 910, 911, 912
913, 914, 915, 916, 917, 918, 919, 920, 921, 922, 923, 924, 925, 926, 927, 928
929, 930, 931, 932, 933, 934, 935, 936, 937, 938, 939, 940, 941, 942, 943, 944
945, 946, 947, 948, 949, 950, 951, 952, 953, 954, 955, 956, 957, 958, 959, 960
961, 962, 963, 964, 965, 966, 967, 968, 969, 970, 971, 972, 973, 974, 975, 976
977, 978, 979, 980, 981, 982, 983, 984, 985, 986, 987, 988, 989, 990, 991, 992
993, 994, 995, 996, 997, 998, 999, 1000, 1001, 1002, 1003, 1004, 1005, 1006, 1007, 1008
1009, 1010, 1011, 1012, 1013, 1014, 1015, 1016, 1017, 1018, 1019, 1020, 1021, 1022, 1023, 1024
1025, 1026, 1027, 1028, 1029, 1030, 1031, 1032, 1033, 1034, 1035, 1036, 1037, 1038, 1039, 1040
1041, 1042, 1043, 1044, 1045, 1046, 1047, 1048, 1049, 1050, 1051, 1052, 1053, 1054, 1055, 1056
1057, 1058, 1059, 1060, 1061, 1062, 1063, 1064, 1065, 1066, 1067, 1068, 1069, 1070, 1071, 1072
1073, 1074, 1075, 1076, 1077, 1078, 1079, 1080, 1081, 1082, 1083, 1084, 1085, 1086, 1087, 1088
1089, 1090, 1091, 1092, 1093, 1094, 1095, 1096, 1097, 1098, 1099, 1100, 1101, 1102, 1103, 1104
1105, 1106, 1107, 1108, 1109, 1110, 1111, 1112, 1113, 1114, 1115, 1116, 1117, 1118, 1119, 1120
1121, 1122, 1123, 1124, 1125, 1126, 1127, 1128, 1129, 1130, 1131, 1132, 1133, 1134, 1135, 1136
1137, 1138, 1139, 1140, 1141, 1142, 1143, 1144, 1145, 1146, 1147, 1148, 1149, 1150, 1151, 1152
1153, 1154, 1155, 1156, 1157, 1158, 1159, 1160, 1161, 1162, 1163, 1164, 1165, 1166, 1167, 1168
1169, 1170, 1171, 1172, 1173, 1174, 1175, 1176, 1177, 1178, 1179, 1180, 1181, 1182, 1183, 1184
1185, 1186, 1187, 1188, 1189, 1190, 1191, 1192, 1193, 1194, 1195, 1196, 1197, 1198, 1199, 1200
1201, 1202, 1203, 1204, 1205, 1206, 1207, 1208, 1209, 1210, 1211, 1212, 1213, 1214, 1215, 1216
1217, 1218, 1219, 1220, 1221, 1222, 1223, 1224, 1225, 1226, 1227, 1228, 1229, 1230, 1231, 1232
1233, 1234, 1235, 1236, 1237, 1238, 1239, 1240, 1241, 1242, 1243, 1244, 1245, 1246, 1247, 1248
1249, 1250, 1251, 1252, 1253, 1254, 1255, 1256, 1257, 1258, 1259, 1260, 1261, 1262, 1263, 1264
1265, 1266, 1267, 1268, 1269, 1270, 1271, 1272, 1273, 1274, 1275, 1276, 1277, 1278, 1279, 1280
1281, 1282, 1283, 1284, 1285, 1286, 1287, 1288, 1289, 1290, 1291, 1292, 1293, 1294, 1295, 1296
1297, 1298, 1299, 1300, 1301, 1302, 1303, 1304, 1305, 1306, 1307, 1308, 1309, 1310, 1311, 1312
1313, 1314, 1315, 1316, 1317, 1318, 1319, 1320, 1321, 1322, 1323, 1324, 1325, 1326, 1327, 1328
1329, 1330, 1331, 1332, 1333, 1334, 1335, 1336, 1337, 1338, 1339, 1340, 1341, 1342, 1343, 1344
1345, 1346, 1347, 1348, 1349, 1350, 1351, 1352, 1353, 1354, 1355, 1356, 1357, 1358, 1359, 1360
1361, 1362, 1363, 1364, 1365, 1366, 1367, 1368, 1369, 1370, 1371, 1372, 1373, 1374, 1375, 1376
1377, 1378, 1379, 1380, 1381, 1382, 1383, 1384, 1385, 1386, 1387, 1388, 1389, 1390, 1391, 1392
1393, 1394, 1395, 1396, 1397, 1398, 1399, 1400, 1401, 1402, 1403, 1404, 1405, 1406, 1407, 1408
1409, 1410, 1411, 1412, 1413, 1414, 1415, 1416, 1417, 1418, 1419, 1420, 1421, 1422, 1423, 1424
1425, 1426, 1427, 1428, 1429, 1430, 1431, 1432, 1433, 1434, 1435, 1436, 1437, 1438, 1439, 1440
1441, 1442, 1443, 1444, 1445, 1446, 1447, 1448, 1449, 1450, 1451, 1452, 1453, 1454, 1455, 1456
1457, 1458, 1459, 1460, 1461, 1462, 1463, 1464, 1465, 1466, 1467, 1468, 1469, 1470, 1471, 1472
1473, 1474, 1475, 1476, 1477, 1478, 1479, 1480, 1481, 1482, 1483, 1484, 1485, 1486, 1487, 1488
1489, 1490, 1491, 1492, 1493, 1494, 1495, 1496, 1497, 1498, 1499, 1500, 1501, 1502, 1503, 1504
1505, 1506, 1507, 1508, 1509, 1510, 1511, 1512, 1513, 1514, 1515, 1516, 1517, 1518, 1519, 1520
1521, 1522, 1523, 1524, 1525, 1526, 1527, 1528, 1529, 1530, 1531, 1532, 1533, 1534, 1535, 1536
1537, 1538, 1539, 1540, 1541, 1542, 1543, 1544, 1545, 1546, 1547, 1548, 1549, 1550, 1551, 1552
1553, 1554, 1555, 1556, 1557, 1558, 1559, 1560, 1561, 1562, 1563, 1564, 1565, 1566, 1567, 1568
1569, 1570, 1571, 1572, 1573, 1574, 1575, 1576, 1577, 1578, 1579, 1580, 1581, 1582, 1583, 1584
1585, 1586, 1587, 1588, 1589, 1590, 1591, 1592, 1593, 1594, 1595, 1596, 1597, 1598, 1599, 1600
1601, 1602, 1603, 1604, 1605, 1606, 1607, 1608, 1609, 1610, 1611, 1612, 1613, 1614, 1615, 1616
1617, 1618, 1619, 1620, 1621, 1622, 1623, 1624, 1625, 1626, 1627, 1628, 1629, 1630, 1631, 1632
1633, 1634, 1635, 1636, 1637, 1638, 1639, 1640, 1641, 1642, 1643, 1644, 1645, 1646, 1647, 1648
1649, 1650, 1651, 1652, 1653, 1654, 1655, 1656, 1657, 1658, 1659, 1660, 1661, 1662, 1663, 1664
1665, 1666, 1667, 1668, 1669, 1670, 1671, 1672, 1673, 1674, 1675, 1676, 1677, 1678, 1679, 1680
1681, 1682, 1683, 1684, 1685, 1686, 1687, 1688, 1689, 1690, 1691, 1692, 1693, 1694, 1695, 1696
1697, 1698, 1699, 1700, 1701, 1702, 1703, 1704, 1705, 1706, 1707, 1708, 1709, 1710, 1711, 1712
1713, 1714, 1715, 1716, 1717, 1718, 1719, 1720, 1721, 1722, 1723, 1724, 1725, 1726, 1727, 1728
1729, 1730, 1731, 1732, 1733, 1734, 1735, 1736, 1737, 1738, 1739, 1740, 1741, 1742, 1743, 1744
1745, 1746, 1747, 1748, 1749, 1750, 1751, 1752, 1753, 1754, 1755, 1756, 1757, 1758, 1759, 1760
1761, 1762, 1763, 1764, 1765, 1766, 1767, 1768, 1769, 1770, 1771, 1772, 1773, 1774, 1775, 1776
1777, 1778, 1779, 1780, 1781, 1782, 1783, 1784, 1785, 1786, 1787, 1788, 1789, 1790, 1791, 1792
1793, 1794, 1795, 1796, 1797, 1798, 1799, 1800, 1801, 1802, 1803, 1804, 1805, 1806, 1807, 1808
1809, 1810, 1811, 1812, 1813, 1814, 1815, 1816, 1817, 1818, 1819, 1820, 1821, 1822, 1823, 1824
1825, 1826, 1827, 1828, 1829, 1830, 1831, 1832, 1833, 1834, 1835, 1836, 1837, 1838, 1839, 1840
1841, 1842, 1843, 1844, 1845, 1846, 1847, 1848, 1849, 1850, 1851, 1852, 1853, 1854, 1855, 1856
1857, 1858, 1859, 1860, 1861, 1862, 1863, 1864, 1865, 1866, 1867, 1868, 1869, 1870, 1871, 1872
1873, 1874, 1875, 1876, 1877, 1878, 1879, 1880, 1881, 1882, 1883, 1884, 1885, 1886, 1887, 1888
1889, 1890, 1891, 1892, 1893, 1894, 1895, 1896, 1897, 1898, 1899, 1900, 1901, 1902, 1903, 1904
1905, 1906, 1907, 1908, 1909, 1910, 1911, 1912, 1913, 1914, 1915, 1916, 1917, 1918, 1919, 1920
1921, 1922, 1923, 1924, 1925, 1926, 1927, 1928, 1929, 1930, 1931, 1932, 1933, 1934, 1935, 1936
1937, 1938, 1939, 1940, 1941, 1942, 1943, 1944, 1945, 1946, 1947, 1948, 1949, 1950, 1951, 1952
1953, 1954, 1955, 1956, 1957, 1958, 1959, 1960, 1961, 1962, 1963, 1964, 1965, 1966, 1967, 1968
1969, 1970, 1971, 1972, 1973, 1974, 1975, 1976, 1977, 1978, 1979, 1980, 1981, 1982, 1983, 1984
1985, 1986, 1987, 1988, 1989, 1990, 1991, 1992, 1993, 1994, 1995, 1996, 1997, 1998, 1999, 2000
2001, 2002, 2003, 2004, 2005, 2006, 2007, 2008, 2009, 2010, 2011, 2012, 2013, 2014, 2015, 2016
2017, 2018, 2019, 2020, 2021, 2022, 2023, 2024, 2025, 2026, 2027, 2028, 2029, 2030, 2031, 2032
2033, 2034, 2035, 2036, 2037, 2038, 2039, 2040, 2041, 2042, 2043, 2044, 2045, 2046, 2047, 2048
2049, 2050, 2051, 2052, 2053, 2054, 2055, 2056, 2057, 2058, 2059, 2060, 2061, 2062, 2063, 2064
2065, 2066, 2067, 2068, 2069, 2070, 2071, 2072, 2073, 2074, 2075, 2076, 2077, 2078, 2079, 2080
2081, 2082, 2083, 2084, 2085, 2086, 2087, 2088, 2089, 2090, 2091, 2092, 2093, 2094, 2095, 2096
2097, 2098, 2099, 2100, 2101, 2102, 2103, 2104, 2105, 2106, 2107, 2108, 2109, 2110, 2111, 2112
2113, 2114, 2115, 2116, 2117, 2118, 2119, 2120, 2121, 2122, 2123, 2124, 2125, 2126, 2127, 2128
2129, 2130, 2131, 2132, 2133, 2134, 2135, 2136, 2137, 2138, 2139, 2140, 2141, 2142, 2143, 2144
2145, 2146, 2147, 2148, 2149, 2150, 2151, 2152, 2153, 2154, 2155, 2156, 2157, 2158, 2159, 2160
2161, 2162, 2163, 2164, 2165, 2166, 2167, 2168, 2169, 2170, 2171, 2172, 2173, 2174, 2175, 2176
2177, 2178, 2179, 2180, 2181, 2182, 2183, 2184, 2185, 2186, 2187, 2188, 2189, 2190, 2191, 2192
2193, 2194, 2195, 2196, 2197, 2198, 2199, 2200, 2201, 2202, 2203, 2204, 2205, 2206, 2207, 2208
2209, 2210, 2211, 2212, 2213, 2214, 2215, 2216, 2217, 2218, 2219, 2220, 2221, 2222, 2223, 2224
2225, 2226, 2227, 2228, 2229, 2230, 2231, 2232, 2233, 2234, 2235, 2236, 2237, 2238, 2239, 2240
2241, 2242, 2243, 2244, 2245, 2246, 2247, 2248, 2249, 2250, 2251, 2252, 2253, 2254, 2255, 2256
2257, 2258, 2259, 2260, 2261, 2262, 2263, 2264, 2265, 2266, 2267, 2268, 2269, 2270, 2271, 2272
2273, 2274, 2275, 2276, 2277, 2278, 2279, 2280, 2281, 2282, 2283, 2284, 2285, 2286, 2287, 2288
2289, 2290, 2291, 2292, 2293, 2294, 2295, 2296, 2297, 2298, 2299, 2300, 2301, 2302, 2303, 2304
2305, 2306, 2307, 2308, 2309, 2310, 2311, 2312, 2313, 2314, 2315, 2316, 2317, 2318, 2319, 2320
2321, 2322, 2323, 2324, 2325, 2326, 2327, 2328, 2329, 2330, 2331, 2332, 2333, 2334, 2335, 2336
2337, 2338, 2339, 2340, 2341, 2342, 2343, 2344, 2345, 2346, 2347, 2348, 2349, 2350, 2351, 2352
2353, 2354, 2355, 2356, 2357, 2358, 2359, 2360, 2361, 2362, 2363, 2364, 2365, 2366, 2367, 2368
2369, 2370, 2371, 2372, 2373, 2374, 2375, 2376, 2377, 2378, 2379, 2380, 2381, 2382, 2383, 2384
2385, 2386, 2387, 2388, 2389, 2390, 2391, 2392, 2393, 2394, 2395, 2396, 2397, 2398, 2399, 2400
2401, 2402, 2403, 2404, 2405, 2406, 2407, 2408, 2409, 2410, 2411, 2412, 2413, 2414, 2415, 2416
2417, 2418, 2419, 2420, 2421, 2422, 2423, 2424, 2425, 2426, 2427, 2428, 2429, 2430, 2431, 2432
2433, 2434, 2435, 2436, 2437, 2438, 2439, 2440, 2441, 2442, 2443, 2444, 2445, 2446, 2447, 2448
2449, 2450, 2451, 2452, 2453, 2454, 2455, 2456, 2457, 2458, 2459, 2460, 2461, 2462, 2463, 2464
2465, 2466, 2467, 2468, 2469, 2470, 2471, 2472, 2473, 2474, 2475, 2476, 2477, 2478, 2479, 2480
2481, 2482, 2483, 2484, 2485, 2486, 2487, 2488, 2489, 2490, 2491, 2492, 2493, 2494, 2495, 2496
2497, 2498, 2499, 2500, 2501, 2502, 2503, 2504, 2505, 2506, 2507, 2508, 2509, 2510, 2511, 2512
2513, 2514, 2515, 2516, 2517, 2518, 2519, 2520, 2521, 2522, 2523, 2524, 2525, 2526, 2527, 2528
2529, 2530, 2531, 2532, 2533, 2534, 2535, 2536, 2537, 2538, 2539, 2540, 2541, 2542, 2543, 2544
2545, 2546, 2547, 2548, 2549, 2550, 2551, 2552, 2553, 2554, 2555, 2556, 2557, 2558, 2559, 2560
2561, 2562, 2563, 2564, 2565, 2566, 2567, 2568, 2569, 2570, 2571, 2572, 2573, 2574, 2575, 2576
2577, 2578, 2579, 2580, 2581, 2582, 2583, 2584, 2585, 2586, 2587, 2588, 2589, 2590, 2591, 2592
2593, 2594, 2595, 2596, 2597, 2598, 2599, 2600, 2601, 2602, 2603, 2604, 2605, 2606, 2607, 2608
2609, 2610, 2611, 2612, 2613, 2614, 2615, 2616, 2617, 2618, 2619, 2620, 2621, 2622, 2623, 2624
2625, 2626, 2627, 2628, 2629, 2630, 2631, 2632, 2633, 2634, 2635, 2636, 2637, 2638, 2639, 2640
2641, 2642, 2643, 2644, 2645, 2646, 2647, 2648, 2649, 2650, 2651, 2652, 2653, 2654, 2655, 2656
2657, 2658, 2659, 2660, 2661, 2662, 2663, 2664, 2665, 2666, 2667, 2668, 2669, 2670, 2671, 2672
2673, 2674, 2675, 2676, 2677, 2678, 2679, 2680, 2681, 2682, 2683, 2684, 2685, 2686, 2687, 2688
2689, 2690, 2691, 2692, 2693, 2694, 2695, 2696, 2697, 2698, 2699, 2700, 2701, 2702, 2703, 2704
2705, 2706, 2707, 2708, 2709, 2710, 2711, 2712, 2713, 2714, 2715, 2716, 2717, 2718, 2719, 2720
2721, 2722, 2723, 2724, 2725, 2726, 2727, 2728, 2729, 2730, 2731, 2732, 2733, 2734, 2735, 2736
2737, 2738, 2739, 2740, 2741, 2742, 2743, 2744, 2745, 2746, 2747, 2748, 2749, 2750, 2751, 2752
2753, 2754, 2755, 2756, 2757, 2758, 2759, 2760, 2761, 2762, 2763, 2764, 2765, 2766, 2767, 2768
2769, 2770, 2771, 2772, 2773, 2774, 2775, 2776, 2777, 2778, 2779, 2780, 2781, 2782, 2783, 2784
2785, 2786, 2787, 2788, 2789, 2790, 2791, 2792, 2793, 2794, 2795, 2796, 2797, 2798, 2799, 2800
2801, 2802, 2803, 2804, 2805, 2806, 2807, 2808, 2809, 2810, 2811, 2812, 2813, 2814, 2815, 2816
2817, 2818, 2819, 2820, 2821, 2822, 2823, 2824, 2825, 2826, 2827, 2828, 2829, 2830, 2831, 2832
2833, 2834, 2835, 2836, 2837, 2838, 2839, 2840, 2841, 2842, 2843, 2844, 2845, 2846, 2847, 2848
2849, 2850, 2851, 2852, 2853, 2854, 2855, 2856, 2857, 2858, 2859, 2860, 2861, 2862, 2863, 2864
2865, 2866, 2867, 2868, 2869, 2870, 2871, 2872, 2873, 2874, 2875, 2876, 2877, 2878, 2879, 2880
2881, 2882, 2883, 2884, 2885, 2886, 2887, 2888, 2889, 2890, 2891, 2892, 2893, 2894, 2895, 2896
2897, 2898, 2899, 2900, 2901, 2902, 2903, 2904, 2905, 2906, 2907, 2908, 2909, 2910, 2911, 2912
2913, 2914, 2915, 2916, 2917, 2918, 2919, 2920, 2921, 2922, 2923, 2924, 2925, 2926, 2927, 2928
2929, 2930, 2931, 2932, 2933, 2934, 2935, 2936, 2937, 2938, 2939, 2940, 2941, 2942, 2943, 2944
2945, 2946, 2947, 2948, 2949, 2950, 2951, 2952, 2953, 2954, 2955, 2956, 2957, 2958, 2959, 2960
2961, 2962, 2963, 2964, 2965, 2966, 2967, 2968, 2969, 2970, 2971, 2972, 2973, 2974, 2975, 2976
2977, 2978, 2979, 2980, 2981, 2982, 2983, 2984, 2985, 2986, 2987, 2988, 2989, 2990, 2991, 2992
2993, 2994, 2995, 2996, 2997, 2998, 2999, 3000, 3001, 3002, 3003, 3004, 3005, 3006, 3007, 3008
3009, 3010, 3011, 3012, 3013, 3014, 3015, 3016, 3017, 3018, 3019, 3020, 3021, 3022, 3023, 3024
3025, 3026, 3027, 3028, 3029, 3030, 3031, 3032, 3033, 3034, 3035, 3036, 3037, 3038, 3039, 3040
3041, 3042, 3043, 3044, 3045, 3046, 3047, 3048, 3049, 3050, 3051, 3052, 3053, 3054, 3055, 3056
3057, 3058, 3059, 3060, 3061, 3062, 3063, 3064, 3065, 3066, 3067, 3068, 3069, 3070, 3071, 3072
3073, 3074, 3075, 3076, 3077, 3078, 3079, 3080, 3081, 3082, 3083, 3084, 3085, 3086, 3087, 3088
3089, 3090, 3091, 3092, 3093, 3094, 3095, 3096, 3097, 3098, 3099, 3100, 3101, 3102, 3103, 3104
3105, 3106, 3107, 3108, 3109, 3110, 3111, 3112, 3113, 3114, 3115, 3116, 3117, 3118, 3119, 3120
3121, 3122, 3123, 3124, 3125, 3126, 3127, 3128, 3129, 3130, 3131, 3132, 3133, 3134, 3135, 3136
3137, 3138, 3139, 3140, 3141, 3142, 3143, 3144, 3145, 3146, 3147, 3148, 3149, 3150, 3151, 3152
3153, 3154, 3155, 3156, 3157, 3158, 3159, 3160, 3161, 3162, 3163, 3164, 3165, 3166, 3167, 3168
3169, 3170, 3171, 3172, 3173, 3174, 3175, 3176, 3177, 3178, 3179, 3180, 3181, 3182, 3183, 3184
3185, 3186, 3187, 3188, 3189, 3190, 3191, 3192, 3193, 3194, 3195, 3196, 3197, 3198, 3199, 3200
3201, 3202, 3203, 3204, 3205, 3206, 3207, 3208, 3209, 3210, 3211, 3212, 3213, 3214, 3215, 3216
3217, 3218, 3219, 3220, 3221, 3222, 3223, 3224, 3225, 3226, 3227, 3228, 3229, 3230, 3231, 3232
3233, 3234, 3235, 3236, 3237, 3238, 3239, 3240, 3241, 3242, 3243, 3244, 3245, 3246, 3247, 3248
3249, 3250, 3251, 3252, 3253, 3254, 3255, 3256, 3257, 3258, 3259, 3260, 3261, 3262, 3263, 3264
3265, 3266, 3267, 3268, 3269, 3270, 3271, 3272, 3273, 3274, 3275, 3276, 3277, 3278, 3279, 3280
3281, 3282, 3283, 3284, 3285, 3286, 3287, 3288, 3289, 3290, 3291, 3292, 3293, 3294, 3295, 3296
3297, 3298, 3299, 3300, 3301, 3302, 3303, 3304, 3305, 3306, 3307, 3308, 3309, 3310, 3311, 3312
3313, 3314, 3315, 3316, 3317, 3318, 3319, 3320, 3321, 3322, 3323, 3324, 3325, 3326, 3327, 3328
3329, 3330, 3331, 3332, 3333, 3334, 3335, 3336, 3337, 3338, 3339, 3340, 3341, 3342, 3343, 3344
3345, 3346, 3347, 3348, 3349, 3350, 3351, 3352, 3353, 3354, 3355, 3356, 3357, 3358, 3359, 3360
3361, 3362, 3363, 3364, 3365, 3366, 3367, 3368, 3369, 3370, 3371, 3372, 3373, 3374, 3375, 3376
3377, 3378, 3379, 3380, 3381, 3382, 3383, 3384, 3385, 3386, 3387, 3388, 3389, 3390, 3391, 3392
3393, 3394, 3395, 3396, 3397, 3398, 3399, 3400, 3401, 3402, 3403, 3404, 3405, 3406, 3407, 3408
3409, 3410, 3411, 3412, 3413, 3414, 3415, 3416, 3417, 3418, 3419, 3420, 3421, 3422, 3423, 3424
3425, 3426, 3427, 3428, 3429, 3430, 3431, 3432, 3433, 3434, 3435, 3436, 3437, 3438, 3439, 3440
3441, 3442, 3443, 3444, 3445, 3446, 3447, 3448, 3449, 3450, 3451, 3452, 3453, 3454, 3455, 3456
3457, 3458, 3459, 3460, 3461, 3462, 3463, 3464, 3465, 3466, 3467, 3468, 3469, 3470, 3471, 3472
3473, 3474, 3475, 3476, 3477, 3478, 3479, 3480, 3481, 3482, 3483, 3484, 3485, 3486, 3487, 3488
3489, 3490, 3491, 3492, 3493, 3494, 3495, 3496, 3497, 3498, 3499, 3500, 3501, 3502, 3503, 3504
3505, 3506, 3507, 3508, 3509, 3510, 3511, 3512, 3513, 3514, 3515, 3516, 3517, 3518, 3519, 3520
3521, 3522, 3523, 3524, 3525, 3526, 3527, 3528, 3529, 3530, 3531, 3532, 3533, 3534, 3535, 3536
3537, 3538, 3539, 3540, 3541, 3542, 3543, 3544, 3545, 3546, 3547, 3548, 3549, 3550, 3551, 3552
3553, 3554, 3555, 3556, 3557, 3558, 3559, 3560, 3561, 3562, 3563, 3564, 3565, 3566, 3567, 3568
3569, 3570, 3571, 3572, 3573, 3574, 3575, 3576, 3577, 3578, 3579, 3580, 3581, 3582, 3583, 3584
3585, 3586, 3587, 3588, 3589, 3590, 3591, 3592, 3593, 3594, 3595, 3596, 3597, 3598, 3599, 3600
3601, 3602, 3603, 3604, 3605, 3606, 3607, 3608, 3609, 3610, 3611, 3612, 3613, 3614, 3615, 3616
3617, 3618, 3619, 3620, 3621, 3622, 3623, 3624, 3625, 3626, 3627, 3628, 3629, 3630, 3631, 3632
3633, 3634, 3635, 3636, 3637, 3638, 3639, 3640, 3641, 3642, 3643, 3644, 3645, 3646, 3647, 3648
3649, 3650, 3651, 3652, 3653, 3654, 3655, 3656, 3657, 3658, 3659, 3660, 3661, 3662, 3663, 3664
3665, 3666, 3667, 3668, 3669, 3670, 3671, 3672, 3673, 3674, 3675, 3676, 3677, 3678, 3679, 3680
3681, 3682, 3683, 3684, 3685, 3686, 3687, 3688, 3689, 3690, 3691, 3692, 3693, 3694, 3695, 3696
3697, 3698, 3699, 3700, 3701, 3702, 3703, 3704, 3705, 3706, 3707, 3708, 3709, 3710, 3711, 3712
3713, 3714, 3715, 3716, 3717, 3718, 3719, 3720, 3721, 3722, 3723, 3724, 3725, 3726, 3727, 3728
3729, 3730, 3731, 3732, 3733, 3734, 3735, 3736, 3737, 3738, 3739, 3740, 3741, 3742, 3743, 3744
3745, 3746, 3747, 3748, 3749, 3750, 3751, 3752, 3753, 3754, 3755, 3756, 3757, 3758, 3759, 3760
3761, 3762, 3763, 3764, 3765, 3766, 3767, 3768, 3769, 3770, 3771, 3772, 3773, 3774, 3775, 3776
3777, 3778, 3779, 3780, 3781, 3782, 3783, 3784, 3785, 3786, 3787, 3788, 3789, 3790, 3791, 3792
3793, 3794, 3795, 3796, 3797, 3798, 3799, 3800, 3801, 3802, 3803, 3804, 3805, 3806, 3807, 3808
3809, 3810, 3811, 3812, 3813, 3814, 3815, 3816, 3817, 3818, 3819, 3820, 3821, 3822, 3823, 3824
3825, 3826, 3827, 3828, 3829, 3830, 3831, 3832, 3833, 3834, 3835, 3836, 3837, 3838, 3839, 3840
3841, 3842, 3843, 3844, 3845, 3846, 3847, 3848, 3849, 3850, 3851, 3852, 3853, 3854, 3855, 3856
3857, 3858, 3859, 3860, 3861, 3862, 3863, 3864, 3865, 3866, 3867, 3868, 3869, 3870, 3871, 3872
3873, 3874, 3875, 3876, 3877, 3878, 3879, 3880, 3881, 3882, 3883, 3884, 3885, 3886, 3887, 3888
3889, 3890, 3891, 3892, 3893, 3894, 3895, 3896, 3897, 3898, 3899, 3900, 3901, 3902, 3903, 3904
3905, 3906, 3907, 3908, 3909, 3910, 3911, 3912, 3913, 3914, 3915, 3916, 3917, 3918, 3919, 3920
3921, 3922, 3923, 3924, 3925, 3926, 3927, 3928, 3929, 3930, 3931, 3932, 3933, 3934, 3935, 3936
3937, 3938, 3939, 3940, 3941, 3942, 3943, 3944, 3945, 3946, 3947, 3948, 3949, 3950, 3951, 3952
3953, 3954, 3955, 3956, 3957, 3958, 3959, 3960, 3961, 3962, 3963, 3964, 3965, 3966, 3967, 3968
3969, 3970, 3971, 3972, 3973, 3974, 3975, 3976, 3977, 3978, 3979, 3980, 3981, 3982, 3983, 3984
3985, 3986, 3987, 3988, 3989, 3990, 3991, 3992, 3993, 3994, 3995, 3996, 3997, 3998, 3999, 4000
4001, 4002, 4003, 4004, 4005, 4006, 4007, 4008, 4009, 4010, 4011, 4012, 4013, 4014, 4015, 4016
4017, 4018, 4019, 4020, 4021, 4022, 4023, 4024, 4025, 4026, 4027, 4028, 4029, 4030, 4031, 4032
4033, 4034, 4035, 4036, 4037, 4038, 4039, 4040, 4041, 4042, 4043, 4044, 4045, 4046, 4047, 4048
4049, 4050, 4051, 4052, 4053, 4054, 4055, 4056, 4057, 4058, 4059, 4060, 4061, 4062, 4063, 4064
4065, 4066, 4067, 4068, 4069, 4070, 4071, 4072, 4073, 4074, 4075, 4076, 4077, 4078, 4079, 4080
4081, 4082, 4083, 4084, 4085, 4086, 4087, 4088, 4089, 4090, 4091, 4092, 4093, 4094, 4095, 4096
4097, 4098, 4099, 4100, 4101, 4102, 4103, 4104, 4105, 4106, 4107, 4108, 4109, 4110, 4111, 4112
4113, 4114, 4115, 4116, 4117, 4118, 4119, 4120, 4121, 4122, 4123, 4124, 4125, 4126, 4127, 4128
4129, 4130, 4131, 4132, 4133, 4134, 4135, 4136, 4137, 4138, 4139, 4140, 4141, 4142, 4143, 4144
4145, 4146, 4147, 4148, 4149, 4150, 4151, 4152, 4153, 4154, 4155, 4156, 4157, 4158, 4159, 4160
4161, 4162, 4163, 4164, 4165, 4166, 4167, 4168, 4169, 4170, 4171, 4172, 4173, 4174, 4175, 4176
4177, 4178, 4179, 4180, 4181, 4182, 4183, 4184, 4185, 4186, 4187, 4188, 4189, 4190, 4191, 4192
4193, 4194, 4195, 4196, 4197, 4198, 4199, 4200, 4201, 4202, 4203, 4204, 4205, 4206, 4207, 4208
4209, 4210, 4211, 4212, 4213, 4214, 4215, 4216, 4217, 4218, 4219, 4220, 4221, 4222, 4223, 4224
4225, 4226, 4227, 4228, 4229, 4230, 4231, 4232, 4233, 4234, 4235, 4236, 4237, 4238, 4239, 4240
4241, 4242, 4243, 4244, 4245, 4246, 4247, 4248, 4249, 4250, 4251, 4252, 4253, 4254, 4255, 4256
4257, 4258, 4259, 4260, 4261, 4262, 4263, 4264, 4265, 4266, 4267, 4268, 4269, 4270, 4271, 4272
4273, 4274, 4275, 4276, 4277, 4278, 4279, 4280, 4281, 4282, 4283, 4284, 4285, 4286, 4287, 4288
4289, 4290, 4291, 4292, 4293, 4294, 4295, 4296, 4297, 4298, 4299, 4300, 4301, 4302, 4303, 4304
4305, 4306, 4307, 4308, 4309, 4310, 4311, 4312, 4313, 4314, 4315, 4316, 4317, 4318, 4319, 4320
4321, 4322, 4323, 4324, 4325, 4326, 4327, 4328, 4329, 4330, 4331, 4332, 4333, 4334, 4335, 4336
4337, 4338, 4339, 4340, 4341, 4342, 4343, 4344, 4345, 4346, 4347, 4348, 4349, 4350, 4351, 4352
4353, 4354, 4355, 4356, 4357, 4358, 4359, 4360, 4361, 4362, 4363, 4364, 4365, 4366, 4367, 4368
4369, 4370, 4371, 4372, 4373, 4374, 4375, 4376, 4377, 4378, 4379, 4380, 4381, 4382, 4383, 4384
4385, 4386, 4387, 4388, 4389, 4390, 4391, 4392, 4393, 4394, 4395, 4396, 4397, 4398, 4399, 4400
4401, 4402, 4403, 4404, 4405, 4406, 4407, 4408, 4409, 4410, 4411, 4412, 4413, 4414, 4415, 4416
4417, 4418, 4419, 4420, 4421, 4422, 4423, 4424, 4425, 4426, 4427, 4428, 4429, 4430, 4431, 4432
4433, 4434, 4435, 4436, 4437, 4438, 4439, 4440, 4441, 4442, 4443, 4444, 4445, 4446, 4447, 4448
4449, 4450, 4451, 4452, 4453, 4454, 4455, 4456, 4457, 4458, 4459, 4460, 4461, 4462, 4463, 4464
4465, 4466, 4467, 4468, 4469, 4470, 4471, 4472, 4473, 4474, 4475, 4476, 4477, 4478, 4479, 4480
4481, 4482, 4483, 4484, 4485, 4486, 4487, 4488, 4489, 4490, 4491, 4492, 4493, 4494, 4495, 4496
4497, 4498, 4499, 4500, 4501, 4502, 4503, 4504, 4505, 4506, 4507, 4508, 4509, 4510, 4511, 4512
4513, 4514, 4515, 4516, 4517, 4518, 4519, 4520, 4521, 4522, 4523, 4524, 4525, 4526, 4527, 4528
4529, 4530, 4531, 4532, 4533, 4534, 4535, 4536, 4537, 4538, 4539, 4540, 4541, 4542, 4543, 4544
4545, 4546, 4547, 4548, 4549, 4550, 4551, 4552, 4553, 4554, 4555, 4556, 4557, 4558, 4559, 4560
4561, 4562, 4563, 4564, 4565, 4566, 4567, 4568, 4569, 4570, 4571, 4572, 4573, 4574, 4575, 4576
4577, 4578, 4579, 4580, 4581, 4582, 4583, 4584, 4585, 4586, 4587, 4588, 4589, 4590, 4591, 4592
4593, 4594, 4595, 4596, 4597, 4598, 4599, 4600, 4601, 4602, 4603, 4604, 4605, 4606, 4607, 4608
4609, 4610, 4611, 4612, 4613, 4614, 4615, 4616, 4617, 4618, 4619, 4620, 4621, 4622, 4623, 4624
4625, 4626, 4627, 4628, 4629, 4630, 4631, 4632, 4633, 4634, 4635, 4636, 4637, 4638, 4639, 4640
4641, 4642, 4643, 4644, 4645, 4646, 4647, 4648, 4649, 4650, 4651, 4652, 4653, 4654, 4655, 4656
4657, 4658, 4659, 4660, 4661, 4662, 4663, 4664, 4665, 4666, 4667, 4668, 4669, 4670, 4671, 4672
4673, 4674, 4675, 4676, 4677, 4678, 4679, 4680, 4681, 4682, 4683, 4684, 4685, 4686, 4687, 4688
4689, 4690, 4691, 4692, 4693, 4694, 4695, 4696, 4697, 4698, 4699, 4700, 4701, 4702, 4703, 4704
4705, 4706, 4707, 4708, 4709, 4710, 4711, 4712, 4713, 4714, 4715, 4716, 4717, 4718, 4719, 4720
4721, 4722, 4723, 4724, 4725, 4726, 4727, 4728, 4729, 4730, 4731, 4732, 4733, 4734, 4735, 4736
4737, 4738, 4739, 4740, 4741, 4742, 4743, 4744, 4745, 4746, 4747, 4748, 4749, 4750, 4751, 4752
4753, 4754, 4755, 4756, 4757, 4758, 4759, 4760, 4761, 4762, 4763, 4764, 4765, 4766, 4767, 4768
4769, 4770, 4771, 4772, 4773, 4774, 4775, 4776, 4777, 4778, 4779, 4780, 4781, 4782, 4783, 4784
4785, 4786, 4787, 4788, 4789, 4790, 4791, 4792, 4793, 4794, 4795, 4796, 4797, 4798, 4799, 4800
4801, 4802, 4803, 4804, 4805, 4806, 4807, 4808, 4809, 4810, 4811, 4812, 4813, 4814, 4815, 4816
4817, 4818, 4819, 4820, 4821, 4822, 4823, 4824, 4825, 4826, 4827, 4828, 4829, 4830, 4831, 4832
4833, 4834, 4835, 4836, 4837, 4838, 4839, 4840, 4841, 4842, 4843, 4844, 4845, 4846, 4847, 4848
4849, 4850, 4851, 4852, 4853, 4854, 4855, 4856, 4857, 4858, 4859, 4860, 4861, 4862, 4863, 4864
4865, 4866, 4867, 4868, 4869, 4870, 4871, 4872, 4873, 4874, 4875, 4876, 4877, 4878, 4879, 4880
4881, 4882, 4883, 4884, 4885, 4886, 4887, 4888, 4889, 4890, 4891, 4892, 4893, 4894, 4895, 4896
4897, 4898, 4899, 4900, 4901, 4902, 4903, 4904, 4905, 4906, 4907, 4908, 4909, 4910, 4911, 4912
4913, 4914, 4915, 4916, 4917, 4918, 4919, 4920, 4921, 4922, 4923, 4924, 4925, 4926, 4927, 4928
4929, 4930, 4931, 4932, 4933, 4934, 4935, 4936, 4937, 4938, 4939, 4940, 4941, 4942, 4943, 4944
4945, 4946, 4947, 4948, 4949, 4950, 4951, 4952, 4953, 4954, 4955, 4956, 4957, 4958, 4959, 4960
4961, 4962, 4963, 4964, 4965, 4966, 4967, 4968, 4969, 4970, 4971, 4972, 4973, 4974, 4975, 4976
4977, 4978, 4979, 4980, 4981, 4982, 4983, 4984, 4985, 4986, 4987, 4988, 4989, 4990, 4991, 4992
4993, 4994, 4995, 4996, 4997, 4998, 4999, 5000, 5001, 5002, 5003, 5004, 5005, 5006, 5007, 5008
5009, 5010, 5011, 5012, 5013, 5014, 5015, 5016, 5017, 5018, 5019, 5020, 5021, 5022, 5023, 5024
5025, 5026, 5027, 5028, 5029, 5030, 5031, 5032, 5033, 5034, 5035, 5036, 5037, 5038, 5039, 5040
5041, 5042, 5043, 5044, 5045, 5046, 5047, 5048, 5049, 5050, 5051, 5052, 5053, 5054, 5055, 5056
5057, 5058, 5059, 5060, 5061, 5062, 5063, 5064, 5065, 5066, 5067, 5068, 5069, 5070, 5071, 5072
5073, 5074, 5075, 5076, 5077, 5078, 5079, 5080, 5081, 5082, 5083, 5084, 5085, 5086, 5087, 5088
5089, 5090, 5091, 5092, 5093, 5094, 5095, 5096, 5097, 5098, 5099, 5100, 5101, 5102, 5103, 5104
5105, 5106, 5107, 5108, 5109, 5110, 5111, 5112, 5113, 5114, 5115, 5116, 5117, 5118, 5119, 5120
5121, 5122, 5123, 5124, 5125, 5126, 5127, 5128, 5129, 5130, 5131, 5132, 5133, 5134, 5135, 5136
5137, 5138, 5139, 5140, 5141, 5142, 5143, 5144, 5145, 5146, 5147, 5148, 5149, 5150, 5151, 5152
5153, 5154, 5155, 5156, 5157, 5158, 5159, 5160, 5161, 5162, 5163, 5164, 5165, 5166, 5167, 5168
5169, 5170, 5171, 5172, 5173, 5174, 5175, 5176, 5177, 5178, 5179, 5180, 5181, 5182, 5183, 5184
5185, 5186, 5187, 5188, 5189, 5190, 5191, 5192, 5193, 5194, 5195, 5196, 5197, 5198, 5199, 5200
5201, 5202, 5203, 5204, 5205, 5206, 5207, 5208, 5209, 5210, 5211, 5212, 5213, 5214, 5215, 5216
5217, 5218, 5219, 5220, 5221, 5222, 5223, 5224, 5225, 5226, 5227, 5228, 5229, 5230, 5231, 5232
5233, 5234, 5235, 5236, 5237, 5238, 5239, 5240, 5241, 5242, 5243, 5244, 5245, 5246, 5247, 5248
5249, 5250, 5251, 5252, 5253, 5254, 5255, 5256, 5257, 5258, 5259, 5260, 5261, 5262, 5263, 5264
5265, 5266, 5267, 5268, 5269, 5270, 5271, 5272, 5273, 5274, 5275, 5276, 5277, 5278, 5279, 5280
5281, 5282, 5283, 5284, 5285, 5286, 5287, 5288, 5289, 5290, 5291, 5292, 5293, 5294, 5295, 5296
5297, 5298, 5299, 5300, 5301, 5302, 5303, 5304, 5305, 5306, 5307, 5308, 5309, 5310, 5311, 5312
5313, 5314, 5315, 5316, 5317, 5318, 5319, 5320, 5321, 5322, 5323, 5324, 5325, 5326, 5327, 5328
5329, 5330, 5331, 5332, 5333, 5334, 5335, 5336, 5337, 5338, 5339, 5340, 5341, 5342, 5343, 5344
5345, 5346, 5347, 5348, 5349, 5350, 5351, 5352, 5353, 5354, 5355, 5356, 5357, 5358, 5359, 5360
5361, 5362, 5363, 5364, 5365, 5366, 5367, 5368, 5369, 5370, 5371, 5372, 5373, 5374, 5375, 5376
5377, 5378, 5379, 5380, 5381, 5382, 5383, 5384, 5385, 5386, 5387, 5388, 5389, 5390, 5391, 5392
5393, 5394, 5395, 5396, 5397, 5398, 5399, 5400, 5401, 5402, 5403, 5404, 5405, 5406, 5407, 5408
5409, 5410, 5411, 5412, 5413, 5414, 5415, 5416, 5417, 5418, 5419, 5420, 5421, 5422, 5423, 5424
5425, 5426, 5427, 5428, 5429, 5430, 5431, 5432, 5433, 5434, 5435, 5436, 5437, 5438, 5439, 5440
5441, 5442, 5443, 5444, 5445, 5446, 5447, 5448, 5449, 5450, 5451, 5452, 5453, 5454, 5455, 5456
5457, 5458, 5459, 5460, 5461, 5462, 5463, 5464, 5465, 5466, 5467, 5468, 5469, 5470, 5471, 5472
5473, 5474, 5475, 5476, 5477, 5478, 5479, 5480, 5481, 5482, 5483, 5484, 5485, 5486, 5487, 5488
5489, 5490, 5491, 5492, 5493, 5494, 5495, 5496, 5497, 5498, 5499, 5500, 5501, 5502, 5503, 5504
5505, 5506, 5507, 5508, 5509, 5510, 5511, 5512, 5513, 5514, 5515, 5516, 5517, 5518, 5519, 5520
5521, 5522, 5523, 5524, 5525, 5526, 5527, 5528, 5529, 5530, 5531, 5532, 5533, 5534, 5535, 5536
5537, 5538, 5539, 5540, 5541, 5542, 5543, 5544, 5545, 5546, 5547, 5548, 5549, 5550, 5551, 5552
5553, 5554, 5555, 5556, 5557, 5558, 5559, 5560, 5561, 5562, 5563, 5564, 5565, 5566, 5567, 5568
5569, 5570, 5571, 5572, 5573, 5574, 5575, 5576, 5577, 5578, 5579, 5580, 5581, 5582, 5583, 5584
5585, 5586, 5587, 5588, 5589, 5590, 5591, 5592, 5593, 5594, 5595, 5596, 5597, 5598, 5599, 5600
5601, 5602, 5603, 5604, 5605, 5606, 5607, 5608, 5609, 5610, 5611, 5612, 5613, 5614, 5615, 5616
5617, 5618, 5619, 5620, 5621, 5622, 5623, 5624, 5625, 5626, 5627, 5628, 5629, 5630, 5631, 5632
5633, 5634, 5635, 5636, 5637, 5638, 5639, 5640, 5641, 5642, 5643, 5644, 5645, 5646, 5647, 5648
5649, 5650, 5651, 5652, 5653, 5654, 5655, 5656, 5657, 5658, 5659, 5660, 5661, 5662, 5663, 5664
5665, 5666, 5667, 5668, 5669, 5670, 5671, 5672, 5673, 5674, 5675, 5676, 5677, 5678, 5679, 5680
5681, 5682, 5683, 5684, 5685, 5686, 5687, 5688, 5689, 5690, 5691, 5692, 5693, 5694, 5695, 5696
5697, 5698, 5699, 5700, 5701, 5702, 5703, 5704, 5705, 5706, 5707, 5708, 5709, 5710, 5711, 5712
5713, 5714, 5715, 5716, 5717, 5718, 5719, 5720, 5721, 5722, 5723, 5724, 5725, 5726, 5727, 5728
5729, 5730, 5731, 5732, 5733, 5734, 5735, 5736, 5737, 5738, 5739, 5740, 5741, 5742, 5743, 5744
5745, 5746, 5747, 5748, 5749, 5750, 5751, 5752, 5753, 5754, 5755, 5756, 5757, 5758, 5759, 5760
5761, 5762, 5763, 5764, 5765, 5766, 5767, 5768, 5769, 5770, 5771, 5772, 5773, 5774, 5775, 5776
5777, 5778, 5779, 5780, 5781, 5782, 5783, 5784, 5785, 5786, 5787, 5788, 5789, 5790, 5791, 5792
5793, 5794, 5795, 5796, 5797, 5798, 5799, 5800, 5801, 5802, 5803, 5804, 5805, 5806, 5807, 5808
5809, 5810, 5811, 5812, 5813, 5814, 5815, 5816, 5817, 5818, 5819, 5820, 5821, 5822, 5823, 5824
5825, 5826, 5827, 5828, 5829, 5830, 5831, 5832, 5833, 5834, 5835, 5836, 5837, 5838, 5839, 5840
5841, 5842, 5843, 5844, 5845, 5846, 5847, 5848, 5849, 5850, 5851, 5852, 5853, 5854, 5855, 5856
5857, 5858, 5859, 5860, 5861, 5862, 5863, 5864, 5865, 5866, 5867, 5868, 5869, 5870, 5871, 5872
5873, 5874, 5875, 5876, 5877, 5878, 5879, 5880, 5881, 5882, 5883, 5884, 5885, 5886, 5887, 5888
5889, 5890, 5891, 5892, 5893, 5894, 5895, 5896, 5897, 5898, 5899, 5900, 5901, 5902, 5903, 5904
5905, 5906, 5907, 5908, 5909, 5910, 5911, 5912, 5913, 5914, 5915, 5916, 5917, 5918, 5919, 5920
5921, 5922, 5923, 5924, 5925, 5926, 5927, 5928, 5929, 5930, 5931, 5932, 5933, 5934, 5935, 5936
5937, 5938, 5939, 5940, 5941, 5942, 5943, 5944, 5945, 5946, 5947, 5948, 5949, 5950, 5951, 5952
5953, 5954, 5955, 5956, 5957, 5958, 5959, 5960, 5961, 5962, 5963, 5964, 5965, 5966, 5967, 5968
5969, 5970, 5971, 5972, 5973, 5974, 5975, 5976, 5977, 5978, 5979, 5980, 5981, 5982, 5983, 5984
5985, 5986, 5987, 5988, 5989, 5990, 5991, 5992, 5993, 5994, 5995, 5996, 5997, 5998, 5999, 6000
6001, 6002, 6003, 6004, 6005, 6006, 6007, 6008, 6009, 6010, 6011, 6012, 6013, 6014, 6015, 6016
6017, 6018, 6019, 6020, 6021, 6022, 6023, 6024, 6025, 6026, 6027, 6028, 6029, 6030, 6031, 6032
6033, 6034, 6035, 6036, 6037, 6038, 6039, 6040, 6041, 6042, 6043, 6044, 6045, 6046, 6047, 6048
6049, 6050, 6051, 6052, 6053, 6054, 6055, 6056, 6057, 6058, 6059, 6060, 6061, 6062, 6063, 6064
6065, 6066, 6067, 6068, 6069, 6070, 6071, 6072, 6073, 6074, 6075, 6076, 6077, 6078, 6079, 6080
6081, 6082, 6083, 6084, 6085, 6086, 6087, 6088, 6089, 6090, 6091, 6092, 6093, 6094, 6095, 6096
6097, 6098, 6099, 6100, 6101, 6102, 6103, 6104, 6105, 6106, 6107, 6108, 6109, 6110, 6111, 6112
6113, 6114, 6115, 6116, 6117, 6118, 6119, 6120, 6121, 6122, 6123, 6124, 6125, 6126, 6127, 6128
6129, 6130, 6131, 6132, 6133, 6134, 6135, 6136, 6137, 6138, 6139, 6140, 6141, 6142, 6143, 6144
6145, 6146, 6147, 6148, 6149, 6150, 6151, 6152, 6153, 6154, 6155, 6156, 6157, 6158, 6159, 6160
6161, 6162, 6163, 6164, 6165, 6166, 6167, 6168, 6169, 6170, 6171, 6172, 6173, 6174, 6175, 6176
6177, 6178, 6179, 6180, 6181, 6182, 6183, 6184, 6185, 6186, 6187, 6188, 6189, 6190, 6191, 6192
6193, 6194, 6195, 6196, 6197, 6198, 6199, 6200, 6201, 6202, 6203, 6204, 6205, 6206, 6207, 6208
6209, 6210, 6211, 6212, 6213, 6214, 6215, 6216, 6217, 6218, 6219, 6220, 6221, 6222, 6223, 6224
6225, 6226, 6227, 6228, 6229, 6230, 6231, 6232, 6233, 6234, 6235, 6236, 6237, 6238, 6239, 6240
6241, 6242, 6243, 6244, 6245, 6246, 6247, 6248, 6249, 6250, 6251, 6252, 6253, 6254, 6255, 6256
6257, 6258, 6259, 6260, 6261, 6262, 6263, 6264, 6265, 6266, 6267, 6268, 6269, 6270, 6271, 6272
6273, 6274, 6275, 6276, 6277, 6278, 6279, 6280, 6281, 6282, 6283, 6284, 6285, 6286, 6287, 6288
6289, 6290, 6291, 6292, 6293, 6294, 6295, 6296, 6297, 6298, 6299, 6300, 6301, 6302, 6303, 6304
6305, 6306, 6307, 6308, 6309, 6310, 6311, 6312, 6313, 6314, 6315, 6316, 6317, 6318, 6319, 6320
6321, 6322, 6323, 6324, 6325, 6326, 6327, 6328, 6329, 6330, 6331, 6332, 6333, 6334, 6335, 6336
6337, 6338, 6339, 6340, 6341, 6342, 6343, 6344, 6345, 6346, 6347, 6348, 6349, 6350, 6351, 6352
6353, 6354, 6355, 6356, 6357, 6358, 6359, 6360, 6361, 6362, 6363, 6364, 6365, 6366, 6367, 6368
6369, 6370, 6371, 6372, 6373, 6374, 6375, 6376, 6377, 6378, 6379, 6380, 6381, 6382, 6383, 6384
6385, 6386, 6387, 6388, 6389, 6390, 6391, 6392, 6393, 6394, 6395, 6396, 6397, 6398, 6399, 6400
6401, 6402, 6403, 6404, 6405, 6406, 6407, 6408, 6409, 6410, 6411, 6412, 6413, 6414, 6415, 6416
6417, 6418, 6419, 6420, 6421, 6422, 6423, 6424, 6425, 6426, 6427, 6428, 6429, 6430, 6431, 6432
6433, 6434, 6435, 6436, 6437, 6438, 6439, 6440, 6441, 6442, 6443, 6444, 6445, 6446, 6447, 6448
6449, 6450, 6451, 6452, 6453, 6454, 6455, 6456, 6457, 6458, 6459, 6460, 6461, 6462, 6463, 6464
6465, 6466, 6467, 6468, 6469, 6470, 6471, 6472, 6473, 6474, 6475, 6476, 6477, 6478, 6479, 6480
6481, 6482, 6483, 6484, 6485, 6486, 6487, 6488, 6489, 6490, 6491, 6492, 6493, 6494, 6495, 6496
6497, 6498, 6499, 6500, 6501, 6502, 6503, 6504, 6505, 6506, 6507, 6508, 6509, 6510, 6511, 6512
6513, 6514, 6515, 6516, 6517, 6518, 6519, 6520, 6521, 6522, 6523, 6524, 6525, 6526, 6527, 6528
6529, 6530, 6531, 6532, 6533, 6534, 6535, 6536, 6537, 6538, 6539, 6540, 6541, 6542, 6543, 6544
6545, 6546, 6547, 6548, 6549, 6550, 6551, 6552, 6553, 6554, 6555, 6556, 6557, 6558, 6559, 6560
6561, 6562, 6563, 6564, 6565, 6566, 6567, 6568, 6569, 6570, 6571, 6572, 6573, 6574, 6575, 6576
6577, 6578, 6579, 6580, 6581, 6582, 6583, 6584, 6585, 6586, 6587, 6588, 6589, 6590, 6591, 6592
6593, 6594, 6595, 6596, 6597, 6598, 6599, 6600, 6601, 6602, 6603, 6604, 6605, 6606, 6607, 6608
6609, 6610, 6611, 6612, 6613, 6614, 6615, 6616, 6617, 6618, 6619, 6620, 6621, 6622, 6623, 6624
6625, 6626, 6627, 6628, 6629, 6630, 6631, 6632, 6633, 6634, 6635, 6636, 6637, 6638, 6639, 6640
6641, 6642, 6643, 6644, 6645, 6646, 6647, 6648, 6649, 6650, 6651, 6652, 6653, 6654, 6655, 6656
6657, 6658, 6659, 6660, 6661, 6662, 6663, 6664, 6665, 6666, 6667, 6668, 6669, 6670, 6671, 6672
6673, 6674, 6675, 6676, 6677, 6678, 6679, 6680, 6681, 6682, 6683, 6684, 6685, 6686, 6687, 6688
6689, 6690, 6691, 6692, 6693, 6694, 6695, 6696, 6697, 6698, 6699, 6700, 6701, 6702, 6703, 6704
6705, 6706, 6707, 6708, 6709, 6710, 6711, 6712, 6713, 6714, 6715, 6716, 6717, 6718, 6719, 6720
6721, 6722, 6723, 6724, 6725, 6726, 6727, 6728, 6729, 6730, 6731, 6732, 6733, 6734, 6735, 6736
6737, 6738, 6739, 6740, 6741, 6742, 6743, 6744, 6745, 6746, 6747, 6748, 6749, 6750, 6751, 6752
6753, 6754, 6755, 6756, 6757, 6758, 6759, 6760, 6761, 6762, 6763, 6764, 6765, 6766, 6767, 6768
6769, 6770, 6771, 6772, 6773, 6774, 6775, 6776, 6777, 6778, 6779, 6780, 6781, 6782, 6783, 6784
6785, 6786, 6787, 6788, 6789, 6790, 6791, 6792, 6793, 6794, 6795, 6796, 6797, 6798, 6799, 6800
6801, 6802, 6803, 6804, 6805, 6806, 6807, 6808, 6809, 6810, 6811, 6812, 6813, 6814, 6815, 6816
6817, 6818, 6819, 6820, 6821, 6822, 6823, 6824, 6825, 6826, 6827, 6828, 6829, 6830, 6831, 6832
6833, 6834, 6835, 6836, 6837, 6838, 6839, 6840, 6841, 6842, 6843, 6844, 6845, 6846, 6847, 6848
6849, 6850, 6851, 6852, 6853, 6854, 6855, 6856, 6857, 6858, 6859, 6860, 6861, 6862, 6863, 6864
6865, 6866, 6867, 6868, 6869, 6870, 6871, 6872, 6873, 6874, 6875, 6876, 6877, 6878, 6879, 6880
6881, 6882, 6883, 6884, 6885, 6886, 6887, 6888, 6889, 6890, 6891, 6892, 6893, 6894, 6895, 6896
6897, 6898, 6899, 6900, 6901, 6902, 6903, 6904, 6905, 6906, 6907, 6908, 6909, 6910, 6911, 6912
6913, 6914, 6915, 6916, 6917, 6918, 6919, 6920, 6921, 6922, 6923, 6924, 6925, 6926, 6927, 6928
6929, 6930, 6931, 6932, 6933, 6934, 6935, 6936, 6937, 6938, 6939, 6940, 6941, 6942, 6943, 6944
6945, 6946, 6947, 6948, 6949, 6950, 6951, 6952, 6953, 6954, 6955, 6956, 6957, 6958, 6959, 6960
6961, 6962, 6963, 6964, 6965, 6966, 6967, 6968, 6969, 6970, 6971, 6972, 6973, 6974, 6975, 6976
6977, 6978, 6979, 6980, 6981, 6982, 6983, 6984, 6985, 6986, 6987, 6988, 6989, 6990, 6991, 6992
6993, 6994, 6995, 6996, 6997, 6998, 6999, 7000, 7001, 7002, 7003, 7004, 7005, 7006, 7007, 7008
7009, 7010, 7011, 7012, 7013, 7014, 7015, 7016, 7017, 7018, 7019, 7020, 7021, 7022, 7023, 7024
7025, 7026, 7027, 7028, 7029, 7030, 7031, 7032, 7033, 7034, 7035, 7036, 7037, 7038, 7039, 7040
7041, 7042, 7043, 7044, 7045, 7046, 7047, 7048, 7049, 7050, 7051, 7052, 7053, 7054, 7055, 7056
7057, 7058, 7059, 7060, 7061, 7062, 7063, 7064, 7065, 7066, 7067, 7068, 7069, 7070, 7071, 7072
7073, 7074, 7075, 7076, 7077, 7078, 7079, 7080, 7081, 7082, 7083, 7084, 7085, 7086, 7087, 7088
7089, 7090, 7091, 7092, 7093, 7094, 7095, 7096, 7097, 7098, 7099, 7100, 7101, 7102, 7103, 7104
7105, 7106, 7107, 7108, 7109, 7110, 7111, 7112, 7113, 7114, 7115, 7116, 7117, 7118, 7119, 7120
7121, 7122, 7123, 7124, 7125, 7126, 7127, 7128, 7129, 7130, 7131, 7132, 7133, 7134, 7135, 7136
7137, 7138, 7139, 7140, 7141, 7142, 7143, 7144, 7145, 7146, 7147, 7148, 7149, 7150, 7151, 7152
7153, 7154, 7155, 7156, 7157, 7158, 7159, 7160, 7161, 7162, 7163, 7164, 7165, 7166, 7167, 7168
7169, 7170, 7171, 7172, 7173, 7174, 7175, 7176, 7177, 7178, 7179, 7180, 7181, 7182, 7183, 7184
7185, 7186, 7187, 7188, 7189, 7190, 7191, 7192, 7193, 7194, 7195, 7196, 7197, 7198, 7199, 7200
7201, 7202, 7203, 7204, 7205, 7206, 7207, 7208, 7209, 7210, 7211, 7212, 7213, 7214, 7215, 7216
7217, 7218, 7219, 7220, 7221, 7222, 7223, 7224, 7225, 7226, 7227, 7228, 7229, 7230, 7231, 7232
7233, 7234, 7235, 7236, 7237, 7238, 7239, 7240, 7241, 7242, 7243, 7244, 7245, 7246, 7247, 7248
7249, 7250, 7251, 7252, 7253, 7254, 7255, 7256, 7257, 7258, 7259, 7260, 7261, 7262, 7263, 7264
7265, 7266, 7267, 7268, 7269, 7270, 7271, 7272, 7273, 7274, 7275, 7276, 7277, 7278, 7279, 7280
7281, 7282, 7283, 7284, 7285, 7286, 7287, 7288, 7289, 7290, 7291, 7292, 7293, 7294, 7295, 7296
7297, 7298, 7299, 7300, 7301, 7302, 7303, 7304, 7305, 7306, 7307, 7308, 7309, 7310, 7311, 7312
7313, 7314, 7315, 7316, 7317, 7318, 7319, 7320, 7321, 7322, 7323, 7324, 7325, 7326, 7327, 7328
7329, 7330, 7331, 7332, 7333, 7334, 7335, 7336, 7337, 7338, 7339, 7340, 7341, 7342, 7343, 7344
7345, 7346, 7347, 7348, 7349, 7350, 7351, 7352, 7353, 7354, 7355, 7356, 7357, 7358, 7359, 7360
7361, 7362, 7363, 7364, 7365, 7366, 7367, 7368, 7369, 7370, 7371, 7372, 7373, 7374, 7375, 7376
7377, 7378, 7379, 7380, 7381, 7382, 7383, 7384, 7385, 7386, 7387, 7388, 7389, 7390, 7391, 7392
7393, 7394, 7395, 7396, 7397, 7398, 7399, 7400, 7401, 7402, 7403, 7404, 7405, 7406, 7407, 7408
7409, 7410, 7411, 7412, 7413, 7414, 7415, 7416, 7417, 7418, 7419, 7420, 7421, 7422, 7423, 7424
7425, 7426, 7427, 7428, 7429, 7430, 7431, 7432, 7433, 7434, 7435, 7436, 7437, 7438, 7439, 7440
7441, 7442, 7443, 7444, 7445, 7446, 7447, 7448, 7449, 7450, 7451, 7452, 7453, 7454, 7455, 7456
7457, 7458, 7459, 7460, 7461, 7462, 7463, 7464, 7465, 7466, 7467, 7468, 7469, 7470, 7471, 7472
7473, 7474, 7475, 7476, 7477, 7478, 7479, 7480, 7481, 7482, 7483, 7484, 7485, 7486, 7487, 7488
7489, 7490, 7491
*Nset, nset=PRIMARY_FACE
2, 3, 6, 7, 10, 14, 18, 19, 22, 23, 26, 30, 31, 34, 35, 38
42, 43, 46, 47, 50, 54, 55, 58, 59, 62, 66, 67, 70, 71, 74, 78
79, 82, 83, 86, 90, 91, 94, 95, 98, 102, 103, 106, 107, 110, 114, 115
118, 119, 122, 126, 127, 130, 131, 134, 138, 139, 142, 143, 146, 150, 151, 154
155, 158, 162, 163, 166, 167, 170, 174, 175, 178, 179, 182, 186, 187, 190, 191
194, 198, 199, 202, 203, 206, 210, 211, 214, 215, 218, 222, 223, 226, 227, 230
234, 235, 238, 239, 242, 246, 247, 250, 251, 254, 258, 259, 262, 263, 266, 270
271, 274, 275, 278, 282, 283, 286, 287, 290, 294, 295, 298, 299, 302, 306, 307
310, 311, 314, 318, 319, 322, 323, 326, 330, 331, 334, 335, 338, 342, 343, 346
347, 350, 354, 355, 358, 359, 362, 366, 367, 370, 371, 374, 378, 379, 382, 383
386, 390, 391, 393, 395, 397, 400, 403, 405, 407, 410, 412, 414, 417, 419, 421
424, 426, 428, 431, 433, 435, 438, 440, 442, 445, 447, 449, 452, 454, 456, 459
461, 463, 466, 468, 470, 473, 475, 477, 480, 482, 484, 487, 489, 491, 494, 496
498, 501, 503, 505, 508, 510, 512, 515, 517, 519, 522, 524, 526, 529, 531, 533
536, 538, 540, 543, 545, 547, 550, 552, 554, 557, 559, 561, 564, 566, 568, 571
573, 575, 578, 580, 582, 585, 587, 589, 592, 594, 596, 599, 601, 603, 606, 608
610, 613, 615, 617, 620, 622, 624, 626, 629, 632, 634, 636, 639, 641, 643, 646
648, 650, 653, 655, 657, 660, 662, 664, 667, 669, 671, 674, 676, 678, 681, 683
685, 688, 690, 692, 695, 697, 699, 702, 704, 706, 709, 711, 713, 716, 718, 720
723, 725, 727, 730, 732, 734, 737, 739, 741, 744, 746, 748, 751, 753, 755, 758
760, 762, 765, 767, 769, 772, 774, 776, 779, 781, 783, 786, 788, 790, 793, 795
797, 800, 802, 804, 807, 809, 811, 814, 816, 818, 821, 823, 825, 828, 830, 832
835, 837, 839, 842, 844, 846, 849, 851, 853, 855, 858, 861, 863, 865, 868, 870
872, 875, 877, 879, 882, 884, 886, 889, 891, 893, 896, 898, 900, 903, 905, 907
910, 912, 914, 917, 919, 921, 924, 926, 928, 931, 933, 935, 938, 940, 942, 945
947, 949, 952, 954, 956, 959, 961, 963, 966, 968, 970, 973, 975, 977, 980, 982
984, 987, 989, 991, 994, 996, 998, 1001, 1003, 1005, 1008, 1010, 1012, 1015, 1017, 1019
1022, 1024, 1026, 1029, 1031, 1033, 1036, 1038, 1040, 1043, 1045, 1047, 1050, 1052, 1054, 1057
1059, 1061, 1064, 1066, 1068, 1071, 1073, 1075, 1078, 1080, 1082, 1084, 1087, 1090, 1092, 1094
1097, 1099, 1101, 1104, 1106, 1108, 1111, 1113, 1115, 1118, 1120, 1122, 1125, 1127, 1129, 1132
1134, 1136, 1139, 1141, 1143, 1146, 1148, 1150, 1153, 1155, 1157, 1160, 1162, 1164, 1167, 1169
1171, 1174, 1176, 1178, 1181, 1183, 1185, 1188, 1190, 1192, 1195, 1197, 1199, 1202, 1204, 1206
1209, 1211, 1213, 1216, 1218, 1220, 1223, 1225, 1227, 1230, 1232, 1234, 1237, 1239, 1241, 1244
1246, 1248, 1251, 1253, 1255, 1258, 1260, 1262, 1265, 1267, 1269, 1272, 1274, 1276, 1279, 1281
1283, 1286, 1288, 1290, 1293, 1295, 1297, 1300, 1302, 1304, 1307, 1309, 1311, 1313, 1316, 1319
1321, 1323, 1326, 1328, 1330, 1333, 1335, 1337, 1340, 1342, 1344, 1347, 1349, 1351, 1354, 1356
1358, 1361, 1363, 1365, 1368, 1370, 1372, 1375, 1377, 1379, 1382, 1384, 1386, 1389, 1391, 1393
1396, 1398, 1400, 1403, 1405, 1407, 1410, 1412, 1414, 1417, 1419, 1421, 1424, 1426, 1428, 1431
1433, 1435, 1438, 1440, 1442, 1445, 1447, 1449, 1452, 1454, 1456, 1459, 1461, 1463, 1466, 1468
1470, 1473, 1475, 1477, 1480, 1482, 1484, 1487, 1489, 1491, 1494, 1496, 1498, 1501, 1503, 1505
1508, 1510, 1512, 1515, 1517, 1519, 1522, 1524, 1526, 1529, 1531, 1533, 1536, 1538, 1540, 1542
1545, 1548, 1550, 1552, 1555, 1557, 1559, 1562, 1564, 1566, 1569, 1571, 1573, 1576, 1578, 1580
1583, 1585, 1587, 1590, 1592, 1594, 1597, 1599, 1601, 1604, 1606, 1608, 1611, 1613, 1615, 1618
1620, 1622, 1625, 1627, 1629, 1632, 1634, 1636, 1639, 1641, 1643, 1646, 1648, 1650, 1653, 1655
1657, 1660, 1662, 1664, 1667, 1669, 1671, 1674, 1676, 1678, 1681, 1683, 1685, 1688, 1690, 1692
1695, 1697, 1699, 1702, 1704, 1706, 1709, 1711, 1713, 1716, 1718, 1720, 1723, 1725, 1727, 1730
1732, 1734, 1737, 1739, 1741, 1744, 1746, 1748, 1751, 1753, 1755, 1758, 1760, 1762, 1765, 1767
1769, 1771, 1774, 1777, 1779, 1781, 1784, 1786, 1788, 1791, 1793, 1795, 1798, 1800, 1802, 1805
1807, 1809, 1812, 1814, 1816, 1819, 1821, 1823, 1826, 1828, 1830, 1833, 1835, 1837, 1840, 1842
1844, 1847, 1849, 1851, 1854, 1856, 1858, 1861, 1863, 1865, 1868, 1870, 1872, 1875, 1877, 1879
1882, 1884, 1886, 1889, 1891, 1893, 1896, 1898, 1900, 1903, 1905, 1907, 1910, 1912, 1914, 1917
1919, 1921, 1924, 1926, 1928, 1931, 1933, 1935, 1938, 1940, 1942, 1945, 1947, 1949, 1952, 1954
1956, 1959, 1961, 1963, 1966, 1968, 1970, 1973, 1975, 1977, 1980, 1982, 1984, 1987, 1989, 1991
1994, 1996, 1998, 2000, 2003, 2006, 2008, 2010, 2013, 2015, 2017, 2020, 2022, 2024, 2027, 2029
2031, 2034, 2036, 2038, 2041, 2043, 2045, 2048, 2050, 2052, 2055, 2057, 2059, 2062, 2064, 2066
2069, 2071, 2073, 2076, 2078, 2080, 2083, 2085, 2087, 2090, 2092, 2094, 2097, 2099, 2101, 2104
2106, 2108, 2111, 2113, 2115, 2118, 2120, 2122, 2125, 2127, 2129, 2132, 2134, 2136, 2139, 2141
2143, 2146, 2148, 2150, 2153, 2155, 2157, 2160, 2162, 2164, 2167, 2169, 2171, 2174, 2176, 2178
2181, 2183, 2185, 2188, 2190, 2192, 2195, 2197, 2199, 2202, 2204, 2206, 2209, 2211, 2213, 2216
2218, 2220, 2223, 2225, 2227, 2229, 2232, 2235, 2237, 2239, 2242, 2244, 2246, 2249, 2251, 2253
2256, 2258, 2260, 2263, 2265, 2267, 2270, 2272, 2274, 2277, 2279, 2281, 2284, 2286, 2288, 2291
2293, 2295, 2298, 2300, 2302, 2305, 2307, 2309, 2312, 2314, 2316, 2319, 2321, 2323, 2326, 2328
2330, 2333, 2335, 2337, 2340, 2342, 2344, 2347, 2349, 2351, 2354, 2356, 2358, 2361, 2363, 2365
2368, 2370, 2372, 2375, 2377, 2379, 2382, 2384, 2386, 2389, 2391, 2393, 2396, 2398, 2400, 2403
2405, 2407, 2410, 2412, 2414, 2417, 2419, 2421, 2424, 2426, 2428, 2431, 2433, 2435, 2438, 2440
2442, 2445, 2447, 2449, 2452, 2454, 2456, 2458, 2461, 2464, 2466, 2468, 2471, 2473, 2475, 2478
2480, 2482, 2485, 2487, 2489, 2492, 2494, 2496, 2499, 2501, 2503, 2506, 2508, 2510, 2513, 2515
2517, 2520, 2522, 2524, 2527, 2529, 2531, 2534, 2536, 2538, 2541, 2543, 2545, 2548, 2550, 2552
2555, 2557, 2559, 2562, 2564, 2566, 2569, 2571, 2573, 2576, 2578, 2580, 2583, 2585, 2587, 2590
2592, 2594, 2597, 2599, 2601, 2604, 2606, 2608, 2611, 2613, 2615, 2618, 2620, 2622, 2625, 2627
2629, 2632, 2634, 2636, 2639, 2641, 2643, 2646, 2648, 2650, 2653, 2655, 2657, 2660, 2662, 2664
2667, 2669, 2671, 2674, 2676, 2678, 2681, 2683, 2685, 2687, 2690, 2693, 2695, 2697, 2700, 2702
2704, 2707, 2709, 2711, 2714, 2716, 2718, 2721, 2723, 2725, 2728, 2730, 2732, 2735, 2737, 2739
2742, 2744, 2746, 2749, 2751, 2753, 2756, 2758, 2760, 2763, 2765, 2767, 2770, 2772, 2774, 2777
2779, 2781, 2784, 2786, 2788, 2791, 2793, 2795, 2798, 2800, 2802, 2805, 2807, 2809, 2812, 2814
2816, 2819, 2821, 2823, 2826, 2828, 2830, 2833, 2835, 2837, 2840, 2842, 2844, 2847, 2849, 2851
2854, 2856, 2858, 2861, 2863, 2865, 2868, 2870, 2872, 2875, 2877, 2879, 2882, 2884, 2886, 2889
2891, 2893, 2896, 2898, 2900, 2903, 2905, 2907, 2910, 2912, 2914, 2916, 2919, 2922, 2924, 2926
2929, 2931, 2933, 2936, 2938, 2940, 2943, 2945, 2947, 2950, 2952, 2954, 2957, 2959, 2961, 2964
2966, 2968, 2971, 2973, 2975, 2978, 2980, 2982, 2985, 2987, 2989, 2992, 2994, 2996, 2999, 3001
3003, 3006, 3008, 3010, 3013, 3015, 3017, 3020, 3022, 3024, 3027, 3029, 3031, 3034, 3036, 3038
3041, 3043, 3045, 3048, 3050, 3052, 3055, 3057, 3059, 3062, 3064, 3066, 3069, 3071, 3073, 3076
3078, 3080, 3083, 3085, 3087, 3090, 3092, 3094, 3097, 3099, 3101, 3104, 3106, 3108, 3111, 3113
3115, 3118, 3120, 3122, 3125, 3127, 3129, 3132, 3134, 3136, 3139, 3141, 3143, 3145, 3148, 3151
3153, 3155, 3158, 3160, 3162, 3165, 3167, 3169, 3172, 3174, 3176, 3179, 3181, 3183, 3186, 3188
3190, 3193, 3195, 3197, 3200, 3202, 3204, 3207, 3209, 3211, 3214, 3216, 3218, 3221, 3223, 3225
3228, 3230, 3232, 3235, 3237, 3239, 3242, 3244, 3246, 3249, 3251, 3253, 3256, 3258, 3260, 3263
3265, 3267, 3270, 3272, 3274, 3277, 3279, 3281, 3284, 3286, 3288, 3291, 3293, 3295, 3298, 3300
3302, 3305, 3307, 3309, 3312, 3314, 3316, 3319, 3321, 3323, 3326, 3328, 3330, 3333, 3335, 3337
3340, 3342, 3344, 3347, 3349, 3351, 3354, 3356, 3358, 3361, 3363, 3365, 3368, 3370, 3372, 3374
3377, 3380, 3382, 3384, 3387, 3389, 3391, 3394, 3396, 3398, 3401, 3403, 3405, 3408, 3410, 3412
3415, 3417, 3419, 3422, 3424, 3426, 3429, 3431, 3433, 3436, 3438, 3440, 3443, 3445, 3447, 3450
3452, 3454, 3457, 3459, 3461, 3464, 3466, 3468, 3471, 3473, 3475, 3478, 3480, 3482, 3485, 3487
3489, 3492, 3494, 3496, 3499, 3501, 3503, 3506, 3508, 3510, 3513, 3515, 3517, 3520, 3522, 3524
3527, 3529, 3531, 3534, 3536, 3538, 3541, 3543, 3545, 3548, 3550, 3552, 3555, 3557, 3559, 3562
3564, 3566, 3569, 3571, 3573, 3576, 3578, 3580, 3583, 3585, 3587, 3590, 3592, 3594, 3597, 3599
3601, 3603, 3606, 3609, 3611, 3613, 3616, 3618, 3620, 3623, 3625, 3627, 3630, 3632, 3634, 3637
3639, 3641, 3644, 3646, 3648, 3651, 3653, 3655, 3658, 3660, 3662, 3665, 3667, 3669, 3672, 3674
3676, 3679, 3681, 3683, 3686, 3688, 3690, 3693, 3695, 3697, 3700, 3702, 3704, 3707, 3709, 3711
3714, 3716, 3718, 3721, 3723, 3725, 3728, 3730, 3732, 3735, 3737, 3739, 3742, 3744, 3746, 3749
3751, 3753, 3756, 3758, 3760, 3763, 3765, 3767, 3770, 3772, 3774, 3777, 3779, 3781, 3784, 3786
3788, 3791, 3793, 3795, 3798, 3800, 3802, 3805, 3807, 3809, 3812, 3814, 3816, 3819, 3821, 3823
3826, 3828, 3830, 3832, 3835, 3838, 3840, 3842, 3845, 3847, 3849, 3852, 3854, 3856, 3859, 3861
3863, 3866, 3868, 3870, 3873, 3875, 3877, 3880, 3882, 3884, 3887, 3889, 3891, 3894, 3896, 3898
3901, 3903, 3905, 3908, 3910, 3912, 3915, 3917, 3919, 3922, 3924, 3926, 3929, 3931, 3933, 3936
3938, 3940, 3943, 3945, 3947, 3950, 3952, 3954, 3957, 3959, 3961, 3964, 3966, 3968, 3971, 3973
3975, 3978, 3980, 3982, 3985, 3987, 3989, 3992, 3994, 3996, 3999, 4001, 4003, 4006, 4008, 4010
4013, 4015, 4017, 4020, 4022, 4024, 4027, 4029, 4031, 4034, 4036, 4038, 4041, 4043, 4045, 4048
4050, 4052, 4055, 4057, 4059, 4061, 4064, 4067, 4069, 4071, 4074, 4076, 4078, 4081, 4083, 4085
4088, 4090, 4092, 4095, 4097, 4099, 4102, 4104, 4106, 4109, 4111, 4113, 4116, 4118, 4120, 4123
4125, 4127, 4130, 4132, 4134, 4137, 4139, 4141, 4144, 4146, 4148, 4151, 4153, 4155, 4158, 4160
4162, 4165, 4167, 4169, 4172, 4174, 4176, 4179, 4181, 4183, 4186, 4188, 4190, 4193, 4195, 4197
4200, 4202, 4204, 4207, 4209, 4211, 4214, 4216, 4218, 4221, 4223, 4225, 4228, 4230, 4232, 4235
4237, 4239, 4242, 4244, 4246, 4249, 4251, 4253, 4256, 4258, 4260, 4263, 4265, 4267, 4270, 4272
4274, 4277, 4279, 4281, 4284, 4286, 4288, 4290, 4293, 4296, 4298, 4300, 4303, 4305, 4307, 4310
4312, 4314, 4317, 4319, 4321, 4324, 4326, 4328, 4331, 4333, 4335, 4338, 4340, 4342, 4345, 4347
4349, 4352, 4354, 4356, 4359, 4361, 4363, 4366, 4368, 4370, 4373, 4375, 4377, 4380, 4382, 4384
4387, 4389, 4391, 4394, 4396, 4398, 4401, 4403, 4405, 4408, 4410, 4412, 4415, 4417, 4419, 4422
4424, 4426, 4429, 4431, 4433, 4436, 4438, 4440, 4443, 4445, 4447, 4450, 4452, 4454, 4457, 4459
4461, 4464, 4466, 4468, 4471, 4473, 4475, 4478, 4480, 4482, 4485, 4487, 4489, 4492, 4494, 4496
4499, 4501, 4503, 4506, 4508, 4510, 4513, 4515, 4517, 4519, 4522, 4525, 4527, 4529, 4532, 4534
4536, 4539, 4541, 4543, 4546, 4548, 4550, 4553, 4555, 4557, 4560, 4562, 4564, 4567, 4569, 4571
4574, 4576, 4578, 4581, 4583, 4585, 4588, 4590, 4592, 4595, 4597, 4599, 4602, 4604, 4606, 4609
4611, 4613, 4616, 4618, 4620, 4623, 4625, 4627, 4630, 4632, 4634, 4637, 4639, 4641, 4644, 4646
4648, 4651, 4653, 4655, 4658, 4660, 4662, 4665, 4667, 4669, 4672, 4674, 4676, 4679, 4681, 4683
4686, 4688, 4690, 4693, 4695, 4697, 4700, 4702, 4704, 4707, 4709, 4711, 4714, 4716, 4718, 4721
4723, 4725, 4728, 4730, 4732, 4735, 4737, 4739, 4742, 4744, 4746, 4748, 4751, 4754, 4756, 4758
4761, 4763, 4765, 4768, 4770, 4772, 4775, 4777, 4779, 4782, 4784, 4786, 4789, 4791, 4793, 4796
4798, 4800, 4803, 4805, 4807, 4810, 4812, 4814, 4817, 4819, 4821, 4824, 4826, 4828, 4831, 4833
4835, 4838, 4840, 4842, 4845, 4847, 4849, 4852, 4854, 4856, 4859, 4861, 4863, 4866, 4868, 4870
4873, 4875, 4877, 4880, 4882, 4884, 4887, 4889, 4891, 4894, 4896, 4898, 4901, 4903, 4905, 4908
4910, 4912, 4915, 4917, 4919, 4922, 4924, 4926, 4929, 4931, 4933, 4936, 4938, 4940, 4943, 4945
4947, 4950, 4952, 4954, 4957, 4959, 4961, 4964, 4966, 4968, 4971, 4973, 4975, 4977, 4980, 4983
4985, 4987, 4990, 4992, 4994, 4997, 4999, 5001, 5004, 5006, 5008, 5011, 5013, 5015, 5018, 5020
5022, 5025, 5027, 5029, 5032, 5034, 5036, 5039, 5041, 5043, 5046, 5048, 5050, 5053, 5055, 5057
5060, 5062, 5064, 5067, 5069, 5071, 5074, 5076, 5078, 5081, 5083, 5085, 5088, 5090, 5092, 5095
5097, 5099, 5102, 5104, 5106, 5109, 5111, 5113, 5116, 5118, 5120, 5123, 5125, 5127, 5130, 5132
5134, 5137, 5139, 5141, 5144, 5146, 5148, 5151, 5153, 5155, 5158, 5160, 5162, 5165, 5167, 5169
5172, 5174, 5176, 5179, 5181, 5183, 5186, 5188, 5190, 5193, 5195, 5197, 5200, 5202, 5204, 5206
5209, 5212, 5214, 5216, 5219, 5221, 5223, 5226, 5228, 5230, 5233, 5235, 5237, 5240, 5242, 5244
5247, 5249, 5251, 5254, 5256, 5258, 5261, 5263, 5265, 5268, 5270, 5272, 5275, 5277, 5279, 5282
5284, 5286, 5289, 5291, 5293, 5296, 5298, 5300, 5303, 5305, 5307, 5310, 5312, 5314, 5317, 5319
5321, 5324, 5326, 5328, 5331, 5333, 5335, 5338, 5340, 5342, 5345, 5347, 5349, 5352, 5354, 5356
5359, 5361, 5363, 5366, 5368, 5370, 5373, 5375, 5377, 5380, 5382, 5384, 5387, 5389, 5391, 5394
5396, 5398, 5401, 5403, 5405, 5408, 5410, 5412, 5415, 5417, 5419, 5422, 5424, 5426, 5429, 5431
5433, 5435, 5438, 5441, 5443, 5445, 5448, 5450, 5452, 5455, 5457, 5459, 5462, 5464, 5466, 5469
5471, 5473, 5476, 5478, 5480, 5483, 5485, 5487, 5490, 5492, 5494, 5497, 5499, 5501, 5504, 5506
5508, 5511, 5513, 5515, 5518, 5520, 5522, 5525, 5527, 5529, 5532, 5534, 5536, 5539, 5541, 5543
5546, 5548, 5550, 5553, 5555, 5557, 5560, 5562, 5564, 5567, 5569, 5571, 5574, 5576, 5578, 5581
5583, 5585, 5588, 5590, 5592, 5595, 5597, 5599, 5602, 5604, 5606, 5609, 5611, 5613, 5616, 5618
5620, 5623, 5625, 5627, 5630, 5632, 5634, 5637, 5639, 5641, 5644, 5646, 5648, 5651, 5653, 5655
5658, 5660, 5662, 5664, 5667, 5670, 5672, 5674, 5677, 5679, 5681, 5684, 5686, 5688, 5691, 5693
5695, 5698, 5700, 5702, 5705, 5707, 5709, 5712, 5714, 5716, 5719, 5721, 5723, 5726, 5728, 5730
5733, 5735, 5737, 5740, 5742, 5744, 5747, 5749, 5751, 5754, 5756, 5758, 5761, 5763, 5765, 5768
5770, 5772, 5775, 5777, 5779, 5782, 5784, 5786, 5789, 5791, 5793, 5796, 5798, 5800, 5803, 5805
5807, 5810, 5812, 5814, 5817, 5819, 5821, 5824, 5826, 5828, 5831, 5833, 5835, 5838, 5840, 5842
5845, 5847, 5849, 5852, 5854, 5856, 5859, 5861, 5863, 5866, 5868, 5870, 5873, 5875, 5877, 5880
5882, 5884, 5887, 5889, 5891, 5893, 5896, 5899, 5901, 5903, 5906, 5908, 5910, 5913, 5915, 5917
5920, 5922, 5924, 5927, 5929, 5931, 5934, 5936, 5938, 5941, 5943, 5945, 5948, 5950, 5952, 5955
5957, 5959, 5962, 5964, 5966, 5969, 5971, 5973, 5976, 5978, 5980, 5983, 5985, 5987, 5990, 5992
5994, 5997, 5999, 6001, 6004, 6006, 6008, 6011, 6013, 6015, 6018, 6020, 6022, 6025, 6027, 6029
6032, 6034, 6036, 6039, 6041, 6043, 6046, 6048, 6050, 6053, 6055, 6057, 6060, 6062, 6064, 6067
6069, 6071, 6074, 6076, 6078, 6081, 6083, 6085, 6088, 6090, 6092, 6095, 6097, 6099, 6102, 6104
6106, 6109, 6111, 6113, 6116, 6118, 6120, 6122, 6125, 6128, 6130, 6132, 6135, 6137, 6139, 6142
6144, 6146, 6149, 6151, 6153, 6156, 6158, 6160, 6163, 6165, 6167, 6170, 6172, 6174, 6177, 6179
6181, 6184, 6186, 6188, 6191, 6193, 6195, 6198, 6200, 6202, 6205, 6207, 6209, 6212, 6214, 6216
6219, 6221, 6223, 6226, 6228, 6230, 6233, 6235, 6237, 6240, 6242, 6244, 6247, 6249, 6251, 6254
6256, 6258, 6261, 6263, 6265, 6268, 6270, 6272, 6275, 6277, 6279, 6282, 6284, 6286, 6289, 6291
6293, 6296, 6298, 6300, 6303, 6305, 6307, 6310, 6312, 6314, 6317, 6319, 6321, 6324, 6326, 6328
6331, 6333, 6335, 6338, 6340, 6342, 6345, 6347, 6349, 6351, 6354, 6357, 6359, 6361, 6364, 6366
6368, 6371, 6373, 6375, 6378, 6380, 6382, 6385, 6387, 6389, 6392, 6394, 6396, 6399, 6401, 6403
6406, 6408, 6410, 6413, 6415, 6417, 6420, 6422, 6424, 6427, 6429, 6431, 6434, 6436, 6438, 6441
6443, 6445, 6448, 6450, 6452, 6455, 6457, 6459, 6462, 6464, 6466, 6469, 6471, 6473, 6476, 6478
6480, 6483, 6485, 6487, 6490, 6492, 6494, 6497, 6499, 6501, 6504, 6506, 6508, 6511, 6513, 6515
6518, 6520, 6522, 6525, 6527, 6529, 6532, 6534, 6536, 6539, 6541, 6543, 6546, 6548, 6550, 6553
6555, 6557, 6560, 6562, 6564, 6567, 6569, 6571, 6574, 6576, 6578, 6580, 6583, 6586, 6588, 6590
6593, 6595, 6597, 6600, 6602, 6604, 6607, 6609, 6611, 6614, 6616, 6618, 6621, 6623, 6625, 6628
6630, 6632, 6635, 6637, 6639, 6642, 6644, 6646, 6649, 6651, 6653, 6656, 6658, 6660, 6663, 6665
6667, 6670, 6672, 6674, 6677, 6679, 6681, 6684, 6686, 6688, 6691, 6693, 6695, 6698, 6700, 6702
6705, 6707, 6709, 6712, 6714, 6716, 6719, 6721, 6723, 6726, 6728, 6730, 6733, 6735, 6737, 6740
6742, 6744, 6747, 6749, 6751, 6754, 6756, 6758, 6761, 6763, 6765, 6768, 6770, 6772, 6775, 6777
6779, 6782, 6784, 6786, 6789, 6791, 6793, 6796, 6798, 6800, 6803, 6805, 6807, 6809, 6812, 6815
6817, 6819, 6822, 6824, 6826, 6829, 6831, 6833, 6836, 6838, 6840, 6843, 6845, 6847, 6850, 6852
6854, 6857, 6859, 6861, 6864, 6866, 6868, 6871, 6873, 6875, 6878, 6880, 6882, 6885, 6887, 6889
6892, 6894, 6896, 6899, 6901, 6903, 6906, 6908, 6910, 6913, 6915, 6917, 6920, 6922, 6924, 6927
6929, 6931, 6934, 6936, 6938, 6941, 6943, 6945, 6948, 6950, 6952, 6955, 6957, 6959, 6962, 6964
6966, 6969, 6971, 6973, 6976, 6978, 6980, 6983, 6985, 6987, 6990, 6992, 6994, 6997, 6999, 7001
7004, 7006, 7008, 7011, 7013, 7015, 7018, 7020, 7022, 7025, 7027, 7029, 7032, 7034, 7036, 7038
7041, 7044, 7046, 7048, 7051, 7053, 7055, 7058, 7060, 7062, 7065, 7067, 7069, 7072, 7074, 7076
7079, 7081, 7083, 7086, 7088, 7090, 7093, 7095, 7097, 7100, 7102, 7104, 7107, 7109, 7111, 7114
7116, 7118, 7121, 7123, 7125, 7128, 7130, 7132, 7135, 7137, 7139, 7142, 7144, 7146, 7149, 7151
7153, 7156, 7158, 7160, 7163, 7165, 7167, 7170, 7172, 7174, 7177, 7179, 7181, 7184, 7186, 7188
7191, 7193, 7195, 7198, 7200, 7202, 7205, 7207, 7209, 7212, 7214, 7216, 7219, 7221, 7223, 7226
7228, 7230, 7233, 7235, 7237, 7240, 7242, 7244, 7247, 7249, 7251, 7254, 7256, 7258, 7261, 7263
7265, 7267, 7270, 7273, 7275, 7277, 7280, 7282, 7284, 7287, 7289, 7291, 7294, 7296, 7298, 7301
7303, 7305, 7308, 7310, 7312, 7315, 7317, 7319, 7322, 7324, 7326, 7329, 7331, 7333, 7336, 7338
7340, 7343, 7345, 7347, 7350, 7352, 7354, 7357, 7359, 7361, 7364, 7366, 7368, 7371, 7373, 7375
7378, 7380, 7382, 7385, 7387, 7389, 7392, 7394, 7396, 7399, 7401, 7403, 7406, 7408, 7410, 7413
7415, 7417, 7420, 7422, 7424, 7427, 7429, 7431, 7434, 7436, 7438, 7441, 7443, 7445, 7448, 7450
7452, 7455, 7457, 7459, 7462, 7464, 7466, 7469, 7471, 7473, 7476, 7478, 7480, 7483, 7485, 7487
7490
*Nset, nset=SECONDARY_ALL
7492, 7493, 7494, 7495, 7496, 7497, 7498, 7499, 7500, 7501, 7502, 7503, 7504, 7505, 7506, 7507
7508, 7509, 7510, 7511
*Nset, nset=SECONDARY_FACE
7492, 7495, 7499, 7496, 7503, 7511, 7507, 7508
*Nset, nset=S1
7492
*Nset, nset=S2
7495
*Nset, nset=S3
7499
*Nset, nset=S4
7496
*Nset, nset=S5
7503
*Nset, nset=S6
7511
*Nset, nset=S7
7507
*Nset, nset=S8
7508
*Surface, type=ELEMENT, name=PRIMARY_CONTACT
PRIMARY, S4
*Surface, type=ELEMENT, name=SECONDARY_CONTACT
SECONDARY, S6
*Material, name=ELASTIC
*Elastic
1.e9, 0.
*Solid Section, elset=PRIMARY, material=ELASTIC
,
*Solid Section, elset=SECONDARY, material=ELASTIC
,
*Surface Interaction, name=LINEAR_PENALTY
*Surface Behavior, penalty=LINEAR
1.e8,
*Contact Pair, interaction=LINEAR_PENALTY, type=SURFACE TO SURFACE, adjust=0.
SECONDARY_CONTACT, PRIMARY_CONTACT
*Nset, nset=PRIMARY_OTHER
1,2,3,4,5,6,7,8,9,10,11,12,13,14,15,16
17,18,19,20,21,22,23,24,25,26,27,28,29,30,31,32
33,34,35,36,37,38,39,40,41,42,43,44,45,46,47,48
49,50,51,52,53,54,55,56,57,58,59,60,61,62,63,64
65,66,67,68,69,70,71,72,73,74,75,76,77,78,79,80
81,82,83,84,85,86,87,88,89,90,91,92,93,94,95,96
97,98,99,100,101,102,103,104,105,106,107,108,109,110,111,112
113,114,115,116,117,118,119,120,121,122,123,124,125,126,127,128
129,130,131,132,133,134,135,136,137,138,139,140,141,142,143,144
145,146,147,148,149,150,151,152,153,154,155,156,157,158,159,160
161,162,163,164,165,166,167,168,169,170,171,172,173,174,175,176
177,178,179,180,181,182,183,184,185,186,187,188,189,190,191,192
193,194,195,196,197,198,199,200,201,202,203,204,205,206,207,208
209,210,211,212,213,214,215,216,217,218,219,220,221,222,223,224
225,226,227,228,229,230,231,232,233,234,235,236,237,238,239,240
241,242,243,244,245,246,247,248,249,250,251,252,253,254,255,256
257,258,259,260,261,262,263,264,265,266,267,268,269,270,271,272
273,274,275,276,277,278,279,280,281,282,283,284,285,286,287,288
289,290,291,292,293,294,295,296,297,298,299,300,301,302,303,304
305,306,307,308,309,310,311,312,313,314,315,316,317,318,319,320
321,322,323,324,325,326,327,328,329,330,331,332,333,334,335,336
337,338,339,340,341,342,343,344,345,346,347,348,349,350,351,352
353,354,355,356,357,358,359,360,361,362,363,364,365,366,367,368
369,370,371,372,373,374,375,376,377,378,379,380,381,382,383,384
385,386,387,388,389,390,391,392,393,394,395,396,397,398,399,400
401,402,403,404,405,406,407,408,409,410,411,412,413,414,415,416
417,418,419,420,421,422,423,424,425,426,427,428,429,430,431,432
433,434,435,436,437,438,439,440,441,442,443,444,445,446,447,448
449,450,451,452,453,454,455,456,457,458,459,460,461,462,463,464
465,466,467,468,469,470,471,472,473,474,475,476,477,478,479,480
481,482,483,484,485,486,487,488,489,490,491,492,493,494,495,496
497,498,499,500,501,502,503,504,505,506,507,508,509,510,511,512
513,514,515,516,517,518,519,520,521,522,523,524,525,526,527,528
529,530,531,532,533,534,535,536,537,538,539,540,541,542,543,544
545,546,547,548,549,550,551,552,553,554,555,556,557,558,559,560
561,562,563,564,565,566,567,568,569,570,571,572,573,574,575,576
577,578,579,580,581,582,583,584,585,586,587,588,589,590,591,592
593,594,595,596,597,598,599,600,601,602,603,604,605,606,607,608
609,610,611,612,613,614,615,616,617,618,619,620,621,622,623,624
625,626,627,628,629,630,631,632,633,634,635,636,637,638,639,640
641,642,643,644,645,646,647,648,649,650,651,652,653,654,655,656
657,658,659,660,661,662,663,664,665,666,667,668,669,670,671,672
673,674,675,676,677,678,679,680,681,682,683,684,685,686,687,688
689,690,691,692,693,694,695,696,697,698,699,700,701,702,703,704
705,706,707,708,709,710,711,712,713,714,715,716,717,718,719,720
721,722,723,724,725,726,727,728,729,730,731,732,733,734,735,736
737,738,739,740,741,742,743,744,745,746,747,748,749,750,751,752
753,754,755,756,757,758,759,760,761,762,763,764,765,766,767,768
769,770,771,772,773,774,775,776,777,778,779,780,781,782,783,784
785,786,787,788,789,790,791,792,793,794,795,796,797,798,799,800
801,802,803,804,805,806,807,808,809,810,811,812,813,814,815,816
817,818,819,820,821,822,823,824,825,826,827,828,829,830,831,832
833,834,835,836,837,838,839,840,841,842,843,844,845,846,847,848
849,850,851,852,853,854,855,856,857,858,859,860,861,862,863,864
865,866,867,868,869,870,871,872,873,874,875,876,877,878,879,880
881,882,883,884,885,886,887,888,890,891,892,893,894,895,896,897
898,899,900,901,902,903,904,905,906,907,908,909,910,911,912,913
914,915,916,917,918,919,920,921,922,923,924,925,926,927,928,929
930,931,932,933,934,935,936,937,938,939,940,941,942,943,944,945
946,947,948,949,950,951,952,953,954,955,956,957,958,959,960,961
962,963,964,965,966,967,968,969,970,971,972,973,974,975,976,977
978,979,980,981,982,983,984,985,986,987,988,989,990,991,992,993
994,995,996,997,998,999,1000,1001,1002,1003,1004,1005,1006,1007,1008,1009
1010,1011,1012,1013,1014,1015,1016,1017,1018,1019,1020,1021,1022,1023,1024,1025
1026,1027,1028,1029,1030,1031,1032,1033,1034,1035,1036,1037,1038,1039,1040,1041
1042,1043,1044,1045,1046,1047,1048,1049,1050,1051,1052,1053,1054,1055,1056,1057
1058,1059,1060,1061,1062,1063,1064,1065,1066,1067,1068,1069,1070,1071,1072,1073
1074,1075,1076,1077,1078,1079,1080,1081,1082,1083,1084,1085,1086,1087,1088,1089
1090,1091,1092,1093,1094,1095,1096,1097,1098,1099,1100,1101,1102,1103,1104,1105
1106,1107,1108,1109,1110,1111,1112,1113,1114,1115,1116,1117,1118,1119,1120,1121
1122,1123,1124,1125,1126,1127,1128,1129,1130,1131,1132,1133,1134,1135,1136,1137
1138,1139,1140,1141,1142,1143,1144,1145,1146,1147,1148,1149,1150,1151,1152,1153
1154,1155,1156,1157,1158,1159,1160,1161,1162,1163,1164,1165,1166,1167,1168,1169
1170,1171,1172,1173,1174,1175,1176,1177,1178,1179,1180,1181,1182,1183,1184,1185
1186,1187,1188,1189,1190,1191,1192,1193,1194,1195,1196,1197,1198,1199,1200,1201
1202,1203,1204,1205,1206,1207,1208,1209,1210,1211,1212,1213,1214,1215,1216,1217
1218,1219,1220,1221,1222,1223,1224,1225,1226,1227,1228,1229,1230,1231,1232,1233
1234,1235,1236,1237,1238,1239,1240,1241,1242,1243,1244,1245,1246,1247,1248,1249
1250,1251,1252,1253,1254,1255,1256,1257,1258,1259,1260,1261,1262,1263,1264,1265
1266,1267,1268,1269,1270,1271,1272,1273,1274,1275,1276,1277,1278,1279,1280,1281
1282,1283,1284,1285,1286,1287,1288,1289,1290,1291,1292,1293,1294,1295,1296,1297
1298,1299,1300,1301,1302,1303,1304,1305,1306,1307,1308,1309,1310,1311,1312,1313
1314,1315,1316,1317,1318,1319,1320,1321,1322,1323,1324,1325,1326,1327,1328,1329
1330,1331,1332,1333,1334,1335,1336,1337,1338,1339,1340,1341,1342,1343,1344,1345
1346,1347,1348,1349,1350,1351,1352,1353,1354,1355,1356,1357,1358,1359,1360,1361
1362,1363,1364,1365,1366,1367,1368,1369,1370,1371,1372,1373,1374,1375,1376,1377
1378,1379,1380,1381,1382,1383,1384,1385,1386,1387,1388,1389,1390,1391,1392,1393
1394,1395,1396,1397,1398,1399,1400,1401,1402,1403,1404,1405,1406,1407,1408,1409
1410,1411,1412,1413,1414,1415,1416,1417,1418,1419,1420,1421,1422,1423,1424,1425
1426,1427,1428,1429,1430,1431,1432,1433,1434,1435,1436,1437,1438,1439,1440,1441
1442,1443,1444,1445,1446,1447,1448,1449,1450,1451,1452,1453,1454,1455,1456,1457
1458,1459,1460,1461,1462,1463,1464,1465,1466,1467,1468,1469,1470,1471,1472,1473
1474,1475,1476,1477,1478,1479,1480,1481,1482,1483,1484,1485,1486,1487,1488,1489
1490,1491,1492,1493,1494,1495,1496,1497,1498,1499,1500,1501,1502,1503,1504,1505
1506,1507,1508,1509,1510,1511,1512,1513,1514,1515,1516,1517,1518,1519,1520,1521
1522,1523,1524,1525,1526,1527,1528,1529,1530,1531,1532,1533,1534,1535,1536,1537
1538,1539,1540,1541,1542,1543,1544,1545,1546,1547,1548,1549,1550,1551,1552,1553
1554,1555,1556,1557,1558,1559,1560,1561,1562,1563,1564,1565,1566,1567,1568,1569
1570,1571,1572,1573,1574,1575,1576,1577,1578,1579,1580,1581,1582,1583,1584,1585
1586,1587,1588,1589,1590,1591,1592,1593,1594,1595,1596,1597,1598,1599,1600,1601
1602,1603,1604,1605,1606,1607,1608,1609,1610,1611,1612,1613,1614,1615,1616,1617
1618,1619,1620,1621,1622,1623,1624,1625,1626,1627,1628,1629,1630,1631,1632,1633
1634,1635,1636,1637,1638,1639,1640,1641,1642,1643,1644,1645,1646,1647,1648,1649
1650,1651,1652,1653,1654,1655,1656,1657,1658,1659,1660,1661,1662,1663,1664,1665
1666,1667,1668,1669,1670,1671,1672,1673,1674,1675,1676,1677,1678,1679,1680,1681
1682,1683,1684,1685,1686,1687,1688,1689,1690,1691,1692,1693,1694,1695,1696,1697
1698,1699,1700,1701,1702,1703,1704,1705,1706,1707,1708,1709,1710,1711,1712,1713
1714,1715,1716,1717,1718,1719,1720,1721,1722,1723,1724,1725,1726,1727,1728,1729
1730,1731,1732,1733,1734,1735,1736,1737,1738,1739,1740,1741,1742,1743,1744,1745
1746,1747,1748,1749,1750,1751,1752,1753,1754,1755,1756,1757,1758,1759,1760,1761
1762,1763,1764,1765,1766,1767,1768,1769,1770,1771,1772,1773,1774,1775,1776,1777
1778,1779,1780,1781,1782,1783,1784,1785,1786,1787,1788,1789,1790,1791,1792,1793
1794,1795,1796,1797,1798,1799,1800,1801,1802,1803,1804,1805,1806,1807,1808,1809
1810,1811,1812,1813,1814,1815,1816,1817,1818,1819,1820,1821,1822,1823,1824,1825
1826,1827,1828,1829,1830,1831,1832,1833,1834,1835,1836,1837,1838,1839,1840,1841
1842,1843,1844,1845,1846,1847,1848,1849,1850,1851,1852,1853,1854,1855,1856,1857
1858,1859,1860,1861,1862,1863,1864,1865,1866,1867,1868,1869,1870,1871,1872,1873
1874,1875,1876,1877,1878,1879,1880,1881,1882,1883,1884,1885,1886,1887,1888,1889
1890,1891,1892,1893,1894,1895,1896,1897,1898,1899,1900,1901,1902,1903,1904,1905
1906,1907,1908,1909,1910,1911,1912,1913,1914,1915,1916,1917,1918,1919,1920,1921
1922,1923,1924,1925,1926,1927,1928,1929,1930,1931,1932,1933,1934,1935,1936,1937
1938,1939,1940,1941,1942,1943,1944,1945,1946,1947,1948,1949,1950,1951,1952,1953
1954,1955,1956,1957,1958,1959,1960,1961,1962,1963,1964,1965,1966,1967,1968,1969
1970,1971,1972,1973,1974,1975,1976,1977,1978,1979,1980,1981,1982,1983,1984,1985
1986,1987,1988,1989,1990,1991,1992,1993,1994,1995,1996,1997,1998,1999,2000,2001
2002,2003,2004,2005,2006,2007,2008,2009,2010,2011,2012,2013,2014,2015,2016,2017
2018,2019,2020,2021,2022,2023,2024,2025,2026,2027,2028,2029,2030,2031,2032,2033
2034,2035,2036,2037,2038,2039,2040,2041,2042,2043,2044,2045,2046,2047,2048,2049
2050,2051,2052,2053,2054,2055,2056,2057,2058,2059,2060,2061,2062,2063,2064,2065
2066,2067,2068,2069,2070,2071,2072,2073,2074,2075,2076,2077,2078,2079,2080,2081
2082,2083,2084,2085,2086,2087,2088,2089,2090,2091,2092,2093,2094,2095,2096,2097
2098,2099,2100,2101,2102,2103,2104,2105,2106,2107,2108,2109,2110,2111,2112,2113
2114,2115,2116,2117,2118,2119,2120,2121,2122,2123,2124,2125,2126,2127,2128,2129
2130,2131,2132,2133,2134,2135,2136,2137,2138,2139,2140,2141,2142,2143,2144,2145
2146,2147,2148,2149,2150,2151,2152,2153,2154,2155,2156,2157,2158,2159,2160,2161
2162,2163,2164,2165,2166,2167,2168,2169,2170,2171,2172,2173,2174,2175,2176,2177
2178,2179,2180,2181,2182,2183,2184,2185,2186,2187,2188,2189,2190,2191,2192,2193
2194,2195,2196,2197,2198,2199,2200,2201,2202,2203,2204,2205,2206,2207,2208,2209
2210,2211,2212,2213,2214,2215,2216,2217,2218,2219,2220,2221,2222,2223,2224,2225
2226,2227,2228,2229,2230,2231,2232,2233,2234,2235,2236,2237,2238,2239,2240,2241
2242,2243,2244,2245,2246,2247,2248,2249,2250,2251,2252,2253,2254,2255,2256,2257
2258,2259,2260,2261,2262,2263,2264,2265,2266,2267,2268,2269,2270,2271,2272,2273
2274,2275,2276,2277,2278,2279,2280,2281,2282,2283,2284,2285,2286,2287,2288,2289
2290,2291,2292,2293,2294,2295,2296,2297,2298,2299,2300,2301,2302,2303,2304,2305
2306,2307,2308,2309,2310,2311,2312,2313,2314,2315,2316,2317,2318,2319,2320,2321
2322,2323,2324,2325,2326,2327,2328,2329,2330,2331,2332,2333,2334,2335,2336,2337
2338,2339,2340,2341,2342,2343,2344,2345,2346,2347,2348,2349,2350,2351,2352,2353
2354,2355,2356,2357,2358,2359,2360,2361,2362,2363,2364,2365,2366,2367,2368,2369
2370,2371,2372,2373,2374,2375,2376,2377,2378,2379,2380,2381,2382,2383,2384,2385
2386,2387,2388,2389,2390,2391,2392,2393,2394,2395,2396,2397,2398,2399,2400,2401
2402,2403,2404,2405,2406,2407,2408,2409,2410,2411,2412,2413,2414,2415,2416,2417
2418,2419,2420,2421,2422,2423,2424,2425,2426,2427,2428,2429,2430,2431,2432,2433
2434,2435,2436,2437,2438,2439,2440,2441,2442,2443,2444,2445,2446,2447,2448,2449
2450,2451,2452,2453,2454,2455,2456,2457,2458,2459,2460,2461,2462,2463,2464,2465
2466,2467,2468,2469,2470,2471,2472,2473,2474,2475,2476,2477,2478,2479,2480,2481
2482,2483,2484,2485,2486,2487,2488,2489,2490,2491,2492,2493,2494,2495,2496,2497
2498,2499,2500,2501,2502,2503,2504,2505,2506,2507,2508,2509,2510,2511,2512,2513
2514,2515,2516,2517,2518,2519,2520,2521,2522,2523,2524,2525,2526,2527,2528,2529
2530,2531,2532,2533,2534,2535,2536,2537,2538,2539,2540,2541,2542,2543,2544,2545
2546,2547,2548,2549,2550,2551,2552,2553,2554,2555,2556,2557,2558,2559,2560,2561
2562,2563,2564,2565,2566,2567,2568,2569,2570,2571,2572,2573,2574,2575,2576,2577
2578,2579,2580,2581,2582,2583,2584,2585,2586,2587,2588,2589,2590,2591,2592,2593
2594,2595,2596,2597,2598,2599,2600,2601,2602,2603,2604,2605,2606,2607,2608,2609
2610,2611,2612,2613,2614,2615,2616,2617,2618,2619,2620,2621,2622,2623,2624,2625
2626,2627,2628,2629,2630,2631,2632,2633,2634,2635,2636,2637,2638,2639,2640,2641
2642,2643,2644,2645,2646,2647,2648,2649,2650,2651,2652,2653,2654,2655,2656,2657
2658,2659,2660,2661,2662,2663,2664,2665,2666,2667,2668,2669,2670,2671,2672,2673
2674,2675,2676,2677,2678,2679,2680,2681,2682,2683,2684,2685,2686,2687,2688,2689
2690,2691,2692,2693,2694,2695,2696,2697,2698,2699,2700,2701,2702,2703,2704,2705
2706,2707,2708,2709,2710,2711,2712,2713,2714,2715,2716,2717,2718,2719,2720,2721
2722,2723,2724,2725,2726,2727,2728,2729,2730,2731,2732,2733,2734,2735,2736,2737
2738,2739,2740,2741,2742,2743,2744,2745,2746,2747,2748,2749,2750,2751,2752,2753
2754,2755,2756,2757,2758,2759,2760,2761,2762,2763,2764,2765,2766,2767,2768,2769
2770,2771,2772,2773,2774,2775,2776,2777,2778,2779,2780,2781,2782,2783,2784,2785
2786,2787,2788,2789,2790,2791,2792,2793,2794,2795,2796,2797,2798,2799,2800,2801
2802,2803,2804,2805,2806,2807,2808,2809,2810,2811,2812,2813,2814,2815,2816,2817
2818,2819,2820,2821,2822,2823,2824,2825,2826,2827,2828,2829,2830,2831,2832,2833
2834,2835,2836,2837,2838,2839,2840,2841,2842,2843,2844,2845,2846,2847,2848,2849
2850,2851,2852,2853,2854,2855,2856,2857,2858,2859,2860,2861,2862,2863,2864,2865
2866,2867,2868,2869,2870,2871,2872,2873,2874,2875,2876,2877,2878,2879,2880,2881
2882,2883,2884,2885,2886,2887,2888,2889,2890,2891,2892,2893,2894,2895,2896,2897
2898,2899,2900,2901,2902,2903,2904,2905,2906,2907,2908,2909,2910,2911,2912,2913
2914,2915,2916,2917,2918,2919,2920,2921,2922,2923,2924,2925,2926,2927,2928,2929
2930,2931,2932,2933,2934,2935,2936,2937,2938,2939,2940,2941,2942,2943,2944,2945
2946,2947,2948,2949,2950,2951,2952,2953,2954,2955,2956,2957,2958,2959,2960,2961
2962,2963,2964,2965,2966,2967,2968,2969,2970,2971,2972,2973,2974,2975,2976,2977
2978,2979,2980,2981,2982,2983,2984,2985,2986,2987,2988,2989,2990,2991,2992,2993
2994,2995,2996,2997,2998,2999,3000,3001,3002,3003,3004,3005,3006,3007,3008,3009
3010,3011,3012,3013,3014,3015,3016,3017,3018,3019,3020,3021,3022,3023,3024,3025
3026,3027,3028,3029,3030,3031,3032,3033,3034,3035,3036,3037,3038,3039,3040,3041
3042,3043,3044,3045,3046,3047,3048,3049,3050,3051,3052,3053,3054,3055,3056,3057
3058,3059,3060,3061,3062,3063,3064,3065,3066,3067,3068,3069,3070,3071,3072,3073
3074,3075,3076,3077,3078,3079,3080,3081,3082,3083,3084,3085,3086,3087,3088,3089
3090,3091,3092,3093,3094,3095,3096,3097,3098,3099,3100,3101,3102,3103,3104,3105
3106,3107,3108,3109,3110,3111,3112,3113,3114,3115,3116,3117,3118,3119,3120,3121
3122,3123,3124,3125,3126,3127,3128,3129,3130,3131,3132,3133,3134,3135,3136,3137
3138,3139,3140,3141,3142,3143,3144,3145,3146,3147,3148,3149,3150,3151,3152,3153
3154,3155,3156,3157,3158,3159,3160,3161,3162,3163,3164,3165,3166,3167,3168,3169
3170,3171,3172,3173,3174,3175,3176,3177,3178,3179,3180,3181,3182,3183,3184,3185
3186,3187,3188,3189,3190,3191,3192,3193,3194,3195,3196,3197,3198,3199,3200,3201
3202,3203,3204,3205,3206,3207,3208,3209,3210,3211,3212,3213,3214,3215,3216,3217
3218,3219,3220,3221,3222,3223,3224,3225,3226,3227,3228,3229,3230,3231,3232,3233
3234,3235,3236,3237,3238,3239,3240,3241,3242,3243,3244,3245,3246,3247,3248,3249
3250,3251,3252,3253,3254,3255,3256,3257,3258,3259,3260,3261,3262,3263,3264,3265
3266,3267,3268,3269,3270,3271,3272,3273,3274,3275,3276,3277,3278,3279,3280,3281
3282,3283,3284,3285,3286,3287,3288,3289,3290,3291,3292,3293,3294,3295,3296,3297
3298,3299,3300,3301,3302,3303,3304,3305,3306,3307,3308,3309,3310,3311,3312,3313
3314,3315,3316,3317,3318,3319,3320,3321,3322,3323,3324,3325,3326,3327,3328,3329
3330,3331,3332,3333,3334,3335,3336,3337,3338,3339,3340,3341,3342,3343,3344,3345
3346,3347,3348,3349,3350,3351,3352,3353,3354,3355,3356,3357,3358,3359,3360,3361
3362,3363,3364,3365,3366,3367,3368,3369,3370,3371,3372,3373,3374,3375,3376,3377
3378,3379,3380,3381,3382,3383,3384,3385,3386,3387,3388,3389,3390,3391,3392,3393
3394,3395,3396,3397,3398,3399,3400,3401,3402,3403,3404,3405,3406,3407,3408,3409
3410,3411,3412,3413,3414,3415,3416,3417,3418,3419,3420,3421,3422,3423,3424,3425
3426,3427,3428,3429,3430,3431,3432,3433,3434,3435,3436,3437,3438,3439,3440,3441
3442,3443,3444,3445,3446,3447,3448,3449,3450,3451,3452,3453,3454,3455,3456,3457
3458,3459,3460,3461,3462,3463,3464,3465,3466,3467,3468,3469,3470,3471,3472,3473
3474,3475,3476,3477,3478,3479,3480,3481,3482,3483,3484,3485,3486,3487,3488,3489
3490,3491,3492,3493,3494,3495,3496,3497,3498,3499,3500,3501,3502,3503,3504,3505
3506,3507,3508,3509,3510,3511,3512,3513,3514,3515,3516,3517,3518,3519,3520,3521
3522,3523,3524,3525,3526,3527,3528,3529,3530,3531,3532,3533,3534,3535,3536,3537
3538,3539,3540,3541,3542,3543,3544,3545,3546,3547,3548,3549,3550,3551,3552,3553
3554,3555,3556,3557,3558,3559,3560,3561,3562,3563,3564,3565,3566,3567,3568,3569
3570,3571,3572,3573,3574,3575,3576,3577,3578,3579,3580,3581,3582,3583,3584,3585
3586,3587,3588,3589,3590,3591,3592,3593,3594,3595,3596,3597,3598,3599,3600,3601
3602,3603,3604,3605,3606,3607,3608,3609,3610,3611,3612,3613,3614,3615,3616,3617
3618,3619,3620,3621,3622,3623,3624,3625,3626,3627,3628,3629,3630,3631,3632,3633
3634,3635,3636,3637,3638,3639,3640,3641,3642,3643,3644,3645,3646,3647,3648,3649
3650,3651,3652,3653,3654,3655,3656,3657,3658,3659,3660,3661,3662,3663,3664,3665
3666,3667,3668,3669,3670,3671,3672,3673,3674,3675,3676,3677,3678,3679,3680,3681
3682,3683,3684,3685,3686,3687,3688,3689,3690,3691,3692,3693,3694,3695,3696,3697
3698,3699,3700,3701,3702,3703,3704,3705,3706,3707,3708,3709,3710,3711,3712,3713
3714,3715,3716,3717,3718,3719,3720,3721,3722,3723,3724,3725,3726,3727,3728,3729
3730,3731,3732,3733,3734,3735,3736,3737,3738,3739,3740,3741,3742,3743,3744,3745
3746,3747,3748,3749,3750,3751,3752,3753,3754,3755,3756,3757,3758,3759,3760,3761
3762,3763,3764,3765,3766,3767,3768,3769,3770,3771,3772,3773,3774,3775,3776,3777
3778,3779,3780,3781,3782,3783,3784,3785,3786,3787,3788,3789,3790,3791,3792,3793
3794,3795,3796,3797,3798,3799,3800,3801,3802,3803,3804,3805,3806,3807,3808,3809
3810,3811,3812,3813,3814,3815,3816,3817,3818,3819,3820,3821,3822,3823,3824,3825
3826,3827,3828,3829,3830,3831,3832,3833,3834,3835,3836,3837,3838,3839,3840,3841
3842,3843,3844,3845,3846,3847,3848,3849,3850,3851,3852,3853,3854,3855,3856,3857
3858,3859,3860,3861,3862,3863,3864,3865,3866,3867,3868,3869,3870,3871,3872,3873
3874,3875,3876,3877,3878,3879,3880,3881,3882,3883,3884,3885,3886,3887,3888,3889
3890,3891,3892,3893,3894,3895,3896,3897,3898,3899,3900,3901,3902,3903,3904,3905
3906,3907,3908,3909,3910,3911,3912,3913,3914,3915,3916,3917,3918,3919,3920,3921
3922,3923,3924,3925,3926,3927,3928,3929,3930,3931,3932,3933,3934,3935,3936,3937
3938,3939,3940,3941,3942,3943,3944,3945,3946,3947,3948,3949,3950,3951,3952,3953
3954,3955,3956,3957,3958,3959,3960,3961,3962,3963,3964,3965,3966,3967,3968,3969
3970,3971,3972,3973,3974,3975,3976,3977,3978,3979,3980,3981,3982,3983,3984,3985
3986,3987,3988,3989,3990,3991,3992,3993,3994,3995,3996,3997,3998,3999,4000,4001
4002,4003,4004,4005,4006,4007,4008,4009,4010,4011,4012,4013,4014,4015,4016,4017
4018,4019,4020,4021,4022,4023,4024,4025,4026,4027,4028,4029,4030,4031,4032,4033
4034,4035,4036,4037,4038,4039,4040,4041,4042,4043,4044,4045,4046,4047,4048,4049
4050,4051,4052,4053,4054,4055,4056,4057,4058,4059,4060,4061,4062,4063,4064,4065
4066,4067,4068,4069,4070,4071,4072,4073,4074,4075,4076,4077,4078,4079,4080,4081
4082,4083,4084,4085,4086,4087,4088,4089,4090,4091,4092,4093,4094,4095,4096,4097
4098,4099,4100,4101,4102,4103,4104,4105,4106,4107,4108,4109,4110,4111,4112,4113
4114,4115,4116,4117,4118,4119,4120,4121,4122,4123,4124,4125,4126,4127,4128,4129
4130,4131,4132,4133,4134,4135,4136,4137,4138,4139,4140,4141,4142,4143,4144,4145
4146,4147,4148,4149,4150,4151,4152,4153,4154,4155,4156,4157,4158,4159,4160,4161
4162,4163,4164,4165,4166,4167,4168,4169,4170,4171,4172,4173,4174,4175,4176,4177
4178,4179,4180,4181,4182,4183,4184,4185,4186,4187,4188,4189,4190,4191,4192,4193
4194,4195,4196,4197,4198,4199,4200,4201,4202,4203,4204,4205,4206,4207,4208,4209
4210,4211,4212,4213,4214,4215,4216,4217,4218,4219,4220,4221,4222,4223,4224,4225
4226,4227,4228,4229,4230,4231,4232,4233,4234,4235,4236,4237,4238,4239,4240,4241
4242,4243,4244,4245,4246,4247,4248,4249,4250,4251,4252,4253,4254,4255,4256,4257
4258,4259,4260,4261,4262,4263,4264,4265,4266,4267,4268,4269,4270,4271,4272,4273
4274,4275,4276,4277,4278,4279,4280,4281,4282,4283,4284,4285,4286,4287,4288,4289
4290,4291,4292,4293,4294,4295,4296,4297,4298,4299,4300,4301,4302,4303,4304,4305
4306,4307,4308,4309,4310,4311,4312,4313,4314,4315,4316,4317,4318,4319,4320,4321
4322,4323,4324,4325,4326,4327,4328,4329,4330,4331,4332,4333,4334,4335,4336,4337
4338,4339,4340,4341,4342,4343,4344,4345,4346,4347,4348,4349,4350,4351,4352,4353
4354,4355,4356,4357,4358,4359,4360,4361,4362,4363,4364,4365,4366,4367,4368,4369
4370,4371,4372,4373,4374,4375,4376,4377,4378,4379,4380,4381,4382,4383,4384,4385
4386,4387,4388,4389,4390,4391,4392,4393,4394,4395,4396,4397,4398,4399,4400,4401
4402,4403,4404,4405,4406,4407,4408,4409,4410,4411,4412,4413,4414,4415,4416,4417
4418,4419,4420,4421,4422,4423,4424,4425,4426,4427,4428,4429,4430,4431,4432,4433
4434,4435,4436,4437,4438,4439,4440,4441,4442,4443,4444,4445,4446,4447,4448,4449
4450,4451,4452,4453,4454,4455,4456,4457,4458,4459,4460,4461,4462,4463,4464,4465
4466,4467,4468,4469,4470,4471,4472,4473,4474,4475,4476,4477,4478,4479,4480,4481
4482,4483,4484,4485,4486,4487,4488,4489,4490,4491,4492,4493,4494,4495,4496,4497
4498,4499,4500,4501,4502,4503,4504,4505,4506,4507,4508,4509,4510,4511,4512,4513
4514,4515,4516,4517,4518,4519,4520,4521,4522,4523,4524,4525,4526,4527,4528,4529
4530,4531,4532,4533,4534,4535,4536,4537,4538,4539,4540,4541,4542,4543,4544,4545
4546,4547,4548,4549,4550,4551,4552,4553,4554,4555,4556,4557,4558,4559,4560,4561
4562,4563,4564,4565,4566,4567,4568,4569,4570,4571,4572,4573,4574,4575,4576,4577
4578,4579,4580,4581,4582,4583,4584,4585,4586,4587,4588,4589,4590,4591,4592,4593
4594,4595,4596,4597,4598,4599,4600,4601,4602,4603,4604,4605,4606,4607,4608,4609
4610,4611,4612,4613,4614,4615,4616,4617,4618,4619,4620,4621,4622,4623,4624,4625
4626,4627,4628,4629,4630,4631,4632,4633,4634,4635,4636,4637,4638,4639,4640,4641
4642,4643,4644,4645,4646,4647,4648,4649,4650,4651,4652,4653,4654,4655,4656,4657
4658,4659,4660,4661,4662,4663,4664,4665,4666,4667,4668,4669,4670,4671,4672,4673
4674,4675,4676,4677,4678,4679,4680,4681,4682,4683,4684,4685,4686,4687,4688,4689
4690,4691,4692,4693,4694,4695,4696,4697,4698,4699,4700,4701,4702,4703,4704,4705
4706,4707,4708,4709,4710,4711,4712,4713,4714,4715,4716,4717,4718,4719,4720,4721
4722,4723,4724,4725,4726,4727,4728,4729,4730,4731,4732,4733,4734,4735,4736,4737
4738,4739,4740,4741,4742,4743,4744,4745,4746,4747,4748,4749,4750,4751,4752,4753
4754,4755,4756,4757,4758,4759,4760,4761,4762,4763,4764,4765,4766,4767,4768,4769
4770,4771,4772,4773,4774,4775,4776,4777,4778,4779,4780,4781,4782,4783,4784,4785
4786,4787,4788,4789,4790,4791,4792,4793,4794,4795,4796,4797,4798,4799,4800,4801
4802,4803,4804,4805,4806,4807,4808,4809,4810,4811,4812,4813,4814,4815,4816,4817
4818,4819,4820,4821,4822,4823,4824,4825,4826,4827,4828,4829,4830,4831,4832,4833
4834,4835,4836,4837,4838,4839,4840,4841,4842,4843,4844,4845,4846,4847,4848,4849
4850,4851,4852,4853,4854,4855,4856,4857,4858,4859,4860,4861,4862,4863,4864,4865
4866,4867,4868,4869,4870,4871,4872,4873,4874,4875,4876,4877,4878,4879,4880,4881
4882,4883,4884,4885,4886,4887,4888,4889,4890,4891,4892,4893,4894,4895,4896,4897
4898,4899,4900,4901,4902,4903,4904,4905,4906,4907,4908,4909,4910,4911,4912,4913
4914,4915,4916,4917,4918,4919,4920,4921,4922,4923,4924,4925,4926,4927,4928,4929
4930,4931,4932,4933,4934,4935,4936,4937,4938,4939,4940,4941,4942,4943,4944,4945
4946,4947,4948,4949,4950,4951,4952,4953,4954,4955,4956,4957,4958,4959,4960,4961
4962,4963,4964,4965,4966,4967,4968,4969,4970,4971,4972,4973,4974,4975,4976,4977
4978,4979,4980,4981,4982,4983,4984,4985,4986,4987,4988,4989,4990,4991,4992,4993
4994,4995,4996,4997,4998,4999,5000,5001,5002,5003,5004,5005,5006,5007,5008,5009
5010,5011,5012,5013,5014,5015,5016,5017,5018,5019,5020,5021,5022,5023,5024,5025
5026,5027,5028,5029,5030,5031,5032,5033,5034,5035,5036,5037,5038,5039,5040,5041
5042,5043,5044,5045,5046,5047,5048,5049,5050,5051,5052,5053,5054,5055,5056,5057
5058,5059,5060,5061,5062,5063,5064,5065,5066,5067,5068,5069,5070,5071,5072,5073
5074,5075,5076,5077,5078,5079,5080,5081,5082,5083,5084,5085,5086,5087,5088,5089
5090,5091,5092,5093,5094,5095,5096,5097,5098,5099,5100,5101,5102,5103,5104,5105
5106,5107,5108,5109,5110,5111,5112,5113,5114,5115,5116,5117,5118,5119,5120,5121
5122,5123,5124,5125,5126,5127,5128,5129,5130,5131,5132,5133,5134,5135,5136,5137
5138,5139,5140,5141,5142,5143,5144,5145,5146,5147,5148,5149,5150,5151,5152,5153
5154,5155,5156,5157,5158,5159,5160,5161,5162,5163,5164,5165,5166,5167,5168,5169
5170,5171,5172,5173,5174,5175,5176,5177,5178,5179,5180,5181,5182,5183,5184,5185
5186,5187,5188,5189,5190,5191,5192,5193,5194,5195,5196,5197,5198,5199,5200,5201
5202,5203,5204,5205,5206,5207,5208,5209,5210,5211,5212,5213,5214,5215,5216,5217
5218,5219,5220,5221,5222,5223,5224,5225,5226,5227,5228,5229,5230,5231,5232,5233
5234,5235,5236,5237,5238,5239,5240,5241,5242,5243,5244,5245,5246,5247,5248,5249
5250,5251,5252,5253,5254,5255,5256,5257,5258,5259,5260,5261,5262,5263,5264,5265
5266,5267,5268,5269,5270,5271,5272,5273,5274,5275,5276,5277,5278,5279,5280,5281
5282,5283,5284,5285,5286,5287,5288,5289,5290,5291,5292,5293,5294,5295,5296,5297
5298,5299,5300,5301,5302,5303,5304,5305,5306,5307,5308,5309,5310,5311,5312,5313
5314,5315,5316,5317,5318,5319,5320,5321,5322,5323,5324,5325,5326,5327,5328,5329
5330,5331,5332,5333,5334,5335,5336,5337,5338,5339,5340,5341,5342,5343,5344,5345
5346,5347,5348,5349,5350,5351,5352,5353,5354,5355,5356,5357,5358,5359,5360,5361
5362,5363,5364,5365,5366,5367,5368,5369,5370,5371,5372,5373,5374,5375,5376,5377
5378,5379,5380,5381,5382,5383,5384,5385,5386,5387,5388,5389,5390,5391,5392,5393
5394,5395,5396,5397,5398,5399,5400,5401,5402,5403,5404,5405,5406,5407,5408,5409
5410,5411,5412,5413,5414,5415,5416,5417,5418,5419,5420,5421,5422,5423,5424,5425
5426,5427,5428,5429,5430,5431,5432,5433,5434,5435,5436,5437,5438,5439,5440,5441
5442,5443,5444,5445,5446,5447,5448,5449,5450,5451,5452,5453,5454,5455,5456,5457
5458,5459,5460,5461,5462,5463,5464,5465,5466,5467,5468,5469,5470,5471,5472,5473
5474,5475,5476,5477,5478,5479,5480,5481,5482,5483,5484,5485,5486,5487,5488,5489
5490,5491,5492,5493,5494,5495,5496,5497,5498,5499,5500,5501,5502,5503,5504,5505
5506,5507,5508,5509,5510,5511,5512,5513,5514,5515,5516,5517,5518,5519,5520,5521
5522,5523,5524,5525,5526,5527,5528,5529,5530,5531,5532,5533,5534,5535,5536,5537
5538,5539,5540,5541,5542,5543,5544,5545,5546,5547,5548,5549,5550,5551,5552,5553
5554,5555,5556,5557,5558,5559,5560,5561,5562,5563,5564,5565,5566,5567,5568,5569
5570,5571,5572,5573,5574,5575,5576,5577,5578,5579,5580,5581,5582,5583,5584,5585
5586,5587,5588,5589,5590,5591,5592,5593,5594,5595,5596,5597,5598,5599,5600,5601
5602,5603,5604,5605,5606,5607,5608,5609,5610,5611,5612,5613,5614,5615,5616,5617
5618,5619,5620,5621,5622,5623,5624,5625,5626,5627,5628,5629,5630,5631,5632,5633
5634,5635,5636,5637,5638,5639,5640,5641,5642,5643,5644,5645,5646,5647,5648,5649
5650,5651,5652,5653,5654,5655,5656,5657,5658,5659,5660,5661,5662,5663,5664,5665
5666,5667,5668,5669,5670,5671,5672,5673,5674,5675,5676,5677,5678,5679,5680,5681
5682,5683,5684,5685,5686,5687,5688,5689,5690,5691,5692,5693,5694,5695,5696,5697
5698,5699,5700,5701,5702,5703,5704,5705,5706,5707,5708,5709,5710,5711,5712,5713
5714,5715,5716,5717,5718,5719,5720,5721,5722,5723,5724,5725,5726,5727,5728,5729
5730,5731,5732,5733,5734,5735,5736,5737,5738,5739,5740,5741,5742,5743,5744,5745
5746,5747,5748,5749,5750,5751,5752,5753,5754,5755,5756,5757,5758,5759,5760,5761
5762,5763,5764,5765,5766,5767,5768,5769,5770,5771,5772,5773,5774,5775,5776,5777
5778,5779,5780,5781,5782,5783,5784,5785,5786,5787,5788,5789,5790,5791,5792,5793
5794,5795,5796,5797,5798,5799,5800,5801,5802,5803,5804,5805,5806,5807,5808,5809
5810,5811,5812,5813,5814,5815,5816,5817,5818,5819,5820,5821,5822,5823,5824,5825
5826,5827,5828,5829,5830,5831,5832,5833,5834,5835,5836,5837,5838,5839,5840,5841
5842,5843,5844,5845,5846,5847,5848,5849,5850,5851,5852,5853,5854,5855,5856,5857
5858,5859,5860,5861,5862,5863,5864,5865,5866,5867,5868,5869,5870,5871,5872,5873
5874,5875,5876,5877,5878,5879,5880,5881,5882,5883,5884,5885,5886,5887,5888,5889
5890,5891,5892,5893,5894,5895,5896,5897,5898,5899,5900,5901,5902,5903,5904,5905
5906,5907,5908,5909,5910,5911,5912,5913,5914,5915,5916,5917,5918,5919,5920,5921
5922,5923,5924,5925,5926,5927,5928,5929,5930,5931,5932,5933,5934,5935,5936,5937
5938,5939,5940,5941,5942,5943,5944,5945,5946,5947,5948,5949,5950,5951,5952,5953
5954,5955,5956,5957,5958,5959,5960,5961,5962,5963,5964,5965,5966,5967,5968,5969
5970,5971,5972,5973,5974,5975,5976,5977,5978,5979,5980,5981,5982,5983,5984,5985
5986,5987,5988,5989,5990,5991,5992,5993,5994,5995,5996,5997,5998,5999,6000,6001
6002,6003,6004,6005,6006,6007,6008,6009,6010,6011,6012,6013,6014,6015,6016,6017
6018,6019,6020,6021,6022,6023,6024,6025,6026,6027,6028,6029,6030,6031,6032,6033
6034,6035,6036,6037,6038,6039,6040,6041,6042,6043,6044,6045,6046,6047,6048,6049
6050,6051,6052,6053,6054,6055,6056,6057,6058,6059,6060,6061,6062,6063,6064,6065
6066,6067,6068,6069,6070,6071,6072,6073,6074,6075,6076,6077,6078,6079,6080,6081
6082,6083,6084,6085,6086,6087,6088,6089,6090,6091,6092,6093,6094,6095,6096,6097
6098,6099,6100,6101,6102,6103,6104,6105,6106,6107,6108,6109,6110,6111,6112,6113
6114,6115,6116,6117,6118,6119,6120,6121,6122,6123,6124,6125,6126,6127,6128,6129
6130,6131,6132,6133,6134,6135,6136,6137,6138,6139,6140,6141,6142,6143,6144,6145
6146,6147,6148,6149,6150,6151,6152,6153,6154,6155,6156,6157,6158,6159,6160,6161
6162,6163,6164,6165,6166,6167,6168,6169,6170,6171,6172,6173,6174,6175,6176,6177
6178,6179,6180,6181,6182,6183,6184,6185,6186,6187,6188,6189,6190,6191,6192,6193
6194,6195,6196,6197,6198,6199,6200,6201,6202,6203,6204,6205,6206,6207,6208,6209
6210,6211,6212,6213,6214,6215,6216,6217,6218,6219,6220,6221,6222,6223,6224,6225
6226,6227,6228,6229,6230,6231,6232,6233,6234,6235,6236,6237,6238,6239,6240,6241
6242,6243,6244,6245,6246,6247,6248,6249,6250,6251,6252,6253,6254,6255,6256,6257
6258,6259,6260,6261,6262,6263,6264,6265,6266,6267,6268,6269,6270,6271,6272,6273
6274,6275,6276,6277,6278,6279,6280,6281,6282,6283,6284,6285,6286,6287,6288,6289
6290,6291,6292,6293,6294,6295,6296,6297,6298,6299,6300,6301,6302,6303,6304,6305
6306,6307,6308,6309,6310,6311,6312,6313,6314,6315,6316,6317,6318,6319,6320,6321
6322,6323,6324,6325,6326,6327,6328,6329,6330,6331,6332,6333,6334,6335,6336,6337
6338,6339,6340,6341,6342,6343,6344,6345,6346,6347,6348,6349,6350,6351,6352,6353
6354,6355,6356,6357,6358,6359,6360,6361,6362,6363,6364,6365,6366,6367,6368,6369
6370,6371,6372,6373,6374,6375,6376,6377,6378,6379,6380,6381,6382,6383,6384,6385
6386,6387,6388,6389,6390,6391,6392,6393,6394,6395,6396,6397,6398,6399,6400,6401
6402,6403,6404,6405,6406,6407,6408,6409,6410,6411,6412,6413,6414,6415,6416,6417
6418,6419,6420,6421,6422,6423,6424,6425,6426,6427,6428,6429,6430,6431,6432,6433
6434,6435,6436,6437,6438,6439,6440,6441,6442,6443,6444,6445,6446,6447,6448,6449
6450,6451,6452,6453,6454,6455,6456,6457,6458,6459,6460,6461,6462,6463,6464,6465
6466,6467,6468,6469,6470,6471,6472,6473,6474,6475,6476,6477,6478,6479,6480,6481
6482,6483,6484,6485,6486,6487,6488,6489,6490,6491,6492,6493,6494,6495,6496,6497
6498,6499,6500,6501,6502,6503,6504,6505,6506,6507,6508,6509,6510,6511,6512,6513
6514,6515,6516,6517,6518,6519,6520,6521,6522,6523,6524,6525,6526,6527,6528,6529
6530,6531,6532,6533,6534,6535,6536,6537,6538,6539,6540,6541,6542,6543,6544,6545
6546,6547,6548,6549,6550,6551,6552,6553,6554,6555,6556,6557,6558,6559,6560,6561
6562,6563,6564,6565,6566,6567,6568,6569,6570,6571,6572,6573,6574,6575,6576,6577
6578,6579,6580,6581,6582,6583,6584,6585,6586,6587,6588,6589,6590,6591,6592,6593
6594,6595,6596,6597,6598,6599,6600,6601,6602,6603,6604,6605,6606,6607,6608,6609
6610,6611,6612,6613,6614,6615,6616,6617,6618,6619,6620,6621,6622,6623,6624,6625
6626,6627,6628,6629,6630,6631,6632,6633,6634,6635,6636,6637,6638,6639,6640,6641
6642,6643,6644,6645,6646,6647,6648,6649,6650,6651,6652,6653,6654,6655,6656,6657
6658,6659,6660,6661,6662,6663,6664,6665,6666,6667,6668,6669,6670,6671,6672,6673
6674,6675,6676,6677,6678,6679,6680,6681,6682,6683,6684,6685,6686,6687,6688,6689
6690,6691,6692,6693,6694,6695,6696,6697,6698,6699,6700,6701,6702,6703,6704,6705
6706,6707,6708,6709,6710,6711,6712,6713,6714,6715,6716,6717,6718,6719,6720,6721
6722,6723,6724,6725,6726,6727,6728,6729,6730,6731,6732,6733,6734,6735,6736,6737
6738,6739,6740,6741,6742,6743,6744,6745,6746,6747,6748,6749,6750,6751,6752,6753
6754,6755,6756,6757,6758,6759,6760,6761,6762,6763,6764,6765,6766,6767,6768,6769
6770,6771,6772,6773,6774,6775,6776,6777,6778,6779,6780,6781,6782,6783,6784,6785
6786,6787,6788,6789,6790,6791,6792,6793,6794,6795,6796,6797,6798,6799,6800,6801
6802,6803,6804,6805,6806,6807,6808,6809,6810,6811,6812,6813,6814,6815,6816,6817
6818,6819,6820,6821,6822,6823,6824,6825,6826,6827,6828,6829,6830,6831,6832,6833
6834,6835,6836,6837,6838,6839,6840,6841,6842,6843,6844,6845,6846,6847,6848,6849
6850,6851,6852,6853,6854,6855,6856,6857,6858,6859,6860,6861,6862,6863,6864,6865
6866,6867,6868,6869,6870,6871,6872,6873,6874,6875,6876,6877,6878,6879,6880,6881
6882,6883,6884,6885,6886,6887,6888,6889,6890,6891,6892,6893,6894,6895,6896,6897
6898,6899,6900,6901,6902,6903,6904,6905,6906,6907,6908,6909,6910,6911,6912,6913
6914,6915,6916,6917,6918,6919,6920,6921,6922,6923,6924,6925,6926,6927,6928,6929
6930,6931,6932,6933,6934,6935,6936,6937,6938,6939,6940,6941,6942,6943,6944,6945
6946,6947,6948,6949,6950,6951,6952,6953,6954,6955,6956,6957,6958,6959,6960,6961
6962,6963,6964,6965,6966,6967,6968,6969,6970,6971,6972,6973,6974,6975,6976,6977
6978,6979,6980,6981,6982,6983,6984,6985,6986,6987,6988,6989,6990,6991,6992,6993
6994,6995,6996,6997,6998,6999,7000,7001,7002,7003,7004,7005,7006,7007,7008,7009
7010,7011,7012,7013,7014,7015,7016,7017,7018,7019,7020,7021,7022,7023,7024,7025
7026,7027,7028,7029,7030,7031,7032,7033,7034,7035,7036,7037,7038,7039,7040,7041
7042,7043,7044,7045,7046,7047,7048,7049,7050,7051,7052,7053,7054,7055,7056,7057
7058,7059,7060,7061,7062,7063,7064,7065,7066,7067,7068,7069,7070,7071,7072,7073
7074,7075,7076,7077,7078,7079,7080,7081,7082,7083,7084,7085,7086,7087,7088,7089
7090,7091,7092,7093,7094,7095,7096,7097,7098,7099,7100,7101,7102,7103,7104,7105
7106,7107,7108,7109,7110,7111,7112,7113,7114,7115,7116,7117,7118,7119,7120,7121
7122,7123,7124,7125,7126,7127,7128,7129,7130,7131,7132,7133,7134,7135,7136,7137
7138,7139,7140,7141,7142,7143,7144,7145,7146,7147,7148,7149,7150,7151,7152,7153
7154,7155,7156,7157,7158,7159,7160,7161,7162,7163,7164,7165,7166,7167,7168,7169
7170,7171,7172,7173,7174,7175,7176,7177,7178,7179,7180,7181,7182,7183,7184,7185
7186,7187,7188,7189,7190,7191,7192,7193,7194,7195,7196,7197,7198,7199,7200,7201
7202,7203,7204,7205,7206,7207,7208,7209,7210,7211,7212,7213,7214,7215,7216,7217
7218,7219,7220,7221,7222,7223,7224,7225,7226,7227,7228,7229,7230,7231,7232,7233
7234,7235,7236,7237,7238,7239,7240,7241,7242,7243,7244,7245,7246,7247,7248,7249
7250,7251,7252,7253,7254,7255,7256,7257,7258,7259,7260,7261,7262,7263,7264,7265
7266,7267,7268,7269,7270,7271,7272,7273,7274,7275,7276,7277,7278,7279,7280,7281
7282,7283,7284,7285,7286,7287,7288,7289,7290,7291,7292,7293,7294,7295,7296,7297
7298,7299,7300,7301,7302,7303,7304,7305,7306,7307,7308,7309,7310,7311,7312,7313
7314,7315,7316,7317,7318,7319,7320,7321,7322,7323,7324,7325,7326,7327,7328,7329
7330,7331,7332,7333,7334,7335,7336,7337,7338,7339,7340,7341,7342,7343,7344,7345
7346,7347,7348,7349,7350,7351,7352,7353,7354,7355,7356,7357,7358,7359,7360,7361
7362,7363,7364,7365,7366,7367,7368,7369,7370,7371,7372,7373,7374,7375,7376,7377
7378,7379,7380,7381,7382,7383,7384,7385,7386,7387,7388,7389,7390,7391,7392,7393
7394,7395,7396,7397,7398,7399,7400,7401,7402,7403,7404,7405,7406,7407,7408,7409
7410,7411,7412,7413,7414,7415,7416,7417,7418,7419,7420,7421,7422,7423,7424,7425
7426,7427,7428,7429,7430,7431,7432,7433,7434,7435,7436,7437,7438,7439,7440,7441
7442,7443,7444,7445,7446,7447,7448,7449,7450,7451,7452,7453,7454,7455,7456,7457
7458,7459,7460,7461,7462,7463,7464,7465,7466,7467,7468,7469,7470,7471,7472,7473
7474,7475,7476,7477,7478,7479,7480,7481,7482,7483,7484,7485,7486,7487,7488,7489
7490,7491
*Step, name=BASE, nlgeom=YES, inc=40
*Static
1., 1., 1.e-8, 1.
*Boundary
PRIMARY_OTHER, 1, 3, 0.
889,1,3,0.
SECONDARY_ALL, 2, 3, 0.
S1, 1, 1, -1.e-4
S2, 1, 1, -1.e-4
S3, 1, 1, -1.e-4
S4, 1, 1, -1.e-4
S5, 1, 1, -1.e-4
S6, 1, 1, -1.e-4
S7, 1, 1, -1.e-4
S8, 1, 1, -1.e-4
*Output, field, frequency=1
*Node Output
COORD, RF, U
*Contact Output
CSTRESS, CDISP, CFORCE
*End Step
*Step, name=PRIMARY_PLUS, nlgeom=YES
*Static
1.,1.,1.e-8,1.
*Boundary, op=MOD
889,1,1,9.9999999999999995e-08
*End Step
*Step, name=PRIMARY_MINUS, nlgeom=YES
*Static
1.,1.,1.e-8,1.
*Boundary, op=MOD
889,1,1,-9.9999999999999995e-08
*End Step
