*Heading
** H20.30: faceted_cylinder curved C3D20 small-sliding surface-to-surface contact.
*Preprint, echo=NO, model=NO, history=NO, contact=YES
*Node
1, 0.9, 0, 0
2, 1, 0, 0
3, 0.9238795325112867, 0.3826834323650898, 0
4, 0.831491579260158, 0.3444150891285808, 0
5, 0.9, 0, 0.5
6, 1, 0, 0.5
7, 0.9238795325112867, 0.3826834323650898, 0.5
8, 0.831491579260158, 0.3444150891285808, 0.5
9, 0.95, 0, 0
10, 0.9619397662556434, 0.1913417161825449, 0
11, 0.8776855558857224, 0.3635492607468353, 0
12, 0.8657457896300791, 0.1722075445642904, 0
13, 0.9, 0, 0.25
14, 1, 0, 0.25
15, 0.9238795325112867, 0.3826834323650898, 0.25
16, 0.831491579260158, 0.3444150891285808, 0.25
17, 0.95, 0, 0.5
18, 0.9619397662556434, 0.1913417161825449, 0.5
19, 0.8776855558857224, 0.3635492607468353, 0.5
20, 0.8657457896300791, 0.1722075445642904, 0.5
21, 0.7071067811865476, 0.7071067811865475, 0
22, 0.6363961030678928, 0.6363961030678927, 0
23, 0.7071067811865476, 0.7071067811865475, 0.5
24, 0.6363961030678928, 0.6363961030678927, 0.5
25, 0.8154931568489172, 0.5448951067758186, 0
26, 0.6717514421272202, 0.6717514421272202, 0
27, 0.7339438411640254, 0.4904055960982368, 0
28, 0.7071067811865476, 0.7071067811865475, 0.25
29, 0.6363961030678928, 0.6363961030678927, 0.25
30, 0.8154931568489172, 0.5448951067758186, 0.5
31, 0.6717514421272202, 0.6717514421272202, 0.5
32, 0.7339438411640254, 0.4904055960982368, 0.5
33, 0.3826834323650898, 0.9238795325112867, 0
34, 0.3444150891285809, 0.831491579260158, 0
35, 0.3826834323650898, 0.9238795325112867, 0.5
36, 0.3444150891285809, 0.831491579260158, 0.5
37, 0.5448951067758188, 0.8154931568489171, 0
38, 0.3635492607468354, 0.8776855558857224, 0
39, 0.4904055960982369, 0.7339438411640253, 0
40, 0.3826834323650898, 0.9238795325112867, 0.25
41, 0.3444150891285809, 0.831491579260158, 0.25
42, 0.5448951067758188, 0.8154931568489171, 0.5
43, 0.3635492607468354, 0.8776855558857224, 0.5
44, 0.4904055960982369, 0.7339438411640253, 0.5
45, 6.123233995736766e-17, 1, 0
46, 5.51091059616309e-17, 0.9, 0
47, 6.123233995736766e-17, 1, 0.5
48, 5.51091059616309e-17, 0.9, 0.5
49, 0.1913417161825449, 0.9619397662556434, 0
50, 5.817072295949928e-17, 0.95, 0
51, 0.1722075445642905, 0.8657457896300791, 0
52, 6.123233995736766e-17, 1, 0.25
53, 5.51091059616309e-17, 0.9, 0.25
54, 0.1913417161825449, 0.9619397662556434, 0.5
55, 5.817072295949928e-17, 0.95, 0.5
56, 0.1722075445642905, 0.8657457896300791, 0.5
57, 0.9, 0, 1
58, 1, 0, 1
59, 0.9238795325112867, 0.3826834323650898, 1
60, 0.831491579260158, 0.3444150891285808, 1
61, 0.9, 0, 0.75
62, 1, 0, 0.75
63, 0.9238795325112867, 0.3826834323650898, 0.75
64, 0.831491579260158, 0.3444150891285808, 0.75
65, 0.95, 0, 1
66, 0.9619397662556434, 0.1913417161825449, 1
67, 0.8776855558857224, 0.3635492607468353, 1
68, 0.8657457896300791, 0.1722075445642904, 1
69, 0.7071067811865476, 0.7071067811865475, 1
70, 0.6363961030678928, 0.6363961030678927, 1
71, 0.7071067811865476, 0.7071067811865475, 0.75
72, 0.6363961030678928, 0.6363961030678927, 0.75
73, 0.8154931568489172, 0.5448951067758186, 1
74, 0.6717514421272202, 0.6717514421272202, 1
75, 0.7339438411640254, 0.4904055960982368, 1
76, 0.3826834323650898, 0.9238795325112867, 1
77, 0.3444150891285809, 0.831491579260158, 1
78, 0.3826834323650898, 0.9238795325112867, 0.75
79, 0.3444150891285809, 0.831491579260158, 0.75
80, 0.5448951067758188, 0.8154931568489171, 1
81, 0.3635492607468354, 0.8776855558857224, 1
82, 0.4904055960982369, 0.7339438411640253, 1
83, 6.123233995736766e-17, 1, 1
84, 5.51091059616309e-17, 0.9, 1
85, 6.123233995736766e-17, 1, 0.75
86, 5.51091059616309e-17, 0.9, 0.75
87, 0.1913417161825449, 0.9619397662556434, 1
88, 5.817072295949928e-17, 0.95, 1
89, 0.1722075445642905, 0.8657457896300791, 1
90, 1, 0, 0
91, 1.1, 0, 0
92, 1.016267485762415, 0.4209517756015988, 0
93, 0.9238795325112867, 0.3826834323650898, 0
94, 1, 0, 0.5
95, 1.1, 0, 0.5
96, 1.016267485762415, 0.4209517756015988, 0.5
97, 0.9238795325112867, 0.3826834323650898, 0.5
98, 1.05, 0, 0
99, 1.058133742881208, 0.2104758878007994, 0
100, 0.9700735091368511, 0.4018176039833443, 0
101, 0.9619397662556434, 0.1913417161825449, 0
102, 1, 0, 0.25
103, 1.1, 0, 0.25
104, 1.016267485762415, 0.4209517756015988, 0.25
105, 0.9238795325112867, 0.3826834323650898, 0.25
106, 1.05, 0, 0.5
107, 1.058133742881208, 0.2104758878007994, 0.5
108, 0.9700735091368511, 0.4018176039833443, 0.5
109, 0.9619397662556434, 0.1913417161825449, 0.5
110, 0.7778174593052024, 0.7778174593052023, 0
111, 0.7071067811865476, 0.7071067811865475, 0
112, 0.7778174593052024, 0.7778174593052023, 0.5
113, 0.7071067811865476, 0.7071067811865475, 0.5
114, 0.8970424725338089, 0.5993846174534005, 0
115, 0.742462120245875, 0.7424621202458749, 0
116, 0.8154931568489172, 0.5448951067758186, 0
117, 0.7778174593052024, 0.7778174593052023, 0.25
118, 0.7071067811865476, 0.7071067811865475, 0.25
119, 0.8970424725338089, 0.5993846174534005, 0.5
120, 0.742462120245875, 0.7424621202458749, 0.5
121, 0.8154931568489172, 0.5448951067758186, 0.5
122, 0.4209517756015989, 1.016267485762415, 0
123, 0.3826834323650898, 0.9238795325112867, 0
124, 0.4209517756015989, 1.016267485762415, 0.5
125, 0.3826834323650898, 0.9238795325112867, 0.5
126, 0.5993846174534007, 0.8970424725338089, 0
127, 0.4018176039833443, 0.9700735091368511, 0
128, 0.5448951067758188, 0.8154931568489171, 0
129, 0.4209517756015989, 1.016267485762415, 0.25
130, 0.3826834323650898, 0.9238795325112867, 0.25
131, 0.5993846174534007, 0.8970424725338089, 0.5
132, 0.4018176039833443, 0.9700735091368511, 0.5
133, 0.5448951067758188, 0.8154931568489171, 0.5
134, 6.735557395310444e-17, 1.1, 0
135, 6.123233995736766e-17, 1, 0
136, 6.735557395310444e-17, 1.1, 0.5
137, 6.123233995736766e-17, 1, 0.5
138, 0.2104758878007995, 1.058133742881208, 0
139, 6.429395695523605e-17, 1.05, 0
140, 0.1913417161825449, 0.9619397662556434, 0
141, 6.735557395310444e-17, 1.1, 0.25
142, 6.123233995736766e-17, 1, 0.25
143, 0.2104758878007995, 1.058133742881208, 0.5
144, 6.429395695523605e-17, 1.05, 0.5
145, 0.1913417161825449, 0.9619397662556434, 0.5
146, 1, 0, 1
147, 1.1, 0, 1
148, 1.016267485762415, 0.4209517756015988, 1
149, 0.9238795325112867, 0.3826834323650898, 1
150, 1, 0, 0.75
151, 1.1, 0, 0.75
152, 1.016267485762415, 0.4209517756015988, 0.75
153, 0.9238795325112867, 0.3826834323650898, 0.75
154, 1.05, 0, 1
155, 1.058133742881208, 0.2104758878007994, 1
156, 0.9700735091368511, 0.4018176039833443, 1
157, 0.9619397662556434, 0.1913417161825449, 1
158, 0.7778174593052024, 0.7778174593052023, 1
159, 0.7071067811865476, 0.7071067811865475, 1
160, 0.7778174593052024, 0.7778174593052023, 0.75
161, 0.7071067811865476, 0.7071067811865475, 0.75
162, 0.8970424725338089, 0.5993846174534005, 1
163, 0.742462120245875, 0.7424621202458749, 1
164, 0.8154931568489172, 0.5448951067758186, 1
165, 0.4209517756015989, 1.016267485762415, 1
166, 0.3826834323650898, 0.9238795325112867, 1
167, 0.4209517756015989, 1.016267485762415, 0.75
168, 0.3826834323650898, 0.9238795325112867, 0.75
169, 0.5993846174534007, 0.8970424725338089, 1
170, 0.4018176039833443, 0.9700735091368511, 1
171, 0.5448951067758188, 0.8154931568489171, 1
172, 6.735557395310444e-17, 1.1, 1
173, 6.123233995736766e-17, 1, 1
174, 6.735557395310444e-17, 1.1, 0.75
175, 6.123233995736766e-17, 1, 0.75
176, 0.2104758878007995, 1.058133742881208, 1
177, 6.429395695523605e-17, 1.05, 1
178, 0.1913417161825449, 0.9619397662556434, 1
*Element, type=C3D20, elset=PRIMARY
1, 1, 2, 3, 4, 5, 6, 7, 8, 9, 10, 11, 12, 17, 18, 19, 20, 13, 14, 15, 16
2, 4, 3, 21, 22, 8, 7, 23, 24, 11, 25, 26, 27, 19, 30, 31, 32, 16, 15, 28, 29
3, 22, 21, 33, 34, 24, 23, 35, 36, 26, 37, 38, 39, 31, 42, 43, 44, 29, 28, 40, 41
4, 34, 33, 45, 46, 36, 35, 47, 48, 38, 49, 50, 51, 43, 54, 55, 56, 41, 40, 52, 53
5, 5, 6, 7, 8, 57, 58, 59, 60, 17, 18, 19, 20, 65, 66, 67, 68, 61, 62, 63, 64
6, 8, 7, 23, 24, 60, 59, 69, 70, 19, 30, 31, 32, 67, 73, 74, 75, 64, 63, 71, 72
7, 24, 23, 35, 36, 70, 69, 76, 77, 31, 42, 43, 44, 74, 80, 81, 82, 72, 71, 78, 79
8, 36, 35, 47, 48, 77, 76, 83, 84, 43, 54, 55, 56, 81, 87, 88, 89, 79, 78, 85, 86
*Element, type=C3D20, elset=SECONDARY
9, 90, 91, 92, 93, 94, 95, 96, 97, 98, 99, 100, 101, 106, 107, 108, 109, 102, 103, 104, 105
10, 93, 92, 110, 111, 97, 96, 112, 113, 100, 114, 115, 116, 108, 119, 120, 121, 105, 104, 117, 118
11, 111, 110, 122, 123, 113, 112, 124, 125, 115, 126, 127, 128, 120, 131, 132, 133, 118, 117, 129, 130
12, 123, 122, 134, 135, 125, 124, 136, 137, 127, 138, 139, 140, 132, 143, 144, 145, 130, 129, 141, 142
13, 94, 95, 96, 97, 146, 147, 148, 149, 106, 107, 108, 109, 154, 155, 156, 157, 150, 151, 152, 153
14, 97, 96, 112, 113, 149, 148, 158, 159, 108, 119, 120, 121, 156, 162, 163, 164, 153, 152, 160, 161
15, 113, 112, 124, 125, 159, 158, 165, 166, 120, 131, 132, 133, 163, 169, 170, 171, 161, 160, 167, 168
16, 125, 124, 136, 137, 166, 165, 172, 173, 132, 143, 144, 145, 170, 176, 177, 178, 168, 167, 174, 175
*Nset, nset=primary_inner
1, 4, 5, 8, 12, 13, 16, 20, 22, 24, 27, 29, 32, 34, 36, 39
41, 44, 46, 48, 51, 53, 56, 57, 60, 61, 64, 68, 70, 72, 75, 77
79, 82, 84, 86, 89
*Nset, nset=primary_back
1, 2, 3, 4, 9, 10, 11, 12, 21, 22, 25, 26, 27, 33, 34, 37
38, 39, 45, 46, 49, 50, 51
*Nset, nset=secondary_contact_nodes
90, 93, 94, 97, 101, 102, 105, 109, 111, 113, 116, 118, 121, 123, 125, 128
130, 133, 135, 137, 140, 142, 145, 146, 149, 150, 153, 157, 159, 161, 164, 166
168, 171, 173, 175, 178
*Nset, nset=secondary_outer
91, 92, 95, 96, 99, 103, 104, 107, 110, 112, 114, 117, 119, 122, 124, 126
129, 131, 134, 136, 138, 141, 143, 147, 148, 151, 152, 155, 158, 160, 162, 165
167, 169, 172, 174, 176
*Nset, nset=secondary_back
90, 91, 92, 93, 98, 99, 100, 101, 110, 111, 114, 115, 116, 122, 123, 126
127, 128, 134, 135, 138, 139, 140
*Nset, nset=secondary_theta_lower
90, 91, 94, 95, 98, 102, 103, 106, 146, 147, 150, 151, 154
*Nset, nset=secondary_theta_upper
134, 135, 136, 137, 139, 141, 142, 144, 172, 173, 174, 175, 177
*Surface, type=ELEMENT, name=PRIMARY_CONTACT
PRIMARY, S4
*Surface, type=ELEMENT, name=SECONDARY_CONTACT
SECONDARY, S6
*Surface, type=ELEMENT, name=SECONDARY_OUTER
SECONDARY, S4
*Material, name=ELASTIC
*Elastic
1.e9, 0.25
*Solid Section, elset=PRIMARY, material=ELASTIC
,
*Solid Section, elset=SECONDARY, material=ELASTIC
,
*Surface Interaction, name=PENALTY_CONTACT
*Surface Behavior, pressure-overclosure=LINEAR
1.e11,
*Contact Pair, interaction=PENALTY_CONTACT, type=SURFACE TO SURFACE, small sliding, adjust=0.
SECONDARY_CONTACT, PRIMARY_CONTACT
*Step, name=LOAD, nlgeom=NO, inc=100
*Static
0.1, 1., 1.e-8, 0.1
*Boundary
primary_inner, 1, 2, 0.
primary_back, 3, 3, 0.
secondary_back, 3, 3, 0.
secondary_theta_lower, 2, 2, 0.
secondary_theta_upper, 1, 1, 0.
*Dsload
SECONDARY_OUTER, P, 10000.
*Output, field, frequency=1
*Node Output
COORD, RF, U
*Contact Output
CSTRESS, CDISP, CFORCE
*End Step
