*Heading
** H20.28 Abaqus/Standard finite-sliding C3D20 averaging-region refinement probe.
** One secondary face opposes an 16-by-16 primary face mesh.
*Preprint, echo=NO, model=NO, history=NO, contact=YES
*Node
1, 0, 0, 0
2, 1, 0, 0
3, 1, 0.0625, 0
4, 0, 0.0625, 0
5, 0, 0, 0.0625
6, 1, 0, 0.0625
7, 1, 0.0625, 0.0625
8, 0, 0.0625, 0.0625
9, 0.5, 0, 0
10, 1, 0.03125, 0
11, 0.5, 0.0625, 0
12, 0, 0.03125, 0
13, 0.5, 0, 0.0625
14, 1, 0.03125, 0.0625
15, 0.5, 0.0625, 0.0625
16, 0, 0.03125, 0.0625
17, 0, 0, 0.03125
18, 1, 0, 0.03125
19, 1, 0.0625, 0.03125
20, 0, 0.0625, 0.03125
21, 0, 0, 0.125
22, 1, 0, 0.125
23, 1, 0.0625, 0.125
24, 0, 0.0625, 0.125
25, 0.5, 0, 0.125
26, 1, 0.03125, 0.125
27, 0.5, 0.0625, 0.125
28, 0, 0.03125, 0.125
29, 0, 0, 0.09375
30, 1, 0, 0.09375
31, 1, 0.0625, 0.09375
32, 0, 0.0625, 0.09375
33, 0, 0, 0.1875
34, 1, 0, 0.1875
35, 1, 0.0625, 0.1875
36, 0, 0.0625, 0.1875
37, 0.5, 0, 0.1875
38, 1, 0.03125, 0.1875
39, 0.5, 0.0625, 0.1875
40, 0, 0.03125, 0.1875
41, 0, 0, 0.15625
42, 1, 0, 0.15625
43, 1, 0.0625, 0.15625
44, 0, 0.0625, 0.15625
45, 0, 0, 0.25
46, 1, 0, 0.25
47, 1, 0.0625, 0.25
48, 0, 0.0625, 0.25
49, 0.5, 0, 0.25
50, 1, 0.03125, 0.25
51, 0.5, 0.0625, 0.25
52, 0, 0.03125, 0.25
53, 0, 0, 0.21875
54, 1, 0, 0.21875
55, 1, 0.0625, 0.21875
56, 0, 0.0625, 0.21875
57, 0, 0, 0.3125
58, 1, 0, 0.3125
59, 1, 0.0625, 0.3125
60, 0, 0.0625, 0.3125
61, 0.5, 0, 0.3125
62, 1, 0.03125, 0.3125
63, 0.5, 0.0625, 0.3125
64, 0, 0.03125, 0.3125
65, 0, 0, 0.28125
66, 1, 0, 0.28125
67, 1, 0.0625, 0.28125
68, 0, 0.0625, 0.28125
69, 0, 0, 0.375
70, 1, 0, 0.375
71, 1, 0.0625, 0.375
72, 0, 0.0625, 0.375
73, 0.5, 0, 0.375
74, 1, 0.03125, 0.375
75, 0.5, 0.0625, 0.375
76, 0, 0.03125, 0.375
77, 0, 0, 0.34375
78, 1, 0, 0.34375
79, 1, 0.0625, 0.34375
80, 0, 0.0625, 0.34375
81, 0, 0, 0.4375
82, 1, 0, 0.4375
83, 1, 0.0625, 0.4375
84, 0, 0.0625, 0.4375
85, 0.5, 0, 0.4375
86, 1, 0.03125, 0.4375
87, 0.5, 0.0625, 0.4375
88, 0, 0.03125, 0.4375
89, 0, 0, 0.40625
90, 1, 0, 0.40625
91, 1, 0.0625, 0.40625
92, 0, 0.0625, 0.40625
93, 0, 0, 0.5
94, 1, 0, 0.5
95, 1, 0.0625, 0.5
96, 0, 0.0625, 0.5
97, 0.5, 0, 0.5
98, 1, 0.03125, 0.5
99, 0.5, 0.0625, 0.5
100, 0, 0.03125, 0.5
101, 0, 0, 0.46875
102, 1, 0, 0.46875
103, 1, 0.0625, 0.46875
104, 0, 0.0625, 0.46875
105, 0, 0, 0.5625
106, 1, 0, 0.5625
107, 1, 0.0625, 0.5625
108, 0, 0.0625, 0.5625
109, 0.5, 0, 0.5625
110, 1, 0.03125, 0.5625
111, 0.5, 0.0625, 0.5625
112, 0, 0.03125, 0.5625
113, 0, 0, 0.53125
114, 1, 0, 0.53125
115, 1, 0.0625, 0.53125
116, 0, 0.0625, 0.53125
117, 0, 0, 0.625
118, 1, 0, 0.625
119, 1, 0.0625, 0.625
120, 0, 0.0625, 0.625
121, 0.5, 0, 0.625
122, 1, 0.03125, 0.625
123, 0.5, 0.0625, 0.625
124, 0, 0.03125, 0.625
125, 0, 0, 0.59375
126, 1, 0, 0.59375
127, 1, 0.0625, 0.59375
128, 0, 0.0625, 0.59375
129, 0, 0, 0.6875
130, 1, 0, 0.6875
131, 1, 0.0625, 0.6875
132, 0, 0.0625, 0.6875
133, 0.5, 0, 0.6875
134, 1, 0.03125, 0.6875
135, 0.5, 0.0625, 0.6875
136, 0, 0.03125, 0.6875
137, 0, 0, 0.65625
138, 1, 0, 0.65625
139, 1, 0.0625, 0.65625
140, 0, 0.0625, 0.65625
141, 0, 0, 0.75
142, 1, 0, 0.75
143, 1, 0.0625, 0.75
144, 0, 0.0625, 0.75
145, 0.5, 0, 0.75
146, 1, 0.03125, 0.75
147, 0.5, 0.0625, 0.75
148, 0, 0.03125, 0.75
149, 0, 0, 0.71875
150, 1, 0, 0.71875
151, 1, 0.0625, 0.71875
152, 0, 0.0625, 0.71875
153, 0, 0, 0.8125
154, 1, 0, 0.8125
155, 1, 0.0625, 0.8125
156, 0, 0.0625, 0.8125
157, 0.5, 0, 0.8125
158, 1, 0.03125, 0.8125
159, 0.5, 0.0625, 0.8125
160, 0, 0.03125, 0.8125
161, 0, 0, 0.78125
162, 1, 0, 0.78125
163, 1, 0.0625, 0.78125
164, 0, 0.0625, 0.78125
165, 0, 0, 0.875
166, 1, 0, 0.875
167, 1, 0.0625, 0.875
168, 0, 0.0625, 0.875
169, 0.5, 0, 0.875
170, 1, 0.03125, 0.875
171, 0.5, 0.0625, 0.875
172, 0, 0.03125, 0.875
173, 0, 0, 0.84375
174, 1, 0, 0.84375
175, 1, 0.0625, 0.84375
176, 0, 0.0625, 0.84375
177, 0, 0, 0.9375
178, 1, 0, 0.9375
179, 1, 0.0625, 0.9375
180, 0, 0.0625, 0.9375
181, 0.5, 0, 0.9375
182, 1, 0.03125, 0.9375
183, 0.5, 0.0625, 0.9375
184, 0, 0.03125, 0.9375
185, 0, 0, 0.90625
186, 1, 0, 0.90625
187, 1, 0.0625, 0.90625
188, 0, 0.0625, 0.90625
189, 0, 0, 1
190, 1, 0, 1
191, 1, 0.0625, 1
192, 0, 0.0625, 1
193, 0.5, 0, 1
194, 1, 0.03125, 1
195, 0.5, 0.0625, 1
196, 0, 0.03125, 1
197, 0, 0, 0.96875
198, 1, 0, 0.96875
199, 1, 0.0625, 0.96875
200, 0, 0.0625, 0.96875
201, 1, 0.125, 0
202, 0, 0.125, 0
203, 1, 0.125, 0.0625
204, 0, 0.125, 0.0625
205, 1, 0.09375, 0
206, 0.5, 0.125, 0
207, 0, 0.09375, 0
208, 1, 0.09375, 0.0625
209, 0.5, 0.125, 0.0625
210, 0, 0.09375, 0.0625
211, 1, 0.125, 0.03125
212, 0, 0.125, 0.03125
213, 1, 0.125, 0.125
214, 0, 0.125, 0.125
215, 1, 0.09375, 0.125
216, 0.5, 0.125, 0.125
217, 0, 0.09375, 0.125
218, 1, 0.125, 0.09375
219, 0, 0.125, 0.09375
220, 1, 0.125, 0.1875
221, 0, 0.125, 0.1875
222, 1, 0.09375, 0.1875
223, 0.5, 0.125, 0.1875
224, 0, 0.09375, 0.1875
225, 1, 0.125, 0.15625
226, 0, 0.125, 0.15625
227, 1, 0.125, 0.25
228, 0, 0.125, 0.25
229, 1, 0.09375, 0.25
230, 0.5, 0.125, 0.25
231, 0, 0.09375, 0.25
232, 1, 0.125, 0.21875
233, 0, 0.125, 0.21875
234, 1, 0.125, 0.3125
235, 0, 0.125, 0.3125
236, 1, 0.09375, 0.3125
237, 0.5, 0.125, 0.3125
238, 0, 0.09375, 0.3125
239, 1, 0.125, 0.28125
240, 0, 0.125, 0.28125
241, 1, 0.125, 0.375
242, 0, 0.125, 0.375
243, 1, 0.09375, 0.375
244, 0.5, 0.125, 0.375
245, 0, 0.09375, 0.375
246, 1, 0.125, 0.34375
247, 0, 0.125, 0.34375
248, 1, 0.125, 0.4375
249, 0, 0.125, 0.4375
250, 1, 0.09375, 0.4375
251, 0.5, 0.125, 0.4375
252, 0, 0.09375, 0.4375
253, 1, 0.125, 0.40625
254, 0, 0.125, 0.40625
255, 1, 0.125, 0.5
256, 0, 0.125, 0.5
257, 1, 0.09375, 0.5
258, 0.5, 0.125, 0.5
259, 0, 0.09375, 0.5
260, 1, 0.125, 0.46875
261, 0, 0.125, 0.46875
262, 1, 0.125, 0.5625
263, 0, 0.125, 0.5625
264, 1, 0.09375, 0.5625
265, 0.5, 0.125, 0.5625
266, 0, 0.09375, 0.5625
267, 1, 0.125, 0.53125
268, 0, 0.125, 0.53125
269, 1, 0.125, 0.625
270, 0, 0.125, 0.625
271, 1, 0.09375, 0.625
272, 0.5, 0.125, 0.625
273, 0, 0.09375, 0.625
274, 1, 0.125, 0.59375
275, 0, 0.125, 0.59375
276, 1, 0.125, 0.6875
277, 0, 0.125, 0.6875
278, 1, 0.09375, 0.6875
279, 0.5, 0.125, 0.6875
280, 0, 0.09375, 0.6875
281, 1, 0.125, 0.65625
282, 0, 0.125, 0.65625
283, 1, 0.125, 0.75
284, 0, 0.125, 0.75
285, 1, 0.09375, 0.75
286, 0.5, 0.125, 0.75
287, 0, 0.09375, 0.75
288, 1, 0.125, 0.71875
289, 0, 0.125, 0.71875
290, 1, 0.125, 0.8125
291, 0, 0.125, 0.8125
292, 1, 0.09375, 0.8125
293, 0.5, 0.125, 0.8125
294, 0, 0.09375, 0.8125
295, 1, 0.125, 0.78125
296, 0, 0.125, 0.78125
297, 1, 0.125, 0.875
298, 0, 0.125, 0.875
299, 1, 0.09375, 0.875
300, 0.5, 0.125, 0.875
301, 0, 0.09375, 0.875
302, 1, 0.125, 0.84375
303, 0, 0.125, 0.84375
304, 1, 0.125, 0.9375
305, 0, 0.125, 0.9375
306, 1, 0.09375, 0.9375
307, 0.5, 0.125, 0.9375
308, 0, 0.09375, 0.9375
309, 1, 0.125, 0.90625
310, 0, 0.125, 0.90625
311, 1, 0.125, 1
312, 0, 0.125, 1
313, 1, 0.09375, 1
314, 0.5, 0.125, 1
315, 0, 0.09375, 1
316, 1, 0.125, 0.96875
317, 0, 0.125, 0.96875
318, 1, 0.1875, 0
319, 0, 0.1875, 0
320, 1, 0.1875, 0.0625
321, 0, 0.1875, 0.0625
322, 1, 0.15625, 0
323, 0.5, 0.1875, 0
324, 0, 0.15625, 0
325, 1, 0.15625, 0.0625
326, 0.5, 0.1875, 0.0625
327, 0, 0.15625, 0.0625
328, 1, 0.1875, 0.03125
329, 0, 0.1875, 0.03125
330, 1, 0.1875, 0.125
331, 0, 0.1875, 0.125
332, 1, 0.15625, 0.125
333, 0.5, 0.1875, 0.125
334, 0, 0.15625, 0.125
335, 1, 0.1875, 0.09375
336, 0, 0.1875, 0.09375
337, 1, 0.1875, 0.1875
338, 0, 0.1875, 0.1875
339, 1, 0.15625, 0.1875
340, 0.5, 0.1875, 0.1875
341, 0, 0.15625, 0.1875
342, 1, 0.1875, 0.15625
343, 0, 0.1875, 0.15625
344, 1, 0.1875, 0.25
345, 0, 0.1875, 0.25
346, 1, 0.15625, 0.25
347, 0.5, 0.1875, 0.25
348, 0, 0.15625, 0.25
349, 1, 0.1875, 0.21875
350, 0, 0.1875, 0.21875
351, 1, 0.1875, 0.3125
352, 0, 0.1875, 0.3125
353, 1, 0.15625, 0.3125
354, 0.5, 0.1875, 0.3125
355, 0, 0.15625, 0.3125
356, 1, 0.1875, 0.28125
357, 0, 0.1875, 0.28125
358, 1, 0.1875, 0.375
359, 0, 0.1875, 0.375
360, 1, 0.15625, 0.375
361, 0.5, 0.1875, 0.375
362, 0, 0.15625, 0.375
363, 1, 0.1875, 0.34375
364, 0, 0.1875, 0.34375
365, 1, 0.1875, 0.4375
366, 0, 0.1875, 0.4375
367, 1, 0.15625, 0.4375
368, 0.5, 0.1875, 0.4375
369, 0, 0.15625, 0.4375
370, 1, 0.1875, 0.40625
371, 0, 0.1875, 0.40625
372, 1, 0.1875, 0.5
373, 0, 0.1875, 0.5
374, 1, 0.15625, 0.5
375, 0.5, 0.1875, 0.5
376, 0, 0.15625, 0.5
377, 1, 0.1875, 0.46875
378, 0, 0.1875, 0.46875
379, 1, 0.1875, 0.5625
380, 0, 0.1875, 0.5625
381, 1, 0.15625, 0.5625
382, 0.5, 0.1875, 0.5625
383, 0, 0.15625, 0.5625
384, 1, 0.1875, 0.53125
385, 0, 0.1875, 0.53125
386, 1, 0.1875, 0.625
387, 0, 0.1875, 0.625
388, 1, 0.15625, 0.625
389, 0.5, 0.1875, 0.625
390, 0, 0.15625, 0.625
391, 1, 0.1875, 0.59375
392, 0, 0.1875, 0.59375
393, 1, 0.1875, 0.6875
394, 0, 0.1875, 0.6875
395, 1, 0.15625, 0.6875
396, 0.5, 0.1875, 0.6875
397, 0, 0.15625, 0.6875
398, 1, 0.1875, 0.65625
399, 0, 0.1875, 0.65625
400, 1, 0.1875, 0.75
401, 0, 0.1875, 0.75
402, 1, 0.15625, 0.75
403, 0.5, 0.1875, 0.75
404, 0, 0.15625, 0.75
405, 1, 0.1875, 0.71875
406, 0, 0.1875, 0.71875
407, 1, 0.1875, 0.8125
408, 0, 0.1875, 0.8125
409, 1, 0.15625, 0.8125
410, 0.5, 0.1875, 0.8125
411, 0, 0.15625, 0.8125
412, 1, 0.1875, 0.78125
413, 0, 0.1875, 0.78125
414, 1, 0.1875, 0.875
415, 0, 0.1875, 0.875
416, 1, 0.15625, 0.875
417, 0.5, 0.1875, 0.875
418, 0, 0.15625, 0.875
419, 1, 0.1875, 0.84375
420, 0, 0.1875, 0.84375
421, 1, 0.1875, 0.9375
422, 0, 0.1875, 0.9375
423, 1, 0.15625, 0.9375
424, 0.5, 0.1875, 0.9375
425, 0, 0.15625, 0.9375
426, 1, 0.1875, 0.90625
427, 0, 0.1875, 0.90625
428, 1, 0.1875, 1
429, 0, 0.1875, 1
430, 1, 0.15625, 1
431, 0.5, 0.1875, 1
432, 0, 0.15625, 1
433, 1, 0.1875, 0.96875
434, 0, 0.1875, 0.96875
435, 1, 0.25, 0
436, 0, 0.25, 0
437, 1, 0.25, 0.0625
438, 0, 0.25, 0.0625
439, 1, 0.21875, 0
440, 0.5, 0.25, 0
441, 0, 0.21875, 0
442, 1, 0.21875, 0.0625
443, 0.5, 0.25, 0.0625
444, 0, 0.21875, 0.0625
445, 1, 0.25, 0.03125
446, 0, 0.25, 0.03125
447, 1, 0.25, 0.125
448, 0, 0.25, 0.125
449, 1, 0.21875, 0.125
450, 0.5, 0.25, 0.125
451, 0, 0.21875, 0.125
452, 1, 0.25, 0.09375
453, 0, 0.25, 0.09375
454, 1, 0.25, 0.1875
455, 0, 0.25, 0.1875
456, 1, 0.21875, 0.1875
457, 0.5, 0.25, 0.1875
458, 0, 0.21875, 0.1875
459, 1, 0.25, 0.15625
460, 0, 0.25, 0.15625
461, 1, 0.25, 0.25
462, 0, 0.25, 0.25
463, 1, 0.21875, 0.25
464, 0.5, 0.25, 0.25
465, 0, 0.21875, 0.25
466, 1, 0.25, 0.21875
467, 0, 0.25, 0.21875
468, 1, 0.25, 0.3125
469, 0, 0.25, 0.3125
470, 1, 0.21875, 0.3125
471, 0.5, 0.25, 0.3125
472, 0, 0.21875, 0.3125
473, 1, 0.25, 0.28125
474, 0, 0.25, 0.28125
475, 1, 0.25, 0.375
476, 0, 0.25, 0.375
477, 1, 0.21875, 0.375
478, 0.5, 0.25, 0.375
479, 0, 0.21875, 0.375
480, 1, 0.25, 0.34375
481, 0, 0.25, 0.34375
482, 1, 0.25, 0.4375
483, 0, 0.25, 0.4375
484, 1, 0.21875, 0.4375
485, 0.5, 0.25, 0.4375
486, 0, 0.21875, 0.4375
487, 1, 0.25, 0.40625
488, 0, 0.25, 0.40625
489, 1, 0.25, 0.5
490, 0, 0.25, 0.5
491, 1, 0.21875, 0.5
492, 0.5, 0.25, 0.5
493, 0, 0.21875, 0.5
494, 1, 0.25, 0.46875
495, 0, 0.25, 0.46875
496, 1, 0.25, 0.5625
497, 0, 0.25, 0.5625
498, 1, 0.21875, 0.5625
499, 0.5, 0.25, 0.5625
500, 0, 0.21875, 0.5625
501, 1, 0.25, 0.53125
502, 0, 0.25, 0.53125
503, 1, 0.25, 0.625
504, 0, 0.25, 0.625
505, 1, 0.21875, 0.625
506, 0.5, 0.25, 0.625
507, 0, 0.21875, 0.625
508, 1, 0.25, 0.59375
509, 0, 0.25, 0.59375
510, 1, 0.25, 0.6875
511, 0, 0.25, 0.6875
512, 1, 0.21875, 0.6875
513, 0.5, 0.25, 0.6875
514, 0, 0.21875, 0.6875
515, 1, 0.25, 0.65625
516, 0, 0.25, 0.65625
517, 1, 0.25, 0.75
518, 0, 0.25, 0.75
519, 1, 0.21875, 0.75
520, 0.5, 0.25, 0.75
521, 0, 0.21875, 0.75
522, 1, 0.25, 0.71875
523, 0, 0.25, 0.71875
524, 1, 0.25, 0.8125
525, 0, 0.25, 0.8125
526, 1, 0.21875, 0.8125
527, 0.5, 0.25, 0.8125
528, 0, 0.21875, 0.8125
529, 1, 0.25, 0.78125
530, 0, 0.25, 0.78125
531, 1, 0.25, 0.875
532, 0, 0.25, 0.875
533, 1, 0.21875, 0.875
534, 0.5, 0.25, 0.875
535, 0, 0.21875, 0.875
536, 1, 0.25, 0.84375
537, 0, 0.25, 0.84375
538, 1, 0.25, 0.9375
539, 0, 0.25, 0.9375
540, 1, 0.21875, 0.9375
541, 0.5, 0.25, 0.9375
542, 0, 0.21875, 0.9375
543, 1, 0.25, 0.90625
544, 0, 0.25, 0.90625
545, 1, 0.25, 1
546, 0, 0.25, 1
547, 1, 0.21875, 1
548, 0.5, 0.25, 1
549, 0, 0.21875, 1
550, 1, 0.25, 0.96875
551, 0, 0.25, 0.96875
552, 1, 0.3125, 0
553, 0, 0.3125, 0
554, 1, 0.3125, 0.0625
555, 0, 0.3125, 0.0625
556, 1, 0.28125, 0
557, 0.5, 0.3125, 0
558, 0, 0.28125, 0
559, 1, 0.28125, 0.0625
560, 0.5, 0.3125, 0.0625
561, 0, 0.28125, 0.0625
562, 1, 0.3125, 0.03125
563, 0, 0.3125, 0.03125
564, 1, 0.3125, 0.125
565, 0, 0.3125, 0.125
566, 1, 0.28125, 0.125
567, 0.5, 0.3125, 0.125
568, 0, 0.28125, 0.125
569, 1, 0.3125, 0.09375
570, 0, 0.3125, 0.09375
571, 1, 0.3125, 0.1875
572, 0, 0.3125, 0.1875
573, 1, 0.28125, 0.1875
574, 0.5, 0.3125, 0.1875
575, 0, 0.28125, 0.1875
576, 1, 0.3125, 0.15625
577, 0, 0.3125, 0.15625
578, 1, 0.3125, 0.25
579, 0, 0.3125, 0.25
580, 1, 0.28125, 0.25
581, 0.5, 0.3125, 0.25
582, 0, 0.28125, 0.25
583, 1, 0.3125, 0.21875
584, 0, 0.3125, 0.21875
585, 1, 0.3125, 0.3125
586, 0, 0.3125, 0.3125
587, 1, 0.28125, 0.3125
588, 0.5, 0.3125, 0.3125
589, 0, 0.28125, 0.3125
590, 1, 0.3125, 0.28125
591, 0, 0.3125, 0.28125
592, 1, 0.3125, 0.375
593, 0, 0.3125, 0.375
594, 1, 0.28125, 0.375
595, 0.5, 0.3125, 0.375
596, 0, 0.28125, 0.375
597, 1, 0.3125, 0.34375
598, 0, 0.3125, 0.34375
599, 1, 0.3125, 0.4375
600, 0, 0.3125, 0.4375
601, 1, 0.28125, 0.4375
602, 0.5, 0.3125, 0.4375
603, 0, 0.28125, 0.4375
604, 1, 0.3125, 0.40625
605, 0, 0.3125, 0.40625
606, 1, 0.3125, 0.5
607, 0, 0.3125, 0.5
608, 1, 0.28125, 0.5
609, 0.5, 0.3125, 0.5
610, 0, 0.28125, 0.5
611, 1, 0.3125, 0.46875
612, 0, 0.3125, 0.46875
613, 1, 0.3125, 0.5625
614, 0, 0.3125, 0.5625
615, 1, 0.28125, 0.5625
616, 0.5, 0.3125, 0.5625
617, 0, 0.28125, 0.5625
618, 1, 0.3125, 0.53125
619, 0, 0.3125, 0.53125
620, 1, 0.3125, 0.625
621, 0, 0.3125, 0.625
622, 1, 0.28125, 0.625
623, 0.5, 0.3125, 0.625
624, 0, 0.28125, 0.625
625, 1, 0.3125, 0.59375
626, 0, 0.3125, 0.59375
627, 1, 0.3125, 0.6875
628, 0, 0.3125, 0.6875
629, 1, 0.28125, 0.6875
630, 0.5, 0.3125, 0.6875
631, 0, 0.28125, 0.6875
632, 1, 0.3125, 0.65625
633, 0, 0.3125, 0.65625
634, 1, 0.3125, 0.75
635, 0, 0.3125, 0.75
636, 1, 0.28125, 0.75
637, 0.5, 0.3125, 0.75
638, 0, 0.28125, 0.75
639, 1, 0.3125, 0.71875
640, 0, 0.3125, 0.71875
641, 1, 0.3125, 0.8125
642, 0, 0.3125, 0.8125
643, 1, 0.28125, 0.8125
644, 0.5, 0.3125, 0.8125
645, 0, 0.28125, 0.8125
646, 1, 0.3125, 0.78125
647, 0, 0.3125, 0.78125
648, 1, 0.3125, 0.875
649, 0, 0.3125, 0.875
650, 1, 0.28125, 0.875
651, 0.5, 0.3125, 0.875
652, 0, 0.28125, 0.875
653, 1, 0.3125, 0.84375
654, 0, 0.3125, 0.84375
655, 1, 0.3125, 0.9375
656, 0, 0.3125, 0.9375
657, 1, 0.28125, 0.9375
658, 0.5, 0.3125, 0.9375
659, 0, 0.28125, 0.9375
660, 1, 0.3125, 0.90625
661, 0, 0.3125, 0.90625
662, 1, 0.3125, 1
663, 0, 0.3125, 1
664, 1, 0.28125, 1
665, 0.5, 0.3125, 1
666, 0, 0.28125, 1
667, 1, 0.3125, 0.96875
668, 0, 0.3125, 0.96875
669, 1, 0.375, 0
670, 0, 0.375, 0
671, 1, 0.375, 0.0625
672, 0, 0.375, 0.0625
673, 1, 0.34375, 0
674, 0.5, 0.375, 0
675, 0, 0.34375, 0
676, 1, 0.34375, 0.0625
677, 0.5, 0.375, 0.0625
678, 0, 0.34375, 0.0625
679, 1, 0.375, 0.03125
680, 0, 0.375, 0.03125
681, 1, 0.375, 0.125
682, 0, 0.375, 0.125
683, 1, 0.34375, 0.125
684, 0.5, 0.375, 0.125
685, 0, 0.34375, 0.125
686, 1, 0.375, 0.09375
687, 0, 0.375, 0.09375
688, 1, 0.375, 0.1875
689, 0, 0.375, 0.1875
690, 1, 0.34375, 0.1875
691, 0.5, 0.375, 0.1875
692, 0, 0.34375, 0.1875
693, 1, 0.375, 0.15625
694, 0, 0.375, 0.15625
695, 1, 0.375, 0.25
696, 0, 0.375, 0.25
697, 1, 0.34375, 0.25
698, 0.5, 0.375, 0.25
699, 0, 0.34375, 0.25
700, 1, 0.375, 0.21875
701, 0, 0.375, 0.21875
702, 1, 0.375, 0.3125
703, 0, 0.375, 0.3125
704, 1, 0.34375, 0.3125
705, 0.5, 0.375, 0.3125
706, 0, 0.34375, 0.3125
707, 1, 0.375, 0.28125
708, 0, 0.375, 0.28125
709, 1, 0.375, 0.375
710, 0, 0.375, 0.375
711, 1, 0.34375, 0.375
712, 0.5, 0.375, 0.375
713, 0, 0.34375, 0.375
714, 1, 0.375, 0.34375
715, 0, 0.375, 0.34375
716, 1, 0.375, 0.4375
717, 0, 0.375, 0.4375
718, 1, 0.34375, 0.4375
719, 0.5, 0.375, 0.4375
720, 0, 0.34375, 0.4375
721, 1, 0.375, 0.40625
722, 0, 0.375, 0.40625
723, 1, 0.375, 0.5
724, 0, 0.375, 0.5
725, 1, 0.34375, 0.5
726, 0.5, 0.375, 0.5
727, 0, 0.34375, 0.5
728, 1, 0.375, 0.46875
729, 0, 0.375, 0.46875
730, 1, 0.375, 0.5625
731, 0, 0.375, 0.5625
732, 1, 0.34375, 0.5625
733, 0.5, 0.375, 0.5625
734, 0, 0.34375, 0.5625
735, 1, 0.375, 0.53125
736, 0, 0.375, 0.53125
737, 1, 0.375, 0.625
738, 0, 0.375, 0.625
739, 1, 0.34375, 0.625
740, 0.5, 0.375, 0.625
741, 0, 0.34375, 0.625
742, 1, 0.375, 0.59375
743, 0, 0.375, 0.59375
744, 1, 0.375, 0.6875
745, 0, 0.375, 0.6875
746, 1, 0.34375, 0.6875
747, 0.5, 0.375, 0.6875
748, 0, 0.34375, 0.6875
749, 1, 0.375, 0.65625
750, 0, 0.375, 0.65625
751, 1, 0.375, 0.75
752, 0, 0.375, 0.75
753, 1, 0.34375, 0.75
754, 0.5, 0.375, 0.75
755, 0, 0.34375, 0.75
756, 1, 0.375, 0.71875
757, 0, 0.375, 0.71875
758, 1, 0.375, 0.8125
759, 0, 0.375, 0.8125
760, 1, 0.34375, 0.8125
761, 0.5, 0.375, 0.8125
762, 0, 0.34375, 0.8125
763, 1, 0.375, 0.78125
764, 0, 0.375, 0.78125
765, 1, 0.375, 0.875
766, 0, 0.375, 0.875
767, 1, 0.34375, 0.875
768, 0.5, 0.375, 0.875
769, 0, 0.34375, 0.875
770, 1, 0.375, 0.84375
771, 0, 0.375, 0.84375
772, 1, 0.375, 0.9375
773, 0, 0.375, 0.9375
774, 1, 0.34375, 0.9375
775, 0.5, 0.375, 0.9375
776, 0, 0.34375, 0.9375
777, 1, 0.375, 0.90625
778, 0, 0.375, 0.90625
779, 1, 0.375, 1
780, 0, 0.375, 1
781, 1, 0.34375, 1
782, 0.5, 0.375, 1
783, 0, 0.34375, 1
784, 1, 0.375, 0.96875
785, 0, 0.375, 0.96875
786, 1, 0.4375, 0
787, 0, 0.4375, 0
788, 1, 0.4375, 0.0625
789, 0, 0.4375, 0.0625
790, 1, 0.40625, 0
791, 0.5, 0.4375, 0
792, 0, 0.40625, 0
793, 1, 0.40625, 0.0625
794, 0.5, 0.4375, 0.0625
795, 0, 0.40625, 0.0625
796, 1, 0.4375, 0.03125
797, 0, 0.4375, 0.03125
798, 1, 0.4375, 0.125
799, 0, 0.4375, 0.125
800, 1, 0.40625, 0.125
801, 0.5, 0.4375, 0.125
802, 0, 0.40625, 0.125
803, 1, 0.4375, 0.09375
804, 0, 0.4375, 0.09375
805, 1, 0.4375, 0.1875
806, 0, 0.4375, 0.1875
807, 1, 0.40625, 0.1875
808, 0.5, 0.4375, 0.1875
809, 0, 0.40625, 0.1875
810, 1, 0.4375, 0.15625
811, 0, 0.4375, 0.15625
812, 1, 0.4375, 0.25
813, 0, 0.4375, 0.25
814, 1, 0.40625, 0.25
815, 0.5, 0.4375, 0.25
816, 0, 0.40625, 0.25
817, 1, 0.4375, 0.21875
818, 0, 0.4375, 0.21875
819, 1, 0.4375, 0.3125
820, 0, 0.4375, 0.3125
821, 1, 0.40625, 0.3125
822, 0.5, 0.4375, 0.3125
823, 0, 0.40625, 0.3125
824, 1, 0.4375, 0.28125
825, 0, 0.4375, 0.28125
826, 1, 0.4375, 0.375
827, 0, 0.4375, 0.375
828, 1, 0.40625, 0.375
829, 0.5, 0.4375, 0.375
830, 0, 0.40625, 0.375
831, 1, 0.4375, 0.34375
832, 0, 0.4375, 0.34375
833, 1, 0.4375, 0.4375
834, 0, 0.4375, 0.4375
835, 1, 0.40625, 0.4375
836, 0.5, 0.4375, 0.4375
837, 0, 0.40625, 0.4375
838, 1, 0.4375, 0.40625
839, 0, 0.4375, 0.40625
840, 1, 0.4375, 0.5
841, 0, 0.4375, 0.5
842, 1, 0.40625, 0.5
843, 0.5, 0.4375, 0.5
844, 0, 0.40625, 0.5
845, 1, 0.4375, 0.46875
846, 0, 0.4375, 0.46875
847, 1, 0.4375, 0.5625
848, 0, 0.4375, 0.5625
849, 1, 0.40625, 0.5625
850, 0.5, 0.4375, 0.5625
851, 0, 0.40625, 0.5625
852, 1, 0.4375, 0.53125
853, 0, 0.4375, 0.53125
854, 1, 0.4375, 0.625
855, 0, 0.4375, 0.625
856, 1, 0.40625, 0.625
857, 0.5, 0.4375, 0.625
858, 0, 0.40625, 0.625
859, 1, 0.4375, 0.59375
860, 0, 0.4375, 0.59375
861, 1, 0.4375, 0.6875
862, 0, 0.4375, 0.6875
863, 1, 0.40625, 0.6875
864, 0.5, 0.4375, 0.6875
865, 0, 0.40625, 0.6875
866, 1, 0.4375, 0.65625
867, 0, 0.4375, 0.65625
868, 1, 0.4375, 0.75
869, 0, 0.4375, 0.75
870, 1, 0.40625, 0.75
871, 0.5, 0.4375, 0.75
872, 0, 0.40625, 0.75
873, 1, 0.4375, 0.71875
874, 0, 0.4375, 0.71875
875, 1, 0.4375, 0.8125
876, 0, 0.4375, 0.8125
877, 1, 0.40625, 0.8125
878, 0.5, 0.4375, 0.8125
879, 0, 0.40625, 0.8125
880, 1, 0.4375, 0.78125
881, 0, 0.4375, 0.78125
882, 1, 0.4375, 0.875
883, 0, 0.4375, 0.875
884, 1, 0.40625, 0.875
885, 0.5, 0.4375, 0.875
886, 0, 0.40625, 0.875
887, 1, 0.4375, 0.84375
888, 0, 0.4375, 0.84375
889, 1, 0.4375, 0.9375
890, 0, 0.4375, 0.9375
891, 1, 0.40625, 0.9375
892, 0.5, 0.4375, 0.9375
893, 0, 0.40625, 0.9375
894, 1, 0.4375, 0.90625
895, 0, 0.4375, 0.90625
896, 1, 0.4375, 1
897, 0, 0.4375, 1
898, 1, 0.40625, 1
899, 0.5, 0.4375, 1
900, 0, 0.40625, 1
901, 1, 0.4375, 0.96875
902, 0, 0.4375, 0.96875
903, 1, 0.5, 0
904, 0, 0.5, 0
905, 1, 0.5, 0.0625
906, 0, 0.5, 0.0625
907, 1, 0.46875, 0
908, 0.5, 0.5, 0
909, 0, 0.46875, 0
910, 1, 0.46875, 0.0625
911, 0.5, 0.5, 0.0625
912, 0, 0.46875, 0.0625
913, 1, 0.5, 0.03125
914, 0, 0.5, 0.03125
915, 1, 0.5, 0.125
916, 0, 0.5, 0.125
917, 1, 0.46875, 0.125
918, 0.5, 0.5, 0.125
919, 0, 0.46875, 0.125
920, 1, 0.5, 0.09375
921, 0, 0.5, 0.09375
922, 1, 0.5, 0.1875
923, 0, 0.5, 0.1875
924, 1, 0.46875, 0.1875
925, 0.5, 0.5, 0.1875
926, 0, 0.46875, 0.1875
927, 1, 0.5, 0.15625
928, 0, 0.5, 0.15625
929, 1, 0.5, 0.25
930, 0, 0.5, 0.25
931, 1, 0.46875, 0.25
932, 0.5, 0.5, 0.25
933, 0, 0.46875, 0.25
934, 1, 0.5, 0.21875
935, 0, 0.5, 0.21875
936, 1, 0.5, 0.3125
937, 0, 0.5, 0.3125
938, 1, 0.46875, 0.3125
939, 0.5, 0.5, 0.3125
940, 0, 0.46875, 0.3125
941, 1, 0.5, 0.28125
942, 0, 0.5, 0.28125
943, 1, 0.5, 0.375
944, 0, 0.5, 0.375
945, 1, 0.46875, 0.375
946, 0.5, 0.5, 0.375
947, 0, 0.46875, 0.375
948, 1, 0.5, 0.34375
949, 0, 0.5, 0.34375
950, 1, 0.5, 0.4375
951, 0, 0.5, 0.4375
952, 1, 0.46875, 0.4375
953, 0.5, 0.5, 0.4375
954, 0, 0.46875, 0.4375
955, 1, 0.5, 0.40625
956, 0, 0.5, 0.40625
957, 1, 0.5, 0.5
958, 0, 0.5, 0.5
959, 1, 0.46875, 0.5
960, 0.5, 0.5, 0.5
961, 0, 0.46875, 0.5
962, 1, 0.5, 0.46875
963, 0, 0.5, 0.46875
964, 1, 0.5, 0.5625
965, 0, 0.5, 0.5625
966, 1, 0.46875, 0.5625
967, 0.5, 0.5, 0.5625
968, 0, 0.46875, 0.5625
969, 1, 0.5, 0.53125
970, 0, 0.5, 0.53125
971, 1, 0.5, 0.625
972, 0, 0.5, 0.625
973, 1, 0.46875, 0.625
974, 0.5, 0.5, 0.625
975, 0, 0.46875, 0.625
976, 1, 0.5, 0.59375
977, 0, 0.5, 0.59375
978, 1, 0.5, 0.6875
979, 0, 0.5, 0.6875
980, 1, 0.46875, 0.6875
981, 0.5, 0.5, 0.6875
982, 0, 0.46875, 0.6875
983, 1, 0.5, 0.65625
984, 0, 0.5, 0.65625
985, 1, 0.5, 0.75
986, 0, 0.5, 0.75
987, 1, 0.46875, 0.75
988, 0.5, 0.5, 0.75
989, 0, 0.46875, 0.75
990, 1, 0.5, 0.71875
991, 0, 0.5, 0.71875
992, 1, 0.5, 0.8125
993, 0, 0.5, 0.8125
994, 1, 0.46875, 0.8125
995, 0.5, 0.5, 0.8125
996, 0, 0.46875, 0.8125
997, 1, 0.5, 0.78125
998, 0, 0.5, 0.78125
999, 1, 0.5, 0.875
1000, 0, 0.5, 0.875
1001, 1, 0.46875, 0.875
1002, 0.5, 0.5, 0.875
1003, 0, 0.46875, 0.875
1004, 1, 0.5, 0.84375
1005, 0, 0.5, 0.84375
1006, 1, 0.5, 0.9375
1007, 0, 0.5, 0.9375
1008, 1, 0.46875, 0.9375
1009, 0.5, 0.5, 0.9375
1010, 0, 0.46875, 0.9375
1011, 1, 0.5, 0.90625
1012, 0, 0.5, 0.90625
1013, 1, 0.5, 1
1014, 0, 0.5, 1
1015, 1, 0.46875, 1
1016, 0.5, 0.5, 1
1017, 0, 0.46875, 1
1018, 1, 0.5, 0.96875
1019, 0, 0.5, 0.96875
1020, 1, 0.5625, 0
1021, 0, 0.5625, 0
1022, 1, 0.5625, 0.0625
1023, 0, 0.5625, 0.0625
1024, 1, 0.53125, 0
1025, 0.5, 0.5625, 0
1026, 0, 0.53125, 0
1027, 1, 0.53125, 0.0625
1028, 0.5, 0.5625, 0.0625
1029, 0, 0.53125, 0.0625
1030, 1, 0.5625, 0.03125
1031, 0, 0.5625, 0.03125
1032, 1, 0.5625, 0.125
1033, 0, 0.5625, 0.125
1034, 1, 0.53125, 0.125
1035, 0.5, 0.5625, 0.125
1036, 0, 0.53125, 0.125
1037, 1, 0.5625, 0.09375
1038, 0, 0.5625, 0.09375
1039, 1, 0.5625, 0.1875
1040, 0, 0.5625, 0.1875
1041, 1, 0.53125, 0.1875
1042, 0.5, 0.5625, 0.1875
1043, 0, 0.53125, 0.1875
1044, 1, 0.5625, 0.15625
1045, 0, 0.5625, 0.15625
1046, 1, 0.5625, 0.25
1047, 0, 0.5625, 0.25
1048, 1, 0.53125, 0.25
1049, 0.5, 0.5625, 0.25
1050, 0, 0.53125, 0.25
1051, 1, 0.5625, 0.21875
1052, 0, 0.5625, 0.21875
1053, 1, 0.5625, 0.3125
1054, 0, 0.5625, 0.3125
1055, 1, 0.53125, 0.3125
1056, 0.5, 0.5625, 0.3125
1057, 0, 0.53125, 0.3125
1058, 1, 0.5625, 0.28125
1059, 0, 0.5625, 0.28125
1060, 1, 0.5625, 0.375
1061, 0, 0.5625, 0.375
1062, 1, 0.53125, 0.375
1063, 0.5, 0.5625, 0.375
1064, 0, 0.53125, 0.375
1065, 1, 0.5625, 0.34375
1066, 0, 0.5625, 0.34375
1067, 1, 0.5625, 0.4375
1068, 0, 0.5625, 0.4375
1069, 1, 0.53125, 0.4375
1070, 0.5, 0.5625, 0.4375
1071, 0, 0.53125, 0.4375
1072, 1, 0.5625, 0.40625
1073, 0, 0.5625, 0.40625
1074, 1, 0.5625, 0.5
1075, 0, 0.5625, 0.5
1076, 1, 0.53125, 0.5
1077, 0.5, 0.5625, 0.5
1078, 0, 0.53125, 0.5
1079, 1, 0.5625, 0.46875
1080, 0, 0.5625, 0.46875
1081, 1, 0.5625, 0.5625
1082, 0, 0.5625, 0.5625
1083, 1, 0.53125, 0.5625
1084, 0.5, 0.5625, 0.5625
1085, 0, 0.53125, 0.5625
1086, 1, 0.5625, 0.53125
1087, 0, 0.5625, 0.53125
1088, 1, 0.5625, 0.625
1089, 0, 0.5625, 0.625
1090, 1, 0.53125, 0.625
1091, 0.5, 0.5625, 0.625
1092, 0, 0.53125, 0.625
1093, 1, 0.5625, 0.59375
1094, 0, 0.5625, 0.59375
1095, 1, 0.5625, 0.6875
1096, 0, 0.5625, 0.6875
1097, 1, 0.53125, 0.6875
1098, 0.5, 0.5625, 0.6875
1099, 0, 0.53125, 0.6875
1100, 1, 0.5625, 0.65625
1101, 0, 0.5625, 0.65625
1102, 1, 0.5625, 0.75
1103, 0, 0.5625, 0.75
1104, 1, 0.53125, 0.75
1105, 0.5, 0.5625, 0.75
1106, 0, 0.53125, 0.75
1107, 1, 0.5625, 0.71875
1108, 0, 0.5625, 0.71875
1109, 1, 0.5625, 0.8125
1110, 0, 0.5625, 0.8125
1111, 1, 0.53125, 0.8125
1112, 0.5, 0.5625, 0.8125
1113, 0, 0.53125, 0.8125
1114, 1, 0.5625, 0.78125
1115, 0, 0.5625, 0.78125
1116, 1, 0.5625, 0.875
1117, 0, 0.5625, 0.875
1118, 1, 0.53125, 0.875
1119, 0.5, 0.5625, 0.875
1120, 0, 0.53125, 0.875
1121, 1, 0.5625, 0.84375
1122, 0, 0.5625, 0.84375
1123, 1, 0.5625, 0.9375
1124, 0, 0.5625, 0.9375
1125, 1, 0.53125, 0.9375
1126, 0.5, 0.5625, 0.9375
1127, 0, 0.53125, 0.9375
1128, 1, 0.5625, 0.90625
1129, 0, 0.5625, 0.90625
1130, 1, 0.5625, 1
1131, 0, 0.5625, 1
1132, 1, 0.53125, 1
1133, 0.5, 0.5625, 1
1134, 0, 0.53125, 1
1135, 1, 0.5625, 0.96875
1136, 0, 0.5625, 0.96875
1137, 1, 0.625, 0
1138, 0, 0.625, 0
1139, 1, 0.625, 0.0625
1140, 0, 0.625, 0.0625
1141, 1, 0.59375, 0
1142, 0.5, 0.625, 0
1143, 0, 0.59375, 0
1144, 1, 0.59375, 0.0625
1145, 0.5, 0.625, 0.0625
1146, 0, 0.59375, 0.0625
1147, 1, 0.625, 0.03125
1148, 0, 0.625, 0.03125
1149, 1, 0.625, 0.125
1150, 0, 0.625, 0.125
1151, 1, 0.59375, 0.125
1152, 0.5, 0.625, 0.125
1153, 0, 0.59375, 0.125
1154, 1, 0.625, 0.09375
1155, 0, 0.625, 0.09375
1156, 1, 0.625, 0.1875
1157, 0, 0.625, 0.1875
1158, 1, 0.59375, 0.1875
1159, 0.5, 0.625, 0.1875
1160, 0, 0.59375, 0.1875
1161, 1, 0.625, 0.15625
1162, 0, 0.625, 0.15625
1163, 1, 0.625, 0.25
1164, 0, 0.625, 0.25
1165, 1, 0.59375, 0.25
1166, 0.5, 0.625, 0.25
1167, 0, 0.59375, 0.25
1168, 1, 0.625, 0.21875
1169, 0, 0.625, 0.21875
1170, 1, 0.625, 0.3125
1171, 0, 0.625, 0.3125
1172, 1, 0.59375, 0.3125
1173, 0.5, 0.625, 0.3125
1174, 0, 0.59375, 0.3125
1175, 1, 0.625, 0.28125
1176, 0, 0.625, 0.28125
1177, 1, 0.625, 0.375
1178, 0, 0.625, 0.375
1179, 1, 0.59375, 0.375
1180, 0.5, 0.625, 0.375
1181, 0, 0.59375, 0.375
1182, 1, 0.625, 0.34375
1183, 0, 0.625, 0.34375
1184, 1, 0.625, 0.4375
1185, 0, 0.625, 0.4375
1186, 1, 0.59375, 0.4375
1187, 0.5, 0.625, 0.4375
1188, 0, 0.59375, 0.4375
1189, 1, 0.625, 0.40625
1190, 0, 0.625, 0.40625
1191, 1, 0.625, 0.5
1192, 0, 0.625, 0.5
1193, 1, 0.59375, 0.5
1194, 0.5, 0.625, 0.5
1195, 0, 0.59375, 0.5
1196, 1, 0.625, 0.46875
1197, 0, 0.625, 0.46875
1198, 1, 0.625, 0.5625
1199, 0, 0.625, 0.5625
1200, 1, 0.59375, 0.5625
1201, 0.5, 0.625, 0.5625
1202, 0, 0.59375, 0.5625
1203, 1, 0.625, 0.53125
1204, 0, 0.625, 0.53125
1205, 1, 0.625, 0.625
1206, 0, 0.625, 0.625
1207, 1, 0.59375, 0.625
1208, 0.5, 0.625, 0.625
1209, 0, 0.59375, 0.625
1210, 1, 0.625, 0.59375
1211, 0, 0.625, 0.59375
1212, 1, 0.625, 0.6875
1213, 0, 0.625, 0.6875
1214, 1, 0.59375, 0.6875
1215, 0.5, 0.625, 0.6875
1216, 0, 0.59375, 0.6875
1217, 1, 0.625, 0.65625
1218, 0, 0.625, 0.65625
1219, 1, 0.625, 0.75
1220, 0, 0.625, 0.75
1221, 1, 0.59375, 0.75
1222, 0.5, 0.625, 0.75
1223, 0, 0.59375, 0.75
1224, 1, 0.625, 0.71875
1225, 0, 0.625, 0.71875
1226, 1, 0.625, 0.8125
1227, 0, 0.625, 0.8125
1228, 1, 0.59375, 0.8125
1229, 0.5, 0.625, 0.8125
1230, 0, 0.59375, 0.8125
1231, 1, 0.625, 0.78125
1232, 0, 0.625, 0.78125
1233, 1, 0.625, 0.875
1234, 0, 0.625, 0.875
1235, 1, 0.59375, 0.875
1236, 0.5, 0.625, 0.875
1237, 0, 0.59375, 0.875
1238, 1, 0.625, 0.84375
1239, 0, 0.625, 0.84375
1240, 1, 0.625, 0.9375
1241, 0, 0.625, 0.9375
1242, 1, 0.59375, 0.9375
1243, 0.5, 0.625, 0.9375
1244, 0, 0.59375, 0.9375
1245, 1, 0.625, 0.90625
1246, 0, 0.625, 0.90625
1247, 1, 0.625, 1
1248, 0, 0.625, 1
1249, 1, 0.59375, 1
1250, 0.5, 0.625, 1
1251, 0, 0.59375, 1
1252, 1, 0.625, 0.96875
1253, 0, 0.625, 0.96875
1254, 1, 0.6875, 0
1255, 0, 0.6875, 0
1256, 1, 0.6875, 0.0625
1257, 0, 0.6875, 0.0625
1258, 1, 0.65625, 0
1259, 0.5, 0.6875, 0
1260, 0, 0.65625, 0
1261, 1, 0.65625, 0.0625
1262, 0.5, 0.6875, 0.0625
1263, 0, 0.65625, 0.0625
1264, 1, 0.6875, 0.03125
1265, 0, 0.6875, 0.03125
1266, 1, 0.6875, 0.125
1267, 0, 0.6875, 0.125
1268, 1, 0.65625, 0.125
1269, 0.5, 0.6875, 0.125
1270, 0, 0.65625, 0.125
1271, 1, 0.6875, 0.09375
1272, 0, 0.6875, 0.09375
1273, 1, 0.6875, 0.1875
1274, 0, 0.6875, 0.1875
1275, 1, 0.65625, 0.1875
1276, 0.5, 0.6875, 0.1875
1277, 0, 0.65625, 0.1875
1278, 1, 0.6875, 0.15625
1279, 0, 0.6875, 0.15625
1280, 1, 0.6875, 0.25
1281, 0, 0.6875, 0.25
1282, 1, 0.65625, 0.25
1283, 0.5, 0.6875, 0.25
1284, 0, 0.65625, 0.25
1285, 1, 0.6875, 0.21875
1286, 0, 0.6875, 0.21875
1287, 1, 0.6875, 0.3125
1288, 0, 0.6875, 0.3125
1289, 1, 0.65625, 0.3125
1290, 0.5, 0.6875, 0.3125
1291, 0, 0.65625, 0.3125
1292, 1, 0.6875, 0.28125
1293, 0, 0.6875, 0.28125
1294, 1, 0.6875, 0.375
1295, 0, 0.6875, 0.375
1296, 1, 0.65625, 0.375
1297, 0.5, 0.6875, 0.375
1298, 0, 0.65625, 0.375
1299, 1, 0.6875, 0.34375
1300, 0, 0.6875, 0.34375
1301, 1, 0.6875, 0.4375
1302, 0, 0.6875, 0.4375
1303, 1, 0.65625, 0.4375
1304, 0.5, 0.6875, 0.4375
1305, 0, 0.65625, 0.4375
1306, 1, 0.6875, 0.40625
1307, 0, 0.6875, 0.40625
1308, 1, 0.6875, 0.5
1309, 0, 0.6875, 0.5
1310, 1, 0.65625, 0.5
1311, 0.5, 0.6875, 0.5
1312, 0, 0.65625, 0.5
1313, 1, 0.6875, 0.46875
1314, 0, 0.6875, 0.46875
1315, 1, 0.6875, 0.5625
1316, 0, 0.6875, 0.5625
1317, 1, 0.65625, 0.5625
1318, 0.5, 0.6875, 0.5625
1319, 0, 0.65625, 0.5625
1320, 1, 0.6875, 0.53125
1321, 0, 0.6875, 0.53125
1322, 1, 0.6875, 0.625
1323, 0, 0.6875, 0.625
1324, 1, 0.65625, 0.625
1325, 0.5, 0.6875, 0.625
1326, 0, 0.65625, 0.625
1327, 1, 0.6875, 0.59375
1328, 0, 0.6875, 0.59375
1329, 1, 0.6875, 0.6875
1330, 0, 0.6875, 0.6875
1331, 1, 0.65625, 0.6875
1332, 0.5, 0.6875, 0.6875
1333, 0, 0.65625, 0.6875
1334, 1, 0.6875, 0.65625
1335, 0, 0.6875, 0.65625
1336, 1, 0.6875, 0.75
1337, 0, 0.6875, 0.75
1338, 1, 0.65625, 0.75
1339, 0.5, 0.6875, 0.75
1340, 0, 0.65625, 0.75
1341, 1, 0.6875, 0.71875
1342, 0, 0.6875, 0.71875
1343, 1, 0.6875, 0.8125
1344, 0, 0.6875, 0.8125
1345, 1, 0.65625, 0.8125
1346, 0.5, 0.6875, 0.8125
1347, 0, 0.65625, 0.8125
1348, 1, 0.6875, 0.78125
1349, 0, 0.6875, 0.78125
1350, 1, 0.6875, 0.875
1351, 0, 0.6875, 0.875
1352, 1, 0.65625, 0.875
1353, 0.5, 0.6875, 0.875
1354, 0, 0.65625, 0.875
1355, 1, 0.6875, 0.84375
1356, 0, 0.6875, 0.84375
1357, 1, 0.6875, 0.9375
1358, 0, 0.6875, 0.9375
1359, 1, 0.65625, 0.9375
1360, 0.5, 0.6875, 0.9375
1361, 0, 0.65625, 0.9375
1362, 1, 0.6875, 0.90625
1363, 0, 0.6875, 0.90625
1364, 1, 0.6875, 1
1365, 0, 0.6875, 1
1366, 1, 0.65625, 1
1367, 0.5, 0.6875, 1
1368, 0, 0.65625, 1
1369, 1, 0.6875, 0.96875
1370, 0, 0.6875, 0.96875
1371, 1, 0.75, 0
1372, 0, 0.75, 0
1373, 1, 0.75, 0.0625
1374, 0, 0.75, 0.0625
1375, 1, 0.71875, 0
1376, 0.5, 0.75, 0
1377, 0, 0.71875, 0
1378, 1, 0.71875, 0.0625
1379, 0.5, 0.75, 0.0625
1380, 0, 0.71875, 0.0625
1381, 1, 0.75, 0.03125
1382, 0, 0.75, 0.03125
1383, 1, 0.75, 0.125
1384, 0, 0.75, 0.125
1385, 1, 0.71875, 0.125
1386, 0.5, 0.75, 0.125
1387, 0, 0.71875, 0.125
1388, 1, 0.75, 0.09375
1389, 0, 0.75, 0.09375
1390, 1, 0.75, 0.1875
1391, 0, 0.75, 0.1875
1392, 1, 0.71875, 0.1875
1393, 0.5, 0.75, 0.1875
1394, 0, 0.71875, 0.1875
1395, 1, 0.75, 0.15625
1396, 0, 0.75, 0.15625
1397, 1, 0.75, 0.25
1398, 0, 0.75, 0.25
1399, 1, 0.71875, 0.25
1400, 0.5, 0.75, 0.25
1401, 0, 0.71875, 0.25
1402, 1, 0.75, 0.21875
1403, 0, 0.75, 0.21875
1404, 1, 0.75, 0.3125
1405, 0, 0.75, 0.3125
1406, 1, 0.71875, 0.3125
1407, 0.5, 0.75, 0.3125
1408, 0, 0.71875, 0.3125
1409, 1, 0.75, 0.28125
1410, 0, 0.75, 0.28125
1411, 1, 0.75, 0.375
1412, 0, 0.75, 0.375
1413, 1, 0.71875, 0.375
1414, 0.5, 0.75, 0.375
1415, 0, 0.71875, 0.375
1416, 1, 0.75, 0.34375
1417, 0, 0.75, 0.34375
1418, 1, 0.75, 0.4375
1419, 0, 0.75, 0.4375
1420, 1, 0.71875, 0.4375
1421, 0.5, 0.75, 0.4375
1422, 0, 0.71875, 0.4375
1423, 1, 0.75, 0.40625
1424, 0, 0.75, 0.40625
1425, 1, 0.75, 0.5
1426, 0, 0.75, 0.5
1427, 1, 0.71875, 0.5
1428, 0.5, 0.75, 0.5
1429, 0, 0.71875, 0.5
1430, 1, 0.75, 0.46875
1431, 0, 0.75, 0.46875
1432, 1, 0.75, 0.5625
1433, 0, 0.75, 0.5625
1434, 1, 0.71875, 0.5625
1435, 0.5, 0.75, 0.5625
1436, 0, 0.71875, 0.5625
1437, 1, 0.75, 0.53125
1438, 0, 0.75, 0.53125
1439, 1, 0.75, 0.625
1440, 0, 0.75, 0.625
1441, 1, 0.71875, 0.625
1442, 0.5, 0.75, 0.625
1443, 0, 0.71875, 0.625
1444, 1, 0.75, 0.59375
1445, 0, 0.75, 0.59375
1446, 1, 0.75, 0.6875
1447, 0, 0.75, 0.6875
1448, 1, 0.71875, 0.6875
1449, 0.5, 0.75, 0.6875
1450, 0, 0.71875, 0.6875
1451, 1, 0.75, 0.65625
1452, 0, 0.75, 0.65625
1453, 1, 0.75, 0.75
1454, 0, 0.75, 0.75
1455, 1, 0.71875, 0.75
1456, 0.5, 0.75, 0.75
1457, 0, 0.71875, 0.75
1458, 1, 0.75, 0.71875
1459, 0, 0.75, 0.71875
1460, 1, 0.75, 0.8125
1461, 0, 0.75, 0.8125
1462, 1, 0.71875, 0.8125
1463, 0.5, 0.75, 0.8125
1464, 0, 0.71875, 0.8125
1465, 1, 0.75, 0.78125
1466, 0, 0.75, 0.78125
1467, 1, 0.75, 0.875
1468, 0, 0.75, 0.875
1469, 1, 0.71875, 0.875
1470, 0.5, 0.75, 0.875
1471, 0, 0.71875, 0.875
1472, 1, 0.75, 0.84375
1473, 0, 0.75, 0.84375
1474, 1, 0.75, 0.9375
1475, 0, 0.75, 0.9375
1476, 1, 0.71875, 0.9375
1477, 0.5, 0.75, 0.9375
1478, 0, 0.71875, 0.9375
1479, 1, 0.75, 0.90625
1480, 0, 0.75, 0.90625
1481, 1, 0.75, 1
1482, 0, 0.75, 1
1483, 1, 0.71875, 1
1484, 0.5, 0.75, 1
1485, 0, 0.71875, 1
1486, 1, 0.75, 0.96875
1487, 0, 0.75, 0.96875
1488, 1, 0.8125, 0
1489, 0, 0.8125, 0
1490, 1, 0.8125, 0.0625
1491, 0, 0.8125, 0.0625
1492, 1, 0.78125, 0
1493, 0.5, 0.8125, 0
1494, 0, 0.78125, 0
1495, 1, 0.78125, 0.0625
1496, 0.5, 0.8125, 0.0625
1497, 0, 0.78125, 0.0625
1498, 1, 0.8125, 0.03125
1499, 0, 0.8125, 0.03125
1500, 1, 0.8125, 0.125
1501, 0, 0.8125, 0.125
1502, 1, 0.78125, 0.125
1503, 0.5, 0.8125, 0.125
1504, 0, 0.78125, 0.125
1505, 1, 0.8125, 0.09375
1506, 0, 0.8125, 0.09375
1507, 1, 0.8125, 0.1875
1508, 0, 0.8125, 0.1875
1509, 1, 0.78125, 0.1875
1510, 0.5, 0.8125, 0.1875
1511, 0, 0.78125, 0.1875
1512, 1, 0.8125, 0.15625
1513, 0, 0.8125, 0.15625
1514, 1, 0.8125, 0.25
1515, 0, 0.8125, 0.25
1516, 1, 0.78125, 0.25
1517, 0.5, 0.8125, 0.25
1518, 0, 0.78125, 0.25
1519, 1, 0.8125, 0.21875
1520, 0, 0.8125, 0.21875
1521, 1, 0.8125, 0.3125
1522, 0, 0.8125, 0.3125
1523, 1, 0.78125, 0.3125
1524, 0.5, 0.8125, 0.3125
1525, 0, 0.78125, 0.3125
1526, 1, 0.8125, 0.28125
1527, 0, 0.8125, 0.28125
1528, 1, 0.8125, 0.375
1529, 0, 0.8125, 0.375
1530, 1, 0.78125, 0.375
1531, 0.5, 0.8125, 0.375
1532, 0, 0.78125, 0.375
1533, 1, 0.8125, 0.34375
1534, 0, 0.8125, 0.34375
1535, 1, 0.8125, 0.4375
1536, 0, 0.8125, 0.4375
1537, 1, 0.78125, 0.4375
1538, 0.5, 0.8125, 0.4375
1539, 0, 0.78125, 0.4375
1540, 1, 0.8125, 0.40625
1541, 0, 0.8125, 0.40625
1542, 1, 0.8125, 0.5
1543, 0, 0.8125, 0.5
1544, 1, 0.78125, 0.5
1545, 0.5, 0.8125, 0.5
1546, 0, 0.78125, 0.5
1547, 1, 0.8125, 0.46875
1548, 0, 0.8125, 0.46875
1549, 1, 0.8125, 0.5625
1550, 0, 0.8125, 0.5625
1551, 1, 0.78125, 0.5625
1552, 0.5, 0.8125, 0.5625
1553, 0, 0.78125, 0.5625
1554, 1, 0.8125, 0.53125
1555, 0, 0.8125, 0.53125
1556, 1, 0.8125, 0.625
1557, 0, 0.8125, 0.625
1558, 1, 0.78125, 0.625
1559, 0.5, 0.8125, 0.625
1560, 0, 0.78125, 0.625
1561, 1, 0.8125, 0.59375
1562, 0, 0.8125, 0.59375
1563, 1, 0.8125, 0.6875
1564, 0, 0.8125, 0.6875
1565, 1, 0.78125, 0.6875
1566, 0.5, 0.8125, 0.6875
1567, 0, 0.78125, 0.6875
1568, 1, 0.8125, 0.65625
1569, 0, 0.8125, 0.65625
1570, 1, 0.8125, 0.75
1571, 0, 0.8125, 0.75
1572, 1, 0.78125, 0.75
1573, 0.5, 0.8125, 0.75
1574, 0, 0.78125, 0.75
1575, 1, 0.8125, 0.71875
1576, 0, 0.8125, 0.71875
1577, 1, 0.8125, 0.8125
1578, 0, 0.8125, 0.8125
1579, 1, 0.78125, 0.8125
1580, 0.5, 0.8125, 0.8125
1581, 0, 0.78125, 0.8125
1582, 1, 0.8125, 0.78125
1583, 0, 0.8125, 0.78125
1584, 1, 0.8125, 0.875
1585, 0, 0.8125, 0.875
1586, 1, 0.78125, 0.875
1587, 0.5, 0.8125, 0.875
1588, 0, 0.78125, 0.875
1589, 1, 0.8125, 0.84375
1590, 0, 0.8125, 0.84375
1591, 1, 0.8125, 0.9375
1592, 0, 0.8125, 0.9375
1593, 1, 0.78125, 0.9375
1594, 0.5, 0.8125, 0.9375
1595, 0, 0.78125, 0.9375
1596, 1, 0.8125, 0.90625
1597, 0, 0.8125, 0.90625
1598, 1, 0.8125, 1
1599, 0, 0.8125, 1
1600, 1, 0.78125, 1
1601, 0.5, 0.8125, 1
1602, 0, 0.78125, 1
1603, 1, 0.8125, 0.96875
1604, 0, 0.8125, 0.96875
1605, 1, 0.875, 0
1606, 0, 0.875, 0
1607, 1, 0.875, 0.0625
1608, 0, 0.875, 0.0625
1609, 1, 0.84375, 0
1610, 0.5, 0.875, 0
1611, 0, 0.84375, 0
1612, 1, 0.84375, 0.0625
1613, 0.5, 0.875, 0.0625
1614, 0, 0.84375, 0.0625
1615, 1, 0.875, 0.03125
1616, 0, 0.875, 0.03125
1617, 1, 0.875, 0.125
1618, 0, 0.875, 0.125
1619, 1, 0.84375, 0.125
1620, 0.5, 0.875, 0.125
1621, 0, 0.84375, 0.125
1622, 1, 0.875, 0.09375
1623, 0, 0.875, 0.09375
1624, 1, 0.875, 0.1875
1625, 0, 0.875, 0.1875
1626, 1, 0.84375, 0.1875
1627, 0.5, 0.875, 0.1875
1628, 0, 0.84375, 0.1875
1629, 1, 0.875, 0.15625
1630, 0, 0.875, 0.15625
1631, 1, 0.875, 0.25
1632, 0, 0.875, 0.25
1633, 1, 0.84375, 0.25
1634, 0.5, 0.875, 0.25
1635, 0, 0.84375, 0.25
1636, 1, 0.875, 0.21875
1637, 0, 0.875, 0.21875
1638, 1, 0.875, 0.3125
1639, 0, 0.875, 0.3125
1640, 1, 0.84375, 0.3125
1641, 0.5, 0.875, 0.3125
1642, 0, 0.84375, 0.3125
1643, 1, 0.875, 0.28125
1644, 0, 0.875, 0.28125
1645, 1, 0.875, 0.375
1646, 0, 0.875, 0.375
1647, 1, 0.84375, 0.375
1648, 0.5, 0.875, 0.375
1649, 0, 0.84375, 0.375
1650, 1, 0.875, 0.34375
1651, 0, 0.875, 0.34375
1652, 1, 0.875, 0.4375
1653, 0, 0.875, 0.4375
1654, 1, 0.84375, 0.4375
1655, 0.5, 0.875, 0.4375
1656, 0, 0.84375, 0.4375
1657, 1, 0.875, 0.40625
1658, 0, 0.875, 0.40625
1659, 1, 0.875, 0.5
1660, 0, 0.875, 0.5
1661, 1, 0.84375, 0.5
1662, 0.5, 0.875, 0.5
1663, 0, 0.84375, 0.5
1664, 1, 0.875, 0.46875
1665, 0, 0.875, 0.46875
1666, 1, 0.875, 0.5625
1667, 0, 0.875, 0.5625
1668, 1, 0.84375, 0.5625
1669, 0.5, 0.875, 0.5625
1670, 0, 0.84375, 0.5625
1671, 1, 0.875, 0.53125
1672, 0, 0.875, 0.53125
1673, 1, 0.875, 0.625
1674, 0, 0.875, 0.625
1675, 1, 0.84375, 0.625
1676, 0.5, 0.875, 0.625
1677, 0, 0.84375, 0.625
1678, 1, 0.875, 0.59375
1679, 0, 0.875, 0.59375
1680, 1, 0.875, 0.6875
1681, 0, 0.875, 0.6875
1682, 1, 0.84375, 0.6875
1683, 0.5, 0.875, 0.6875
1684, 0, 0.84375, 0.6875
1685, 1, 0.875, 0.65625
1686, 0, 0.875, 0.65625
1687, 1, 0.875, 0.75
1688, 0, 0.875, 0.75
1689, 1, 0.84375, 0.75
1690, 0.5, 0.875, 0.75
1691, 0, 0.84375, 0.75
1692, 1, 0.875, 0.71875
1693, 0, 0.875, 0.71875
1694, 1, 0.875, 0.8125
1695, 0, 0.875, 0.8125
1696, 1, 0.84375, 0.8125
1697, 0.5, 0.875, 0.8125
1698, 0, 0.84375, 0.8125
1699, 1, 0.875, 0.78125
1700, 0, 0.875, 0.78125
1701, 1, 0.875, 0.875
1702, 0, 0.875, 0.875
1703, 1, 0.84375, 0.875
1704, 0.5, 0.875, 0.875
1705, 0, 0.84375, 0.875
1706, 1, 0.875, 0.84375
1707, 0, 0.875, 0.84375
1708, 1, 0.875, 0.9375
1709, 0, 0.875, 0.9375
1710, 1, 0.84375, 0.9375
1711, 0.5, 0.875, 0.9375
1712, 0, 0.84375, 0.9375
1713, 1, 0.875, 0.90625
1714, 0, 0.875, 0.90625
1715, 1, 0.875, 1
1716, 0, 0.875, 1
1717, 1, 0.84375, 1
1718, 0.5, 0.875, 1
1719, 0, 0.84375, 1
1720, 1, 0.875, 0.96875
1721, 0, 0.875, 0.96875
1722, 1, 0.9375, 0
1723, 0, 0.9375, 0
1724, 1, 0.9375, 0.0625
1725, 0, 0.9375, 0.0625
1726, 1, 0.90625, 0
1727, 0.5, 0.9375, 0
1728, 0, 0.90625, 0
1729, 1, 0.90625, 0.0625
1730, 0.5, 0.9375, 0.0625
1731, 0, 0.90625, 0.0625
1732, 1, 0.9375, 0.03125
1733, 0, 0.9375, 0.03125
1734, 1, 0.9375, 0.125
1735, 0, 0.9375, 0.125
1736, 1, 0.90625, 0.125
1737, 0.5, 0.9375, 0.125
1738, 0, 0.90625, 0.125
1739, 1, 0.9375, 0.09375
1740, 0, 0.9375, 0.09375
1741, 1, 0.9375, 0.1875
1742, 0, 0.9375, 0.1875
1743, 1, 0.90625, 0.1875
1744, 0.5, 0.9375, 0.1875
1745, 0, 0.90625, 0.1875
1746, 1, 0.9375, 0.15625
1747, 0, 0.9375, 0.15625
1748, 1, 0.9375, 0.25
1749, 0, 0.9375, 0.25
1750, 1, 0.90625, 0.25
1751, 0.5, 0.9375, 0.25
1752, 0, 0.90625, 0.25
1753, 1, 0.9375, 0.21875
1754, 0, 0.9375, 0.21875
1755, 1, 0.9375, 0.3125
1756, 0, 0.9375, 0.3125
1757, 1, 0.90625, 0.3125
1758, 0.5, 0.9375, 0.3125
1759, 0, 0.90625, 0.3125
1760, 1, 0.9375, 0.28125
1761, 0, 0.9375, 0.28125
1762, 1, 0.9375, 0.375
1763, 0, 0.9375, 0.375
1764, 1, 0.90625, 0.375
1765, 0.5, 0.9375, 0.375
1766, 0, 0.90625, 0.375
1767, 1, 0.9375, 0.34375
1768, 0, 0.9375, 0.34375
1769, 1, 0.9375, 0.4375
1770, 0, 0.9375, 0.4375
1771, 1, 0.90625, 0.4375
1772, 0.5, 0.9375, 0.4375
1773, 0, 0.90625, 0.4375
1774, 1, 0.9375, 0.40625
1775, 0, 0.9375, 0.40625
1776, 1, 0.9375, 0.5
1777, 0, 0.9375, 0.5
1778, 1, 0.90625, 0.5
1779, 0.5, 0.9375, 0.5
1780, 0, 0.90625, 0.5
1781, 1, 0.9375, 0.46875
1782, 0, 0.9375, 0.46875
1783, 1, 0.9375, 0.5625
1784, 0, 0.9375, 0.5625
1785, 1, 0.90625, 0.5625
1786, 0.5, 0.9375, 0.5625
1787, 0, 0.90625, 0.5625
1788, 1, 0.9375, 0.53125
1789, 0, 0.9375, 0.53125
1790, 1, 0.9375, 0.625
1791, 0, 0.9375, 0.625
1792, 1, 0.90625, 0.625
1793, 0.5, 0.9375, 0.625
1794, 0, 0.90625, 0.625
1795, 1, 0.9375, 0.59375
1796, 0, 0.9375, 0.59375
1797, 1, 0.9375, 0.6875
1798, 0, 0.9375, 0.6875
1799, 1, 0.90625, 0.6875
1800, 0.5, 0.9375, 0.6875
1801, 0, 0.90625, 0.6875
1802, 1, 0.9375, 0.65625
1803, 0, 0.9375, 0.65625
1804, 1, 0.9375, 0.75
1805, 0, 0.9375, 0.75
1806, 1, 0.90625, 0.75
1807, 0.5, 0.9375, 0.75
1808, 0, 0.90625, 0.75
1809, 1, 0.9375, 0.71875
1810, 0, 0.9375, 0.71875
1811, 1, 0.9375, 0.8125
1812, 0, 0.9375, 0.8125
1813, 1, 0.90625, 0.8125
1814, 0.5, 0.9375, 0.8125
1815, 0, 0.90625, 0.8125
1816, 1, 0.9375, 0.78125
1817, 0, 0.9375, 0.78125
1818, 1, 0.9375, 0.875
1819, 0, 0.9375, 0.875
1820, 1, 0.90625, 0.875
1821, 0.5, 0.9375, 0.875
1822, 0, 0.90625, 0.875
1823, 1, 0.9375, 0.84375
1824, 0, 0.9375, 0.84375
1825, 1, 0.9375, 0.9375
1826, 0, 0.9375, 0.9375
1827, 1, 0.90625, 0.9375
1828, 0.5, 0.9375, 0.9375
1829, 0, 0.90625, 0.9375
1830, 1, 0.9375, 0.90625
1831, 0, 0.9375, 0.90625
1832, 1, 0.9375, 1
1833, 0, 0.9375, 1
1834, 1, 0.90625, 1
1835, 0.5, 0.9375, 1
1836, 0, 0.90625, 1
1837, 1, 0.9375, 0.96875
1838, 0, 0.9375, 0.96875
1839, 1, 1, 0
1840, 0, 1, 0
1841, 1, 1, 0.0625
1842, 0, 1, 0.0625
1843, 1, 0.96875, 0
1844, 0.5, 1, 0
1845, 0, 0.96875, 0
1846, 1, 0.96875, 0.0625
1847, 0.5, 1, 0.0625
1848, 0, 0.96875, 0.0625
1849, 1, 1, 0.03125
1850, 0, 1, 0.03125
1851, 1, 1, 0.125
1852, 0, 1, 0.125
1853, 1, 0.96875, 0.125
1854, 0.5, 1, 0.125
1855, 0, 0.96875, 0.125
1856, 1, 1, 0.09375
1857, 0, 1, 0.09375
1858, 1, 1, 0.1875
1859, 0, 1, 0.1875
1860, 1, 0.96875, 0.1875
1861, 0.5, 1, 0.1875
1862, 0, 0.96875, 0.1875
1863, 1, 1, 0.15625
1864, 0, 1, 0.15625
1865, 1, 1, 0.25
1866, 0, 1, 0.25
1867, 1, 0.96875, 0.25
1868, 0.5, 1, 0.25
1869, 0, 0.96875, 0.25
1870, 1, 1, 0.21875
1871, 0, 1, 0.21875
1872, 1, 1, 0.3125
1873, 0, 1, 0.3125
1874, 1, 0.96875, 0.3125
1875, 0.5, 1, 0.3125
1876, 0, 0.96875, 0.3125
1877, 1, 1, 0.28125
1878, 0, 1, 0.28125
1879, 1, 1, 0.375
1880, 0, 1, 0.375
1881, 1, 0.96875, 0.375
1882, 0.5, 1, 0.375
1883, 0, 0.96875, 0.375
1884, 1, 1, 0.34375
1885, 0, 1, 0.34375
1886, 1, 1, 0.4375
1887, 0, 1, 0.4375
1888, 1, 0.96875, 0.4375
1889, 0.5, 1, 0.4375
1890, 0, 0.96875, 0.4375
1891, 1, 1, 0.40625
1892, 0, 1, 0.40625
1893, 1, 1, 0.5
1894, 0, 1, 0.5
1895, 1, 0.96875, 0.5
1896, 0.5, 1, 0.5
1897, 0, 0.96875, 0.5
1898, 1, 1, 0.46875
1899, 0, 1, 0.46875
1900, 1, 1, 0.5625
1901, 0, 1, 0.5625
1902, 1, 0.96875, 0.5625
1903, 0.5, 1, 0.5625
1904, 0, 0.96875, 0.5625
1905, 1, 1, 0.53125
1906, 0, 1, 0.53125
1907, 1, 1, 0.625
1908, 0, 1, 0.625
1909, 1, 0.96875, 0.625
1910, 0.5, 1, 0.625
1911, 0, 0.96875, 0.625
1912, 1, 1, 0.59375
1913, 0, 1, 0.59375
1914, 1, 1, 0.6875
1915, 0, 1, 0.6875
1916, 1, 0.96875, 0.6875
1917, 0.5, 1, 0.6875
1918, 0, 0.96875, 0.6875
1919, 1, 1, 0.65625
1920, 0, 1, 0.65625
1921, 1, 1, 0.75
1922, 0, 1, 0.75
1923, 1, 0.96875, 0.75
1924, 0.5, 1, 0.75
1925, 0, 0.96875, 0.75
1926, 1, 1, 0.71875
1927, 0, 1, 0.71875
1928, 1, 1, 0.8125
1929, 0, 1, 0.8125
1930, 1, 0.96875, 0.8125
1931, 0.5, 1, 0.8125
1932, 0, 0.96875, 0.8125
1933, 1, 1, 0.78125
1934, 0, 1, 0.78125
1935, 1, 1, 0.875
1936, 0, 1, 0.875
1937, 1, 0.96875, 0.875
1938, 0.5, 1, 0.875
1939, 0, 0.96875, 0.875
1940, 1, 1, 0.84375
1941, 0, 1, 0.84375
1942, 1, 1, 0.9375
1943, 0, 1, 0.9375
1944, 1, 0.96875, 0.9375
1945, 0.5, 1, 0.9375
1946, 0, 0.96875, 0.9375
1947, 1, 1, 0.90625
1948, 0, 1, 0.90625
1949, 1, 1, 1
1950, 0, 1, 1
1951, 1, 0.96875, 1
1952, 0.5, 1, 1
1953, 0, 0.96875, 1
1954, 1, 1, 0.96875
1955, 0, 1, 0.96875
1956, 1, 0, 0
1957, 2, 0, 0
1958, 2, 1, 0
1959, 1, 1, 0
1960, 1, 0, 1
1961, 2, 0, 1
1962, 2, 1, 1
1963, 1, 1, 1
1964, 1.5, 0, 0
1965, 2, 0.5, 0
1966, 1.5, 1, 0
1967, 1, 0.5, 0
1968, 1.5, 0, 1
1969, 2, 0.5, 1
1970, 1.5, 1, 1
1971, 1, 0.5, 1
1972, 1, 0, 0.5
1973, 2, 0, 0.5
1974, 2, 1, 0.5
1975, 1, 1, 0.5
*Element, type=C3D20, elset=PRIMARY
1, 1, 2, 3, 4, 5, 6, 7, 8, 9, 10, 11, 12, 13, 14, 15, 16, 17, 18, 19, 20
2, 5, 6, 7, 8, 21, 22, 23, 24, 13, 14, 15, 16, 25, 26, 27, 28, 29, 30, 31, 32
3, 21, 22, 23, 24, 33, 34, 35, 36, 25, 26, 27, 28, 37, 38, 39, 40, 41, 42, 43, 44
4, 33, 34, 35, 36, 45, 46, 47, 48, 37, 38, 39, 40, 49, 50, 51, 52, 53, 54, 55, 56
5, 45, 46, 47, 48, 57, 58, 59, 60, 49, 50, 51, 52, 61, 62, 63, 64, 65, 66, 67, 68
6, 57, 58, 59, 60, 69, 70, 71, 72, 61, 62, 63, 64, 73, 74, 75, 76, 77, 78, 79, 80
7, 69, 70, 71, 72, 81, 82, 83, 84, 73, 74, 75, 76, 85, 86, 87, 88, 89, 90, 91, 92
8, 81, 82, 83, 84, 93, 94, 95, 96, 85, 86, 87, 88, 97, 98, 99, 100, 101, 102, 103, 104
9, 93, 94, 95, 96, 105, 106, 107, 108, 97, 98, 99, 100, 109, 110, 111, 112, 113, 114, 115, 116
10, 105, 106, 107, 108, 117, 118, 119, 120, 109, 110, 111, 112, 121, 122, 123, 124, 125, 126, 127, 128
11, 117, 118, 119, 120, 129, 130, 131, 132, 121, 122, 123, 124, 133, 134, 135, 136, 137, 138, 139, 140
12, 129, 130, 131, 132, 141, 142, 143, 144, 133, 134, 135, 136, 145, 146, 147, 148, 149, 150, 151, 152
13, 141, 142, 143, 144, 153, 154, 155, 156, 145, 146, 147, 148, 157, 158, 159, 160, 161, 162, 163, 164
14, 153, 154, 155, 156, 165, 166, 167, 168, 157, 158, 159, 160, 169, 170, 171, 172, 173, 174, 175, 176
15, 165, 166, 167, 168, 177, 178, 179, 180, 169, 170, 171, 172, 181, 182, 183, 184, 185, 186, 187, 188
16, 177, 178, 179, 180, 189, 190, 191, 192, 181, 182, 183, 184, 193, 194, 195, 196, 197, 198, 199, 200
17, 4, 3, 201, 202, 8, 7, 203, 204, 11, 205, 206, 207, 15, 208, 209, 210, 20, 19, 211, 212
18, 8, 7, 203, 204, 24, 23, 213, 214, 15, 208, 209, 210, 27, 215, 216, 217, 32, 31, 218, 219
19, 24, 23, 213, 214, 36, 35, 220, 221, 27, 215, 216, 217, 39, 222, 223, 224, 44, 43, 225, 226
20, 36, 35, 220, 221, 48, 47, 227, 228, 39, 222, 223, 224, 51, 229, 230, 231, 56, 55, 232, 233
21, 48, 47, 227, 228, 60, 59, 234, 235, 51, 229, 230, 231, 63, 236, 237, 238, 68, 67, 239, 240
22, 60, 59, 234, 235, 72, 71, 241, 242, 63, 236, 237, 238, 75, 243, 244, 245, 80, 79, 246, 247
23, 72, 71, 241, 242, 84, 83, 248, 249, 75, 243, 244, 245, 87, 250, 251, 252, 92, 91, 253, 254
24, 84, 83, 248, 249, 96, 95, 255, 256, 87, 250, 251, 252, 99, 257, 258, 259, 104, 103, 260, 261
25, 96, 95, 255, 256, 108, 107, 262, 263, 99, 257, 258, 259, 111, 264, 265, 266, 116, 115, 267, 268
26, 108, 107, 262, 263, 120, 119, 269, 270, 111, 264, 265, 266, 123, 271, 272, 273, 128, 127, 274, 275
27, 120, 119, 269, 270, 132, 131, 276, 277, 123, 271, 272, 273, 135, 278, 279, 280, 140, 139, 281, 282
28, 132, 131, 276, 277, 144, 143, 283, 284, 135, 278, 279, 280, 147, 285, 286, 287, 152, 151, 288, 289
29, 144, 143, 283, 284, 156, 155, 290, 291, 147, 285, 286, 287, 159, 292, 293, 294, 164, 163, 295, 296
30, 156, 155, 290, 291, 168, 167, 297, 298, 159, 292, 293, 294, 171, 299, 300, 301, 176, 175, 302, 303
31, 168, 167, 297, 298, 180, 179, 304, 305, 171, 299, 300, 301, 183, 306, 307, 308, 188, 187, 309, 310
32, 180, 179, 304, 305, 192, 191, 311, 312, 183, 306, 307, 308, 195, 313, 314, 315, 200, 199, 316, 317
33, 202, 201, 318, 319, 204, 203, 320, 321, 206, 322, 323, 324, 209, 325, 326, 327, 212, 211, 328, 329
34, 204, 203, 320, 321, 214, 213, 330, 331, 209, 325, 326, 327, 216, 332, 333, 334, 219, 218, 335, 336
35, 214, 213, 330, 331, 221, 220, 337, 338, 216, 332, 333, 334, 223, 339, 340, 341, 226, 225, 342, 343
36, 221, 220, 337, 338, 228, 227, 344, 345, 223, 339, 340, 341, 230, 346, 347, 348, 233, 232, 349, 350
37, 228, 227, 344, 345, 235, 234, 351, 352, 230, 346, 347, 348, 237, 353, 354, 355, 240, 239, 356, 357
38, 235, 234, 351, 352, 242, 241, 358, 359, 237, 353, 354, 355, 244, 360, 361, 362, 247, 246, 363, 364
39, 242, 241, 358, 359, 249, 248, 365, 366, 244, 360, 361, 362, 251, 367, 368, 369, 254, 253, 370, 371
40, 249, 248, 365, 366, 256, 255, 372, 373, 251, 367, 368, 369, 258, 374, 375, 376, 261, 260, 377, 378
41, 256, 255, 372, 373, 263, 262, 379, 380, 258, 374, 375, 376, 265, 381, 382, 383, 268, 267, 384, 385
42, 263, 262, 379, 380, 270, 269, 386, 387, 265, 381, 382, 383, 272, 388, 389, 390, 275, 274, 391, 392
43, 270, 269, 386, 387, 277, 276, 393, 394, 272, 388, 389, 390, 279, 395, 396, 397, 282, 281, 398, 399
44, 277, 276, 393, 394, 284, 283, 400, 401, 279, 395, 396, 397, 286, 402, 403, 404, 289, 288, 405, 406
45, 284, 283, 400, 401, 291, 290, 407, 408, 286, 402, 403, 404, 293, 409, 410, 411, 296, 295, 412, 413
46, 291, 290, 407, 408, 298, 297, 414, 415, 293, 409, 410, 411, 300, 416, 417, 418, 303, 302, 419, 420
47, 298, 297, 414, 415, 305, 304, 421, 422, 300, 416, 417, 418, 307, 423, 424, 425, 310, 309, 426, 427
48, 305, 304, 421, 422, 312, 311, 428, 429, 307, 423, 424, 425, 314, 430, 431, 432, 317, 316, 433, 434
49, 319, 318, 435, 436, 321, 320, 437, 438, 323, 439, 440, 441, 326, 442, 443, 444, 329, 328, 445, 446
50, 321, 320, 437, 438, 331, 330, 447, 448, 326, 442, 443, 444, 333, 449, 450, 451, 336, 335, 452, 453
51, 331, 330, 447, 448, 338, 337, 454, 455, 333, 449, 450, 451, 340, 456, 457, 458, 343, 342, 459, 460
52, 338, 337, 454, 455, 345, 344, 461, 462, 340, 456, 457, 458, 347, 463, 464, 465, 350, 349, 466, 467
53, 345, 344, 461, 462, 352, 351, 468, 469, 347, 463, 464, 465, 354, 470, 471, 472, 357, 356, 473, 474
54, 352, 351, 468, 469, 359, 358, 475, 476, 354, 470, 471, 472, 361, 477, 478, 479, 364, 363, 480, 481
55, 359, 358, 475, 476, 366, 365, 482, 483, 361, 477, 478, 479, 368, 484, 485, 486, 371, 370, 487, 488
56, 366, 365, 482, 483, 373, 372, 489, 490, 368, 484, 485, 486, 375, 491, 492, 493, 378, 377, 494, 495
57, 373, 372, 489, 490, 380, 379, 496, 497, 375, 491, 492, 493, 382, 498, 499, 500, 385, 384, 501, 502
58, 380, 379, 496, 497, 387, 386, 503, 504, 382, 498, 499, 500, 389, 505, 506, 507, 392, 391, 508, 509
59, 387, 386, 503, 504, 394, 393, 510, 511, 389, 505, 506, 507, 396, 512, 513, 514, 399, 398, 515, 516
60, 394, 393, 510, 511, 401, 400, 517, 518, 396, 512, 513, 514, 403, 519, 520, 521, 406, 405, 522, 523
61, 401, 400, 517, 518, 408, 407, 524, 525, 403, 519, 520, 521, 410, 526, 527, 528, 413, 412, 529, 530
62, 408, 407, 524, 525, 415, 414, 531, 532, 410, 526, 527, 528, 417, 533, 534, 535, 420, 419, 536, 537
63, 415, 414, 531, 532, 422, 421, 538, 539, 417, 533, 534, 535, 424, 540, 541, 542, 427, 426, 543, 544
64, 422, 421, 538, 539, 429, 428, 545, 546, 424, 540, 541, 542, 431, 547, 548, 549, 434, 433, 550, 551
65, 436, 435, 552, 553, 438, 437, 554, 555, 440, 556, 557, 558, 443, 559, 560, 561, 446, 445, 562, 563
66, 438, 437, 554, 555, 448, 447, 564, 565, 443, 559, 560, 561, 450, 566, 567, 568, 453, 452, 569, 570
67, 448, 447, 564, 565, 455, 454, 571, 572, 450, 566, 567, 568, 457, 573, 574, 575, 460, 459, 576, 577
68, 455, 454, 571, 572, 462, 461, 578, 579, 457, 573, 574, 575, 464, 580, 581, 582, 467, 466, 583, 584
69, 462, 461, 578, 579, 469, 468, 585, 586, 464, 580, 581, 582, 471, 587, 588, 589, 474, 473, 590, 591
70, 469, 468, 585, 586, 476, 475, 592, 593, 471, 587, 588, 589, 478, 594, 595, 596, 481, 480, 597, 598
71, 476, 475, 592, 593, 483, 482, 599, 600, 478, 594, 595, 596, 485, 601, 602, 603, 488, 487, 604, 605
72, 483, 482, 599, 600, 490, 489, 606, 607, 485, 601, 602, 603, 492, 608, 609, 610, 495, 494, 611, 612
73, 490, 489, 606, 607, 497, 496, 613, 614, 492, 608, 609, 610, 499, 615, 616, 617, 502, 501, 618, 619
74, 497, 496, 613, 614, 504, 503, 620, 621, 499, 615, 616, 617, 506, 622, 623, 624, 509, 508, 625, 626
75, 504, 503, 620, 621, 511, 510, 627, 628, 506, 622, 623, 624, 513, 629, 630, 631, 516, 515, 632, 633
76, 511, 510, 627, 628, 518, 517, 634, 635, 513, 629, 630, 631, 520, 636, 637, 638, 523, 522, 639, 640
77, 518, 517, 634, 635, 525, 524, 641, 642, 520, 636, 637, 638, 527, 643, 644, 645, 530, 529, 646, 647
78, 525, 524, 641, 642, 532, 531, 648, 649, 527, 643, 644, 645, 534, 650, 651, 652, 537, 536, 653, 654
79, 532, 531, 648, 649, 539, 538, 655, 656, 534, 650, 651, 652, 541, 657, 658, 659, 544, 543, 660, 661
80, 539, 538, 655, 656, 546, 545, 662, 663, 541, 657, 658, 659, 548, 664, 665, 666, 551, 550, 667, 668
81, 553, 552, 669, 670, 555, 554, 671, 672, 557, 673, 674, 675, 560, 676, 677, 678, 563, 562, 679, 680
82, 555, 554, 671, 672, 565, 564, 681, 682, 560, 676, 677, 678, 567, 683, 684, 685, 570, 569, 686, 687
83, 565, 564, 681, 682, 572, 571, 688, 689, 567, 683, 684, 685, 574, 690, 691, 692, 577, 576, 693, 694
84, 572, 571, 688, 689, 579, 578, 695, 696, 574, 690, 691, 692, 581, 697, 698, 699, 584, 583, 700, 701
85, 579, 578, 695, 696, 586, 585, 702, 703, 581, 697, 698, 699, 588, 704, 705, 706, 591, 590, 707, 708
86, 586, 585, 702, 703, 593, 592, 709, 710, 588, 704, 705, 706, 595, 711, 712, 713, 598, 597, 714, 715
87, 593, 592, 709, 710, 600, 599, 716, 717, 595, 711, 712, 713, 602, 718, 719, 720, 605, 604, 721, 722
88, 600, 599, 716, 717, 607, 606, 723, 724, 602, 718, 719, 720, 609, 725, 726, 727, 612, 611, 728, 729
89, 607, 606, 723, 724, 614, 613, 730, 731, 609, 725, 726, 727, 616, 732, 733, 734, 619, 618, 735, 736
90, 614, 613, 730, 731, 621, 620, 737, 738, 616, 732, 733, 734, 623, 739, 740, 741, 626, 625, 742, 743
91, 621, 620, 737, 738, 628, 627, 744, 745, 623, 739, 740, 741, 630, 746, 747, 748, 633, 632, 749, 750
92, 628, 627, 744, 745, 635, 634, 751, 752, 630, 746, 747, 748, 637, 753, 754, 755, 640, 639, 756, 757
93, 635, 634, 751, 752, 642, 641, 758, 759, 637, 753, 754, 755, 644, 760, 761, 762, 647, 646, 763, 764
94, 642, 641, 758, 759, 649, 648, 765, 766, 644, 760, 761, 762, 651, 767, 768, 769, 654, 653, 770, 771
95, 649, 648, 765, 766, 656, 655, 772, 773, 651, 767, 768, 769, 658, 774, 775, 776, 661, 660, 777, 778
96, 656, 655, 772, 773, 663, 662, 779, 780, 658, 774, 775, 776, 665, 781, 782, 783, 668, 667, 784, 785
97, 670, 669, 786, 787, 672, 671, 788, 789, 674, 790, 791, 792, 677, 793, 794, 795, 680, 679, 796, 797
98, 672, 671, 788, 789, 682, 681, 798, 799, 677, 793, 794, 795, 684, 800, 801, 802, 687, 686, 803, 804
99, 682, 681, 798, 799, 689, 688, 805, 806, 684, 800, 801, 802, 691, 807, 808, 809, 694, 693, 810, 811
100, 689, 688, 805, 806, 696, 695, 812, 813, 691, 807, 808, 809, 698, 814, 815, 816, 701, 700, 817, 818
101, 696, 695, 812, 813, 703, 702, 819, 820, 698, 814, 815, 816, 705, 821, 822, 823, 708, 707, 824, 825
102, 703, 702, 819, 820, 710, 709, 826, 827, 705, 821, 822, 823, 712, 828, 829, 830, 715, 714, 831, 832
103, 710, 709, 826, 827, 717, 716, 833, 834, 712, 828, 829, 830, 719, 835, 836, 837, 722, 721, 838, 839
104, 717, 716, 833, 834, 724, 723, 840, 841, 719, 835, 836, 837, 726, 842, 843, 844, 729, 728, 845, 846
105, 724, 723, 840, 841, 731, 730, 847, 848, 726, 842, 843, 844, 733, 849, 850, 851, 736, 735, 852, 853
106, 731, 730, 847, 848, 738, 737, 854, 855, 733, 849, 850, 851, 740, 856, 857, 858, 743, 742, 859, 860
107, 738, 737, 854, 855, 745, 744, 861, 862, 740, 856, 857, 858, 747, 863, 864, 865, 750, 749, 866, 867
108, 745, 744, 861, 862, 752, 751, 868, 869, 747, 863, 864, 865, 754, 870, 871, 872, 757, 756, 873, 874
109, 752, 751, 868, 869, 759, 758, 875, 876, 754, 870, 871, 872, 761, 877, 878, 879, 764, 763, 880, 881
110, 759, 758, 875, 876, 766, 765, 882, 883, 761, 877, 878, 879, 768, 884, 885, 886, 771, 770, 887, 888
111, 766, 765, 882, 883, 773, 772, 889, 890, 768, 884, 885, 886, 775, 891, 892, 893, 778, 777, 894, 895
112, 773, 772, 889, 890, 780, 779, 896, 897, 775, 891, 892, 893, 782, 898, 899, 900, 785, 784, 901, 902
113, 787, 786, 903, 904, 789, 788, 905, 906, 791, 907, 908, 909, 794, 910, 911, 912, 797, 796, 913, 914
114, 789, 788, 905, 906, 799, 798, 915, 916, 794, 910, 911, 912, 801, 917, 918, 919, 804, 803, 920, 921
115, 799, 798, 915, 916, 806, 805, 922, 923, 801, 917, 918, 919, 808, 924, 925, 926, 811, 810, 927, 928
116, 806, 805, 922, 923, 813, 812, 929, 930, 808, 924, 925, 926, 815, 931, 932, 933, 818, 817, 934, 935
117, 813, 812, 929, 930, 820, 819, 936, 937, 815, 931, 932, 933, 822, 938, 939, 940, 825, 824, 941, 942
118, 820, 819, 936, 937, 827, 826, 943, 944, 822, 938, 939, 940, 829, 945, 946, 947, 832, 831, 948, 949
119, 827, 826, 943, 944, 834, 833, 950, 951, 829, 945, 946, 947, 836, 952, 953, 954, 839, 838, 955, 956
120, 834, 833, 950, 951, 841, 840, 957, 958, 836, 952, 953, 954, 843, 959, 960, 961, 846, 845, 962, 963
121, 841, 840, 957, 958, 848, 847, 964, 965, 843, 959, 960, 961, 850, 966, 967, 968, 853, 852, 969, 970
122, 848, 847, 964, 965, 855, 854, 971, 972, 850, 966, 967, 968, 857, 973, 974, 975, 860, 859, 976, 977
123, 855, 854, 971, 972, 862, 861, 978, 979, 857, 973, 974, 975, 864, 980, 981, 982, 867, 866, 983, 984
124, 862, 861, 978, 979, 869, 868, 985, 986, 864, 980, 981, 982, 871, 987, 988, 989, 874, 873, 990, 991
125, 869, 868, 985, 986, 876, 875, 992, 993, 871, 987, 988, 989, 878, 994, 995, 996, 881, 880, 997, 998
126, 876, 875, 992, 993, 883, 882, 999, 1000, 878, 994, 995, 996, 885, 1001, 1002, 1003, 888, 887, 1004, 1005
127, 883, 882, 999, 1000, 890, 889, 1006, 1007, 885, 1001, 1002, 1003, 892, 1008, 1009, 1010, 895, 894, 1011, 1012
128, 890, 889, 1006, 1007, 897, 896, 1013, 1014, 892, 1008, 1009, 1010, 899, 1015, 1016, 1017, 902, 901, 1018, 1019
129, 904, 903, 1020, 1021, 906, 905, 1022, 1023, 908, 1024, 1025, 1026, 911, 1027, 1028, 1029, 914, 913, 1030, 1031
130, 906, 905, 1022, 1023, 916, 915, 1032, 1033, 911, 1027, 1028, 1029, 918, 1034, 1035, 1036, 921, 920, 1037, 1038
131, 916, 915, 1032, 1033, 923, 922, 1039, 1040, 918, 1034, 1035, 1036, 925, 1041, 1042, 1043, 928, 927, 1044, 1045
132, 923, 922, 1039, 1040, 930, 929, 1046, 1047, 925, 1041, 1042, 1043, 932, 1048, 1049, 1050, 935, 934, 1051, 1052
133, 930, 929, 1046, 1047, 937, 936, 1053, 1054, 932, 1048, 1049, 1050, 939, 1055, 1056, 1057, 942, 941, 1058, 1059
134, 937, 936, 1053, 1054, 944, 943, 1060, 1061, 939, 1055, 1056, 1057, 946, 1062, 1063, 1064, 949, 948, 1065, 1066
135, 944, 943, 1060, 1061, 951, 950, 1067, 1068, 946, 1062, 1063, 1064, 953, 1069, 1070, 1071, 956, 955, 1072, 1073
136, 951, 950, 1067, 1068, 958, 957, 1074, 1075, 953, 1069, 1070, 1071, 960, 1076, 1077, 1078, 963, 962, 1079, 1080
137, 958, 957, 1074, 1075, 965, 964, 1081, 1082, 960, 1076, 1077, 1078, 967, 1083, 1084, 1085, 970, 969, 1086, 1087
138, 965, 964, 1081, 1082, 972, 971, 1088, 1089, 967, 1083, 1084, 1085, 974, 1090, 1091, 1092, 977, 976, 1093, 1094
139, 972, 971, 1088, 1089, 979, 978, 1095, 1096, 974, 1090, 1091, 1092, 981, 1097, 1098, 1099, 984, 983, 1100, 1101
140, 979, 978, 1095, 1096, 986, 985, 1102, 1103, 981, 1097, 1098, 1099, 988, 1104, 1105, 1106, 991, 990, 1107, 1108
141, 986, 985, 1102, 1103, 993, 992, 1109, 1110, 988, 1104, 1105, 1106, 995, 1111, 1112, 1113, 998, 997, 1114, 1115
142, 993, 992, 1109, 1110, 1000, 999, 1116, 1117, 995, 1111, 1112, 1113, 1002, 1118, 1119, 1120, 1005, 1004, 1121, 1122
143, 1000, 999, 1116, 1117, 1007, 1006, 1123, 1124, 1002, 1118, 1119, 1120, 1009, 1125, 1126, 1127, 1012, 1011, 1128, 1129
144, 1007, 1006, 1123, 1124, 1014, 1013, 1130, 1131, 1009, 1125, 1126, 1127, 1016, 1132, 1133, 1134, 1019, 1018, 1135, 1136
145, 1021, 1020, 1137, 1138, 1023, 1022, 1139, 1140, 1025, 1141, 1142, 1143, 1028, 1144, 1145, 1146, 1031, 1030, 1147, 1148
146, 1023, 1022, 1139, 1140, 1033, 1032, 1149, 1150, 1028, 1144, 1145, 1146, 1035, 1151, 1152, 1153, 1038, 1037, 1154, 1155
147, 1033, 1032, 1149, 1150, 1040, 1039, 1156, 1157, 1035, 1151, 1152, 1153, 1042, 1158, 1159, 1160, 1045, 1044, 1161, 1162
148, 1040, 1039, 1156, 1157, 1047, 1046, 1163, 1164, 1042, 1158, 1159, 1160, 1049, 1165, 1166, 1167, 1052, 1051, 1168, 1169
149, 1047, 1046, 1163, 1164, 1054, 1053, 1170, 1171, 1049, 1165, 1166, 1167, 1056, 1172, 1173, 1174, 1059, 1058, 1175, 1176
150, 1054, 1053, 1170, 1171, 1061, 1060, 1177, 1178, 1056, 1172, 1173, 1174, 1063, 1179, 1180, 1181, 1066, 1065, 1182, 1183
151, 1061, 1060, 1177, 1178, 1068, 1067, 1184, 1185, 1063, 1179, 1180, 1181, 1070, 1186, 1187, 1188, 1073, 1072, 1189, 1190
152, 1068, 1067, 1184, 1185, 1075, 1074, 1191, 1192, 1070, 1186, 1187, 1188, 1077, 1193, 1194, 1195, 1080, 1079, 1196, 1197
153, 1075, 1074, 1191, 1192, 1082, 1081, 1198, 1199, 1077, 1193, 1194, 1195, 1084, 1200, 1201, 1202, 1087, 1086, 1203, 1204
154, 1082, 1081, 1198, 1199, 1089, 1088, 1205, 1206, 1084, 1200, 1201, 1202, 1091, 1207, 1208, 1209, 1094, 1093, 1210, 1211
155, 1089, 1088, 1205, 1206, 1096, 1095, 1212, 1213, 1091, 1207, 1208, 1209, 1098, 1214, 1215, 1216, 1101, 1100, 1217, 1218
156, 1096, 1095, 1212, 1213, 1103, 1102, 1219, 1220, 1098, 1214, 1215, 1216, 1105, 1221, 1222, 1223, 1108, 1107, 1224, 1225
157, 1103, 1102, 1219, 1220, 1110, 1109, 1226, 1227, 1105, 1221, 1222, 1223, 1112, 1228, 1229, 1230, 1115, 1114, 1231, 1232
158, 1110, 1109, 1226, 1227, 1117, 1116, 1233, 1234, 1112, 1228, 1229, 1230, 1119, 1235, 1236, 1237, 1122, 1121, 1238, 1239
159, 1117, 1116, 1233, 1234, 1124, 1123, 1240, 1241, 1119, 1235, 1236, 1237, 1126, 1242, 1243, 1244, 1129, 1128, 1245, 1246
160, 1124, 1123, 1240, 1241, 1131, 1130, 1247, 1248, 1126, 1242, 1243, 1244, 1133, 1249, 1250, 1251, 1136, 1135, 1252, 1253
161, 1138, 1137, 1254, 1255, 1140, 1139, 1256, 1257, 1142, 1258, 1259, 1260, 1145, 1261, 1262, 1263, 1148, 1147, 1264, 1265
162, 1140, 1139, 1256, 1257, 1150, 1149, 1266, 1267, 1145, 1261, 1262, 1263, 1152, 1268, 1269, 1270, 1155, 1154, 1271, 1272
163, 1150, 1149, 1266, 1267, 1157, 1156, 1273, 1274, 1152, 1268, 1269, 1270, 1159, 1275, 1276, 1277, 1162, 1161, 1278, 1279
164, 1157, 1156, 1273, 1274, 1164, 1163, 1280, 1281, 1159, 1275, 1276, 1277, 1166, 1282, 1283, 1284, 1169, 1168, 1285, 1286
165, 1164, 1163, 1280, 1281, 1171, 1170, 1287, 1288, 1166, 1282, 1283, 1284, 1173, 1289, 1290, 1291, 1176, 1175, 1292, 1293
166, 1171, 1170, 1287, 1288, 1178, 1177, 1294, 1295, 1173, 1289, 1290, 1291, 1180, 1296, 1297, 1298, 1183, 1182, 1299, 1300
167, 1178, 1177, 1294, 1295, 1185, 1184, 1301, 1302, 1180, 1296, 1297, 1298, 1187, 1303, 1304, 1305, 1190, 1189, 1306, 1307
168, 1185, 1184, 1301, 1302, 1192, 1191, 1308, 1309, 1187, 1303, 1304, 1305, 1194, 1310, 1311, 1312, 1197, 1196, 1313, 1314
169, 1192, 1191, 1308, 1309, 1199, 1198, 1315, 1316, 1194, 1310, 1311, 1312, 1201, 1317, 1318, 1319, 1204, 1203, 1320, 1321
170, 1199, 1198, 1315, 1316, 1206, 1205, 1322, 1323, 1201, 1317, 1318, 1319, 1208, 1324, 1325, 1326, 1211, 1210, 1327, 1328
171, 1206, 1205, 1322, 1323, 1213, 1212, 1329, 1330, 1208, 1324, 1325, 1326, 1215, 1331, 1332, 1333, 1218, 1217, 1334, 1335
172, 1213, 1212, 1329, 1330, 1220, 1219, 1336, 1337, 1215, 1331, 1332, 1333, 1222, 1338, 1339, 1340, 1225, 1224, 1341, 1342
173, 1220, 1219, 1336, 1337, 1227, 1226, 1343, 1344, 1222, 1338, 1339, 1340, 1229, 1345, 1346, 1347, 1232, 1231, 1348, 1349
174, 1227, 1226, 1343, 1344, 1234, 1233, 1350, 1351, 1229, 1345, 1346, 1347, 1236, 1352, 1353, 1354, 1239, 1238, 1355, 1356
175, 1234, 1233, 1350, 1351, 1241, 1240, 1357, 1358, 1236, 1352, 1353, 1354, 1243, 1359, 1360, 1361, 1246, 1245, 1362, 1363
176, 1241, 1240, 1357, 1358, 1248, 1247, 1364, 1365, 1243, 1359, 1360, 1361, 1250, 1366, 1367, 1368, 1253, 1252, 1369, 1370
177, 1255, 1254, 1371, 1372, 1257, 1256, 1373, 1374, 1259, 1375, 1376, 1377, 1262, 1378, 1379, 1380, 1265, 1264, 1381, 1382
178, 1257, 1256, 1373, 1374, 1267, 1266, 1383, 1384, 1262, 1378, 1379, 1380, 1269, 1385, 1386, 1387, 1272, 1271, 1388, 1389
179, 1267, 1266, 1383, 1384, 1274, 1273, 1390, 1391, 1269, 1385, 1386, 1387, 1276, 1392, 1393, 1394, 1279, 1278, 1395, 1396
180, 1274, 1273, 1390, 1391, 1281, 1280, 1397, 1398, 1276, 1392, 1393, 1394, 1283, 1399, 1400, 1401, 1286, 1285, 1402, 1403
181, 1281, 1280, 1397, 1398, 1288, 1287, 1404, 1405, 1283, 1399, 1400, 1401, 1290, 1406, 1407, 1408, 1293, 1292, 1409, 1410
182, 1288, 1287, 1404, 1405, 1295, 1294, 1411, 1412, 1290, 1406, 1407, 1408, 1297, 1413, 1414, 1415, 1300, 1299, 1416, 1417
183, 1295, 1294, 1411, 1412, 1302, 1301, 1418, 1419, 1297, 1413, 1414, 1415, 1304, 1420, 1421, 1422, 1307, 1306, 1423, 1424
184, 1302, 1301, 1418, 1419, 1309, 1308, 1425, 1426, 1304, 1420, 1421, 1422, 1311, 1427, 1428, 1429, 1314, 1313, 1430, 1431
185, 1309, 1308, 1425, 1426, 1316, 1315, 1432, 1433, 1311, 1427, 1428, 1429, 1318, 1434, 1435, 1436, 1321, 1320, 1437, 1438
186, 1316, 1315, 1432, 1433, 1323, 1322, 1439, 1440, 1318, 1434, 1435, 1436, 1325, 1441, 1442, 1443, 1328, 1327, 1444, 1445
187, 1323, 1322, 1439, 1440, 1330, 1329, 1446, 1447, 1325, 1441, 1442, 1443, 1332, 1448, 1449, 1450, 1335, 1334, 1451, 1452
188, 1330, 1329, 1446, 1447, 1337, 1336, 1453, 1454, 1332, 1448, 1449, 1450, 1339, 1455, 1456, 1457, 1342, 1341, 1458, 1459
189, 1337, 1336, 1453, 1454, 1344, 1343, 1460, 1461, 1339, 1455, 1456, 1457, 1346, 1462, 1463, 1464, 1349, 1348, 1465, 1466
190, 1344, 1343, 1460, 1461, 1351, 1350, 1467, 1468, 1346, 1462, 1463, 1464, 1353, 1469, 1470, 1471, 1356, 1355, 1472, 1473
191, 1351, 1350, 1467, 1468, 1358, 1357, 1474, 1475, 1353, 1469, 1470, 1471, 1360, 1476, 1477, 1478, 1363, 1362, 1479, 1480
192, 1358, 1357, 1474, 1475, 1365, 1364, 1481, 1482, 1360, 1476, 1477, 1478, 1367, 1483, 1484, 1485, 1370, 1369, 1486, 1487
193, 1372, 1371, 1488, 1489, 1374, 1373, 1490, 1491, 1376, 1492, 1493, 1494, 1379, 1495, 1496, 1497, 1382, 1381, 1498, 1499
194, 1374, 1373, 1490, 1491, 1384, 1383, 1500, 1501, 1379, 1495, 1496, 1497, 1386, 1502, 1503, 1504, 1389, 1388, 1505, 1506
195, 1384, 1383, 1500, 1501, 1391, 1390, 1507, 1508, 1386, 1502, 1503, 1504, 1393, 1509, 1510, 1511, 1396, 1395, 1512, 1513
196, 1391, 1390, 1507, 1508, 1398, 1397, 1514, 1515, 1393, 1509, 1510, 1511, 1400, 1516, 1517, 1518, 1403, 1402, 1519, 1520
197, 1398, 1397, 1514, 1515, 1405, 1404, 1521, 1522, 1400, 1516, 1517, 1518, 1407, 1523, 1524, 1525, 1410, 1409, 1526, 1527
198, 1405, 1404, 1521, 1522, 1412, 1411, 1528, 1529, 1407, 1523, 1524, 1525, 1414, 1530, 1531, 1532, 1417, 1416, 1533, 1534
199, 1412, 1411, 1528, 1529, 1419, 1418, 1535, 1536, 1414, 1530, 1531, 1532, 1421, 1537, 1538, 1539, 1424, 1423, 1540, 1541
200, 1419, 1418, 1535, 1536, 1426, 1425, 1542, 1543, 1421, 1537, 1538, 1539, 1428, 1544, 1545, 1546, 1431, 1430, 1547, 1548
201, 1426, 1425, 1542, 1543, 1433, 1432, 1549, 1550, 1428, 1544, 1545, 1546, 1435, 1551, 1552, 1553, 1438, 1437, 1554, 1555
202, 1433, 1432, 1549, 1550, 1440, 1439, 1556, 1557, 1435, 1551, 1552, 1553, 1442, 1558, 1559, 1560, 1445, 1444, 1561, 1562
203, 1440, 1439, 1556, 1557, 1447, 1446, 1563, 1564, 1442, 1558, 1559, 1560, 1449, 1565, 1566, 1567, 1452, 1451, 1568, 1569
204, 1447, 1446, 1563, 1564, 1454, 1453, 1570, 1571, 1449, 1565, 1566, 1567, 1456, 1572, 1573, 1574, 1459, 1458, 1575, 1576
205, 1454, 1453, 1570, 1571, 1461, 1460, 1577, 1578, 1456, 1572, 1573, 1574, 1463, 1579, 1580, 1581, 1466, 1465, 1582, 1583
206, 1461, 1460, 1577, 1578, 1468, 1467, 1584, 1585, 1463, 1579, 1580, 1581, 1470, 1586, 1587, 1588, 1473, 1472, 1589, 1590
207, 1468, 1467, 1584, 1585, 1475, 1474, 1591, 1592, 1470, 1586, 1587, 1588, 1477, 1593, 1594, 1595, 1480, 1479, 1596, 1597
208, 1475, 1474, 1591, 1592, 1482, 1481, 1598, 1599, 1477, 1593, 1594, 1595, 1484, 1600, 1601, 1602, 1487, 1486, 1603, 1604
209, 1489, 1488, 1605, 1606, 1491, 1490, 1607, 1608, 1493, 1609, 1610, 1611, 1496, 1612, 1613, 1614, 1499, 1498, 1615, 1616
210, 1491, 1490, 1607, 1608, 1501, 1500, 1617, 1618, 1496, 1612, 1613, 1614, 1503, 1619, 1620, 1621, 1506, 1505, 1622, 1623
211, 1501, 1500, 1617, 1618, 1508, 1507, 1624, 1625, 1503, 1619, 1620, 1621, 1510, 1626, 1627, 1628, 1513, 1512, 1629, 1630
212, 1508, 1507, 1624, 1625, 1515, 1514, 1631, 1632, 1510, 1626, 1627, 1628, 1517, 1633, 1634, 1635, 1520, 1519, 1636, 1637
213, 1515, 1514, 1631, 1632, 1522, 1521, 1638, 1639, 1517, 1633, 1634, 1635, 1524, 1640, 1641, 1642, 1527, 1526, 1643, 1644
214, 1522, 1521, 1638, 1639, 1529, 1528, 1645, 1646, 1524, 1640, 1641, 1642, 1531, 1647, 1648, 1649, 1534, 1533, 1650, 1651
215, 1529, 1528, 1645, 1646, 1536, 1535, 1652, 1653, 1531, 1647, 1648, 1649, 1538, 1654, 1655, 1656, 1541, 1540, 1657, 1658
216, 1536, 1535, 1652, 1653, 1543, 1542, 1659, 1660, 1538, 1654, 1655, 1656, 1545, 1661, 1662, 1663, 1548, 1547, 1664, 1665
217, 1543, 1542, 1659, 1660, 1550, 1549, 1666, 1667, 1545, 1661, 1662, 1663, 1552, 1668, 1669, 1670, 1555, 1554, 1671, 1672
218, 1550, 1549, 1666, 1667, 1557, 1556, 1673, 1674, 1552, 1668, 1669, 1670, 1559, 1675, 1676, 1677, 1562, 1561, 1678, 1679
219, 1557, 1556, 1673, 1674, 1564, 1563, 1680, 1681, 1559, 1675, 1676, 1677, 1566, 1682, 1683, 1684, 1569, 1568, 1685, 1686
220, 1564, 1563, 1680, 1681, 1571, 1570, 1687, 1688, 1566, 1682, 1683, 1684, 1573, 1689, 1690, 1691, 1576, 1575, 1692, 1693
221, 1571, 1570, 1687, 1688, 1578, 1577, 1694, 1695, 1573, 1689, 1690, 1691, 1580, 1696, 1697, 1698, 1583, 1582, 1699, 1700
222, 1578, 1577, 1694, 1695, 1585, 1584, 1701, 1702, 1580, 1696, 1697, 1698, 1587, 1703, 1704, 1705, 1590, 1589, 1706, 1707
223, 1585, 1584, 1701, 1702, 1592, 1591, 1708, 1709, 1587, 1703, 1704, 1705, 1594, 1710, 1711, 1712, 1597, 1596, 1713, 1714
224, 1592, 1591, 1708, 1709, 1599, 1598, 1715, 1716, 1594, 1710, 1711, 1712, 1601, 1717, 1718, 1719, 1604, 1603, 1720, 1721
225, 1606, 1605, 1722, 1723, 1608, 1607, 1724, 1725, 1610, 1726, 1727, 1728, 1613, 1729, 1730, 1731, 1616, 1615, 1732, 1733
226, 1608, 1607, 1724, 1725, 1618, 1617, 1734, 1735, 1613, 1729, 1730, 1731, 1620, 1736, 1737, 1738, 1623, 1622, 1739, 1740
227, 1618, 1617, 1734, 1735, 1625, 1624, 1741, 1742, 1620, 1736, 1737, 1738, 1627, 1743, 1744, 1745, 1630, 1629, 1746, 1747
228, 1625, 1624, 1741, 1742, 1632, 1631, 1748, 1749, 1627, 1743, 1744, 1745, 1634, 1750, 1751, 1752, 1637, 1636, 1753, 1754
229, 1632, 1631, 1748, 1749, 1639, 1638, 1755, 1756, 1634, 1750, 1751, 1752, 1641, 1757, 1758, 1759, 1644, 1643, 1760, 1761
230, 1639, 1638, 1755, 1756, 1646, 1645, 1762, 1763, 1641, 1757, 1758, 1759, 1648, 1764, 1765, 1766, 1651, 1650, 1767, 1768
231, 1646, 1645, 1762, 1763, 1653, 1652, 1769, 1770, 1648, 1764, 1765, 1766, 1655, 1771, 1772, 1773, 1658, 1657, 1774, 1775
232, 1653, 1652, 1769, 1770, 1660, 1659, 1776, 1777, 1655, 1771, 1772, 1773, 1662, 1778, 1779, 1780, 1665, 1664, 1781, 1782
233, 1660, 1659, 1776, 1777, 1667, 1666, 1783, 1784, 1662, 1778, 1779, 1780, 1669, 1785, 1786, 1787, 1672, 1671, 1788, 1789
234, 1667, 1666, 1783, 1784, 1674, 1673, 1790, 1791, 1669, 1785, 1786, 1787, 1676, 1792, 1793, 1794, 1679, 1678, 1795, 1796
235, 1674, 1673, 1790, 1791, 1681, 1680, 1797, 1798, 1676, 1792, 1793, 1794, 1683, 1799, 1800, 1801, 1686, 1685, 1802, 1803
236, 1681, 1680, 1797, 1798, 1688, 1687, 1804, 1805, 1683, 1799, 1800, 1801, 1690, 1806, 1807, 1808, 1693, 1692, 1809, 1810
237, 1688, 1687, 1804, 1805, 1695, 1694, 1811, 1812, 1690, 1806, 1807, 1808, 1697, 1813, 1814, 1815, 1700, 1699, 1816, 1817
238, 1695, 1694, 1811, 1812, 1702, 1701, 1818, 1819, 1697, 1813, 1814, 1815, 1704, 1820, 1821, 1822, 1707, 1706, 1823, 1824
239, 1702, 1701, 1818, 1819, 1709, 1708, 1825, 1826, 1704, 1820, 1821, 1822, 1711, 1827, 1828, 1829, 1714, 1713, 1830, 1831
240, 1709, 1708, 1825, 1826, 1716, 1715, 1832, 1833, 1711, 1827, 1828, 1829, 1718, 1834, 1835, 1836, 1721, 1720, 1837, 1838
241, 1723, 1722, 1839, 1840, 1725, 1724, 1841, 1842, 1727, 1843, 1844, 1845, 1730, 1846, 1847, 1848, 1733, 1732, 1849, 1850
242, 1725, 1724, 1841, 1842, 1735, 1734, 1851, 1852, 1730, 1846, 1847, 1848, 1737, 1853, 1854, 1855, 1740, 1739, 1856, 1857
243, 1735, 1734, 1851, 1852, 1742, 1741, 1858, 1859, 1737, 1853, 1854, 1855, 1744, 1860, 1861, 1862, 1747, 1746, 1863, 1864
244, 1742, 1741, 1858, 1859, 1749, 1748, 1865, 1866, 1744, 1860, 1861, 1862, 1751, 1867, 1868, 1869, 1754, 1753, 1870, 1871
245, 1749, 1748, 1865, 1866, 1756, 1755, 1872, 1873, 1751, 1867, 1868, 1869, 1758, 1874, 1875, 1876, 1761, 1760, 1877, 1878
246, 1756, 1755, 1872, 1873, 1763, 1762, 1879, 1880, 1758, 1874, 1875, 1876, 1765, 1881, 1882, 1883, 1768, 1767, 1884, 1885
247, 1763, 1762, 1879, 1880, 1770, 1769, 1886, 1887, 1765, 1881, 1882, 1883, 1772, 1888, 1889, 1890, 1775, 1774, 1891, 1892
248, 1770, 1769, 1886, 1887, 1777, 1776, 1893, 1894, 1772, 1888, 1889, 1890, 1779, 1895, 1896, 1897, 1782, 1781, 1898, 1899
249, 1777, 1776, 1893, 1894, 1784, 1783, 1900, 1901, 1779, 1895, 1896, 1897, 1786, 1902, 1903, 1904, 1789, 1788, 1905, 1906
250, 1784, 1783, 1900, 1901, 1791, 1790, 1907, 1908, 1786, 1902, 1903, 1904, 1793, 1909, 1910, 1911, 1796, 1795, 1912, 1913
251, 1791, 1790, 1907, 1908, 1798, 1797, 1914, 1915, 1793, 1909, 1910, 1911, 1800, 1916, 1917, 1918, 1803, 1802, 1919, 1920
252, 1798, 1797, 1914, 1915, 1805, 1804, 1921, 1922, 1800, 1916, 1917, 1918, 1807, 1923, 1924, 1925, 1810, 1809, 1926, 1927
253, 1805, 1804, 1921, 1922, 1812, 1811, 1928, 1929, 1807, 1923, 1924, 1925, 1814, 1930, 1931, 1932, 1817, 1816, 1933, 1934
254, 1812, 1811, 1928, 1929, 1819, 1818, 1935, 1936, 1814, 1930, 1931, 1932, 1821, 1937, 1938, 1939, 1824, 1823, 1940, 1941
255, 1819, 1818, 1935, 1936, 1826, 1825, 1942, 1943, 1821, 1937, 1938, 1939, 1828, 1944, 1945, 1946, 1831, 1830, 1947, 1948
256, 1826, 1825, 1942, 1943, 1833, 1832, 1949, 1950, 1828, 1944, 1945, 1946, 1835, 1951, 1952, 1953, 1838, 1837, 1954, 1955
*Element, type=C3D20, elset=SECONDARY
257, 1956, 1957, 1958, 1959, 1960, 1961, 1962, 1963, 1964, 1965, 1966, 1967, 1968, 1969, 1970, 1971, 1972, 1973, 1974, 1975
*Nset, nset=PRIMARY_ALL
1, 2, 3, 4, 5, 6, 7, 8, 9, 10, 11, 12, 13, 14, 15, 16
17, 18, 19, 20, 21, 22, 23, 24, 25, 26, 27, 28, 29, 30, 31, 32
33, 34, 35, 36, 37, 38, 39, 40, 41, 42, 43, 44, 45, 46, 47, 48
49, 50, 51, 52, 53, 54, 55, 56, 57, 58, 59, 60, 61, 62, 63, 64
65, 66, 67, 68, 69, 70, 71, 72, 73, 74, 75, 76, 77, 78, 79, 80
81, 82, 83, 84, 85, 86, 87, 88, 89, 90, 91, 92, 93, 94, 95, 96
97, 98, 99, 100, 101, 102, 103, 104, 105, 106, 107, 108, 109, 110, 111, 112
113, 114, 115, 116, 117, 118, 119, 120, 121, 122, 123, 124, 125, 126, 127, 128
129, 130, 131, 132, 133, 134, 135, 136, 137, 138, 139, 140, 141, 142, 143, 144
145, 146, 147, 148, 149, 150, 151, 152, 153, 154, 155, 156, 157, 158, 159, 160
161, 162, 163, 164, 165, 166, 167, 168, 169, 170, 171, 172, 173, 174, 175, 176
177, 178, 179, 180, 181, 182, 183, 184, 185, 186, 187, 188, 189, 190, 191, 192
193, 194, 195, 196, 197, 198, 199, 200, 201, 202, 203, 204, 205, 206, 207, 208
209, 210, 211, 212, 213, 214, 215, 216, 217, 218, 219, 220, 221, 222, 223, 224
225, 226, 227, 228, 229, 230, 231, 232, 233, 234, 235, 236, 237, 238, 239, 240
241, 242, 243, 244, 245, 246, 247, 248, 249, 250, 251, 252, 253, 254, 255, 256
257, 258, 259, 260, 261, 262, 263, 264, 265, 266, 267, 268, 269, 270, 271, 272
273, 274, 275, 276, 277, 278, 279, 280, 281, 282, 283, 284, 285, 286, 287, 288
289, 290, 291, 292, 293, 294, 295, 296, 297, 298, 299, 300, 301, 302, 303, 304
305, 306, 307, 308, 309, 310, 311, 312, 313, 314, 315, 316, 317, 318, 319, 320
321, 322, 323, 324, 325, 326, 327, 328, 329, 330, 331, 332, 333, 334, 335, 336
337, 338, 339, 340, 341, 342, 343, 344, 345, 346, 347, 348, 349, 350, 351, 352
353, 354, 355, 356, 357, 358, 359, 360, 361, 362, 363, 364, 365, 366, 367, 368
369, 370, 371, 372, 373, 374, 375, 376, 377, 378, 379, 380, 381, 382, 383, 384
385, 386, 387, 388, 389, 390, 391, 392, 393, 394, 395, 396, 397, 398, 399, 400
401, 402, 403, 404, 405, 406, 407, 408, 409, 410, 411, 412, 413, 414, 415, 416
417, 418, 419, 420, 421, 422, 423, 424, 425, 426, 427, 428, 429, 430, 431, 432
433, 434, 435, 436, 437, 438, 439, 440, 441, 442, 443, 444, 445, 446, 447, 448
449, 450, 451, 452, 453, 454, 455, 456, 457, 458, 459, 460, 461, 462, 463, 464
465, 466, 467, 468, 469, 470, 471, 472, 473, 474, 475, 476, 477, 478, 479, 480
481, 482, 483, 484, 485, 486, 487, 488, 489, 490, 491, 492, 493, 494, 495, 496
497, 498, 499, 500, 501, 502, 503, 504, 505, 506, 507, 508, 509, 510, 511, 512
513, 514, 515, 516, 517, 518, 519, 520, 521, 522, 523, 524, 525, 526, 527, 528
529, 530, 531, 532, 533, 534, 535, 536, 537, 538, 539, 540, 541, 542, 543, 544
545, 546, 547, 548, 549, 550, 551, 552, 553, 554, 555, 556, 557, 558, 559, 560
561, 562, 563, 564, 565, 566, 567, 568, 569, 570, 571, 572, 573, 574, 575, 576
577, 578, 579, 580, 581, 582, 583, 584, 585, 586, 587, 588, 589, 590, 591, 592
593, 594, 595, 596, 597, 598, 599, 600, 601, 602, 603, 604, 605, 606, 607, 608
609, 610, 611, 612, 613, 614, 615, 616, 617, 618, 619, 620, 621, 622, 623, 624
625, 626, 627, 628, 629, 630, 631, 632, 633, 634, 635, 636, 637, 638, 639, 640
641, 642, 643, 644, 645, 646, 647, 648, 649, 650, 651, 652, 653, 654, 655, 656
657, 658, 659, 660, 661, 662, 663, 664, 665, 666, 667, 668, 669, 670, 671, 672
673, 674, 675, 676, 677, 678, 679, 680, 681, 682, 683, 684, 685, 686, 687, 688
689, 690, 691, 692, 693, 694, 695, 696, 697, 698, 699, 700, 701, 702, 703, 704
705, 706, 707, 708, 709, 710, 711, 712, 713, 714, 715, 716, 717, 718, 719, 720
721, 722, 723, 724, 725, 726, 727, 728, 729, 730, 731, 732, 733, 734, 735, 736
737, 738, 739, 740, 741, 742, 743, 744, 745, 746, 747, 748, 749, 750, 751, 752
753, 754, 755, 756, 757, 758, 759, 760, 761, 762, 763, 764, 765, 766, 767, 768
769, 770, 771, 772, 773, 774, 775, 776, 777, 778, 779, 780, 781, 782, 783, 784
785, 786, 787, 788, 789, 790, 791, 792, 793, 794, 795, 796, 797, 798, 799, 800
801, 802, 803, 804, 805, 806, 807, 808, 809, 810, 811, 812, 813, 814, 815, 816
817, 818, 819, 820, 821, 822, 823, 824, 825, 826, 827, 828, 829, 830, 831, 832
833, 834, 835, 836, 837, 838, 839, 840, 841, 842, 843, 844, 845, 846, 847, 848
849, 850, 851, 852, 853, 854, 855, 856, 857, 858, 859, 860, 861, 862, 863, 864
865, 866, 867, 868, 869, 870, 871, 872, 873, 874, 875, 876, 877, 878, 879, 880
881, 882, 883, 884, 885, 886, 887, 888, 889, 890, 891, 892, 893, 894, 895, 896
897, 898, 899, 900, 901, 902, 903, 904, 905, 906, 907, 908, 909, 910, 911, 912
913, 914, 915, 916, 917, 918, 919, 920, 921, 922, 923, 924, 925, 926, 927, 928
929, 930, 931, 932, 933, 934, 935, 936, 937, 938, 939, 940, 941, 942, 943, 944
945, 946, 947, 948, 949, 950, 951, 952, 953, 954, 955, 956, 957, 958, 959, 960
961, 962, 963, 964, 965, 966, 967, 968, 969, 970, 971, 972, 973, 974, 975, 976
977, 978, 979, 980, 981, 982, 983, 984, 985, 986, 987, 988, 989, 990, 991, 992
993, 994, 995, 996, 997, 998, 999, 1000, 1001, 1002, 1003, 1004, 1005, 1006, 1007, 1008
1009, 1010, 1011, 1012, 1013, 1014, 1015, 1016, 1017, 1018, 1019, 1020, 1021, 1022, 1023, 1024
1025, 1026, 1027, 1028, 1029, 1030, 1031, 1032, 1033, 1034, 1035, 1036, 1037, 1038, 1039, 1040
1041, 1042, 1043, 1044, 1045, 1046, 1047, 1048, 1049, 1050, 1051, 1052, 1053, 1054, 1055, 1056
1057, 1058, 1059, 1060, 1061, 1062, 1063, 1064, 1065, 1066, 1067, 1068, 1069, 1070, 1071, 1072
1073, 1074, 1075, 1076, 1077, 1078, 1079, 1080, 1081, 1082, 1083, 1084, 1085, 1086, 1087, 1088
1089, 1090, 1091, 1092, 1093, 1094, 1095, 1096, 1097, 1098, 1099, 1100, 1101, 1102, 1103, 1104
1105, 1106, 1107, 1108, 1109, 1110, 1111, 1112, 1113, 1114, 1115, 1116, 1117, 1118, 1119, 1120
1121, 1122, 1123, 1124, 1125, 1126, 1127, 1128, 1129, 1130, 1131, 1132, 1133, 1134, 1135, 1136
1137, 1138, 1139, 1140, 1141, 1142, 1143, 1144, 1145, 1146, 1147, 1148, 1149, 1150, 1151, 1152
1153, 1154, 1155, 1156, 1157, 1158, 1159, 1160, 1161, 1162, 1163, 1164, 1165, 1166, 1167, 1168
1169, 1170, 1171, 1172, 1173, 1174, 1175, 1176, 1177, 1178, 1179, 1180, 1181, 1182, 1183, 1184
1185, 1186, 1187, 1188, 1189, 1190, 1191, 1192, 1193, 1194, 1195, 1196, 1197, 1198, 1199, 1200
1201, 1202, 1203, 1204, 1205, 1206, 1207, 1208, 1209, 1210, 1211, 1212, 1213, 1214, 1215, 1216
1217, 1218, 1219, 1220, 1221, 1222, 1223, 1224, 1225, 1226, 1227, 1228, 1229, 1230, 1231, 1232
1233, 1234, 1235, 1236, 1237, 1238, 1239, 1240, 1241, 1242, 1243, 1244, 1245, 1246, 1247, 1248
1249, 1250, 1251, 1252, 1253, 1254, 1255, 1256, 1257, 1258, 1259, 1260, 1261, 1262, 1263, 1264
1265, 1266, 1267, 1268, 1269, 1270, 1271, 1272, 1273, 1274, 1275, 1276, 1277, 1278, 1279, 1280
1281, 1282, 1283, 1284, 1285, 1286, 1287, 1288, 1289, 1290, 1291, 1292, 1293, 1294, 1295, 1296
1297, 1298, 1299, 1300, 1301, 1302, 1303, 1304, 1305, 1306, 1307, 1308, 1309, 1310, 1311, 1312
1313, 1314, 1315, 1316, 1317, 1318, 1319, 1320, 1321, 1322, 1323, 1324, 1325, 1326, 1327, 1328
1329, 1330, 1331, 1332, 1333, 1334, 1335, 1336, 1337, 1338, 1339, 1340, 1341, 1342, 1343, 1344
1345, 1346, 1347, 1348, 1349, 1350, 1351, 1352, 1353, 1354, 1355, 1356, 1357, 1358, 1359, 1360
1361, 1362, 1363, 1364, 1365, 1366, 1367, 1368, 1369, 1370, 1371, 1372, 1373, 1374, 1375, 1376
1377, 1378, 1379, 1380, 1381, 1382, 1383, 1384, 1385, 1386, 1387, 1388, 1389, 1390, 1391, 1392
1393, 1394, 1395, 1396, 1397, 1398, 1399, 1400, 1401, 1402, 1403, 1404, 1405, 1406, 1407, 1408
1409, 1410, 1411, 1412, 1413, 1414, 1415, 1416, 1417, 1418, 1419, 1420, 1421, 1422, 1423, 1424
1425, 1426, 1427, 1428, 1429, 1430, 1431, 1432, 1433, 1434, 1435, 1436, 1437, 1438, 1439, 1440
1441, 1442, 1443, 1444, 1445, 1446, 1447, 1448, 1449, 1450, 1451, 1452, 1453, 1454, 1455, 1456
1457, 1458, 1459, 1460, 1461, 1462, 1463, 1464, 1465, 1466, 1467, 1468, 1469, 1470, 1471, 1472
1473, 1474, 1475, 1476, 1477, 1478, 1479, 1480, 1481, 1482, 1483, 1484, 1485, 1486, 1487, 1488
1489, 1490, 1491, 1492, 1493, 1494, 1495, 1496, 1497, 1498, 1499, 1500, 1501, 1502, 1503, 1504
1505, 1506, 1507, 1508, 1509, 1510, 1511, 1512, 1513, 1514, 1515, 1516, 1517, 1518, 1519, 1520
1521, 1522, 1523, 1524, 1525, 1526, 1527, 1528, 1529, 1530, 1531, 1532, 1533, 1534, 1535, 1536
1537, 1538, 1539, 1540, 1541, 1542, 1543, 1544, 1545, 1546, 1547, 1548, 1549, 1550, 1551, 1552
1553, 1554, 1555, 1556, 1557, 1558, 1559, 1560, 1561, 1562, 1563, 1564, 1565, 1566, 1567, 1568
1569, 1570, 1571, 1572, 1573, 1574, 1575, 1576, 1577, 1578, 1579, 1580, 1581, 1582, 1583, 1584
1585, 1586, 1587, 1588, 1589, 1590, 1591, 1592, 1593, 1594, 1595, 1596, 1597, 1598, 1599, 1600
1601, 1602, 1603, 1604, 1605, 1606, 1607, 1608, 1609, 1610, 1611, 1612, 1613, 1614, 1615, 1616
1617, 1618, 1619, 1620, 1621, 1622, 1623, 1624, 1625, 1626, 1627, 1628, 1629, 1630, 1631, 1632
1633, 1634, 1635, 1636, 1637, 1638, 1639, 1640, 1641, 1642, 1643, 1644, 1645, 1646, 1647, 1648
1649, 1650, 1651, 1652, 1653, 1654, 1655, 1656, 1657, 1658, 1659, 1660, 1661, 1662, 1663, 1664
1665, 1666, 1667, 1668, 1669, 1670, 1671, 1672, 1673, 1674, 1675, 1676, 1677, 1678, 1679, 1680
1681, 1682, 1683, 1684, 1685, 1686, 1687, 1688, 1689, 1690, 1691, 1692, 1693, 1694, 1695, 1696
1697, 1698, 1699, 1700, 1701, 1702, 1703, 1704, 1705, 1706, 1707, 1708, 1709, 1710, 1711, 1712
1713, 1714, 1715, 1716, 1717, 1718, 1719, 1720, 1721, 1722, 1723, 1724, 1725, 1726, 1727, 1728
1729, 1730, 1731, 1732, 1733, 1734, 1735, 1736, 1737, 1738, 1739, 1740, 1741, 1742, 1743, 1744
1745, 1746, 1747, 1748, 1749, 1750, 1751, 1752, 1753, 1754, 1755, 1756, 1757, 1758, 1759, 1760
1761, 1762, 1763, 1764, 1765, 1766, 1767, 1768, 1769, 1770, 1771, 1772, 1773, 1774, 1775, 1776
1777, 1778, 1779, 1780, 1781, 1782, 1783, 1784, 1785, 1786, 1787, 1788, 1789, 1790, 1791, 1792
1793, 1794, 1795, 1796, 1797, 1798, 1799, 1800, 1801, 1802, 1803, 1804, 1805, 1806, 1807, 1808
1809, 1810, 1811, 1812, 1813, 1814, 1815, 1816, 1817, 1818, 1819, 1820, 1821, 1822, 1823, 1824
1825, 1826, 1827, 1828, 1829, 1830, 1831, 1832, 1833, 1834, 1835, 1836, 1837, 1838, 1839, 1840
1841, 1842, 1843, 1844, 1845, 1846, 1847, 1848, 1849, 1850, 1851, 1852, 1853, 1854, 1855, 1856
1857, 1858, 1859, 1860, 1861, 1862, 1863, 1864, 1865, 1866, 1867, 1868, 1869, 1870, 1871, 1872
1873, 1874, 1875, 1876, 1877, 1878, 1879, 1880, 1881, 1882, 1883, 1884, 1885, 1886, 1887, 1888
1889, 1890, 1891, 1892, 1893, 1894, 1895, 1896, 1897, 1898, 1899, 1900, 1901, 1902, 1903, 1904
1905, 1906, 1907, 1908, 1909, 1910, 1911, 1912, 1913, 1914, 1915, 1916, 1917, 1918, 1919, 1920
1921, 1922, 1923, 1924, 1925, 1926, 1927, 1928, 1929, 1930, 1931, 1932, 1933, 1934, 1935, 1936
1937, 1938, 1939, 1940, 1941, 1942, 1943, 1944, 1945, 1946, 1947, 1948, 1949, 1950, 1951, 1952
1953, 1954, 1955
*Nset, nset=PRIMARY_FACE
2, 3, 6, 7, 10, 14, 18, 19, 22, 23, 26, 30, 31, 34, 35, 38
42, 43, 46, 47, 50, 54, 55, 58, 59, 62, 66, 67, 70, 71, 74, 78
79, 82, 83, 86, 90, 91, 94, 95, 98, 102, 103, 106, 107, 110, 114, 115
118, 119, 122, 126, 127, 130, 131, 134, 138, 139, 142, 143, 146, 150, 151, 154
155, 158, 162, 163, 166, 167, 170, 174, 175, 178, 179, 182, 186, 187, 190, 191
194, 198, 199, 201, 203, 205, 208, 211, 213, 215, 218, 220, 222, 225, 227, 229
232, 234, 236, 239, 241, 243, 246, 248, 250, 253, 255, 257, 260, 262, 264, 267
269, 271, 274, 276, 278, 281, 283, 285, 288, 290, 292, 295, 297, 299, 302, 304
306, 309, 311, 313, 316, 318, 320, 322, 325, 328, 330, 332, 335, 337, 339, 342
344, 346, 349, 351, 353, 356, 358, 360, 363, 365, 367, 370, 372, 374, 377, 379
381, 384, 386, 388, 391, 393, 395, 398, 400, 402, 405, 407, 409, 412, 414, 416
419, 421, 423, 426, 428, 430, 433, 435, 437, 439, 442, 445, 447, 449, 452, 454
456, 459, 461, 463, 466, 468, 470, 473, 475, 477, 480, 482, 484, 487, 489, 491
494, 496, 498, 501, 503, 505, 508, 510, 512, 515, 517, 519, 522, 524, 526, 529
531, 533, 536, 538, 540, 543, 545, 547, 550, 552, 554, 556, 559, 562, 564, 566
569, 571, 573, 576, 578, 580, 583, 585, 587, 590, 592, 594, 597, 599, 601, 604
606, 608, 611, 613, 615, 618, 620, 622, 625, 627, 629, 632, 634, 636, 639, 641
643, 646, 648, 650, 653, 655, 657, 660, 662, 664, 667, 669, 671, 673, 676, 679
681, 683, 686, 688, 690, 693, 695, 697, 700, 702, 704, 707, 709, 711, 714, 716
718, 721, 723, 725, 728, 730, 732, 735, 737, 739, 742, 744, 746, 749, 751, 753
756, 758, 760, 763, 765, 767, 770, 772, 774, 777, 779, 781, 784, 786, 788, 790
793, 796, 798, 800, 803, 805, 807, 810, 812, 814, 817, 819, 821, 824, 826, 828
831, 833, 835, 838, 840, 842, 845, 847, 849, 852, 854, 856, 859, 861, 863, 866
868, 870, 873, 875, 877, 880, 882, 884, 887, 889, 891, 894, 896, 898, 901, 903
905, 907, 910, 913, 915, 917, 920, 922, 924, 927, 929, 931, 934, 936, 938, 941
943, 945, 948, 950, 952, 955, 957, 959, 962, 964, 966, 969, 971, 973, 976, 978
980, 983, 985, 987, 990, 992, 994, 997, 999, 1001, 1004, 1006, 1008, 1011, 1013, 1015
1018, 1020, 1022, 1024, 1027, 1030, 1032, 1034, 1037, 1039, 1041, 1044, 1046, 1048, 1051, 1053
1055, 1058, 1060, 1062, 1065, 1067, 1069, 1072, 1074, 1076, 1079, 1081, 1083, 1086, 1088, 1090
1093, 1095, 1097, 1100, 1102, 1104, 1107, 1109, 1111, 1114, 1116, 1118, 1121, 1123, 1125, 1128
1130, 1132, 1135, 1137, 1139, 1141, 1144, 1147, 1149, 1151, 1154, 1156, 1158, 1161, 1163, 1165
1168, 1170, 1172, 1175, 1177, 1179, 1182, 1184, 1186, 1189, 1191, 1193, 1196, 1198, 1200, 1203
1205, 1207, 1210, 1212, 1214, 1217, 1219, 1221, 1224, 1226, 1228, 1231, 1233, 1235, 1238, 1240
1242, 1245, 1247, 1249, 1252, 1254, 1256, 1258, 1261, 1264, 1266, 1268, 1271, 1273, 1275, 1278
1280, 1282, 1285, 1287, 1289, 1292, 1294, 1296, 1299, 1301, 1303, 1306, 1308, 1310, 1313, 1315
1317, 1320, 1322, 1324, 1327, 1329, 1331, 1334, 1336, 1338, 1341, 1343, 1345, 1348, 1350, 1352
1355, 1357, 1359, 1362, 1364, 1366, 1369, 1371, 1373, 1375, 1378, 1381, 1383, 1385, 1388, 1390
1392, 1395, 1397, 1399, 1402, 1404, 1406, 1409, 1411, 1413, 1416, 1418, 1420, 1423, 1425, 1427
1430, 1432, 1434, 1437, 1439, 1441, 1444, 1446, 1448, 1451, 1453, 1455, 1458, 1460, 1462, 1465
1467, 1469, 1472, 1474, 1476, 1479, 1481, 1483, 1486, 1488, 1490, 1492, 1495, 1498, 1500, 1502
1505, 1507, 1509, 1512, 1514, 1516, 1519, 1521, 1523, 1526, 1528, 1530, 1533, 1535, 1537, 1540
1542, 1544, 1547, 1549, 1551, 1554, 1556, 1558, 1561, 1563, 1565, 1568, 1570, 1572, 1575, 1577
1579, 1582, 1584, 1586, 1589, 1591, 1593, 1596, 1598, 1600, 1603, 1605, 1607, 1609, 1612, 1615
1617, 1619, 1622, 1624, 1626, 1629, 1631, 1633, 1636, 1638, 1640, 1643, 1645, 1647, 1650, 1652
1654, 1657, 1659, 1661, 1664, 1666, 1668, 1671, 1673, 1675, 1678, 1680, 1682, 1685, 1687, 1689
1692, 1694, 1696, 1699, 1701, 1703, 1706, 1708, 1710, 1713, 1715, 1717, 1720, 1722, 1724, 1726
1729, 1732, 1734, 1736, 1739, 1741, 1743, 1746, 1748, 1750, 1753, 1755, 1757, 1760, 1762, 1764
1767, 1769, 1771, 1774, 1776, 1778, 1781, 1783, 1785, 1788, 1790, 1792, 1795, 1797, 1799, 1802
1804, 1806, 1809, 1811, 1813, 1816, 1818, 1820, 1823, 1825, 1827, 1830, 1832, 1834, 1837, 1839
1841, 1843, 1846, 1849, 1851, 1853, 1856, 1858, 1860, 1863, 1865, 1867, 1870, 1872, 1874, 1877
1879, 1881, 1884, 1886, 1888, 1891, 1893, 1895, 1898, 1900, 1902, 1905, 1907, 1909, 1912, 1914
1916, 1919, 1921, 1923, 1926, 1928, 1930, 1933, 1935, 1937, 1940, 1942, 1944, 1947, 1949, 1951
1954
*Nset, nset=SECONDARY_ALL
1956, 1957, 1958, 1959, 1960, 1961, 1962, 1963, 1964, 1965, 1966, 1967, 1968, 1969, 1970, 1971
1972, 1973, 1974, 1975
*Nset, nset=SECONDARY_FACE
1956, 1959, 1963, 1960, 1967, 1975, 1971, 1972
*Nset, nset=S1
1956
*Nset, nset=S2
1959
*Nset, nset=S3
1963
*Nset, nset=S4
1960
*Nset, nset=S5
1967
*Nset, nset=S6
1975
*Nset, nset=S7
1971
*Nset, nset=S8
1972
*Surface, type=ELEMENT, name=PRIMARY_CONTACT
PRIMARY, S4
*Surface, type=ELEMENT, name=SECONDARY_CONTACT
SECONDARY, S6
*Material, name=ELASTIC
*Elastic
1.e9, 0.
*Solid Section, elset=PRIMARY, material=ELASTIC
,
*Solid Section, elset=SECONDARY, material=ELASTIC
,
*Surface Interaction, name=LINEAR_PENALTY
*Surface Behavior, penalty=LINEAR
1.e8,
*Contact Pair, interaction=LINEAR_PENALTY, type=SURFACE TO SURFACE, adjust=0.
SECONDARY_CONTACT, PRIMARY_CONTACT
*Step, name=BASE, nlgeom=YES, inc=40
*Static
1., 1., 1.e-8, 1.
*Boundary
PRIMARY_ALL, 1, 3, 0.
SECONDARY_ALL, 2, 3, 0.
S1, 1, 1, -1.e-4
S2, 1, 1, -1.e-4
S3, 1, 1, -1.e-4
S4, 1, 1, -1.e-4
S5, 1, 1, -1.e-4
S6, 1, 1, -1.e-4
S7, 1, 1, -1.e-4
S8, 1, 1, -1.e-4
*Output, field, frequency=1
*Node Output
COORD, RF, U
*Contact Output
CSTRESS, CDISP, CFORCE
*End Step
*Step, name=S1_PLUS, nlgeom=YES, inc=40
*Static
1., 1., 1.e-8, 1.
*Boundary, op=MOD
S1, 1, 1, -1.01e-4
S2, 1, 1, -1.e-4
S3, 1, 1, -1.e-4
S4, 1, 1, -1.e-4
S5, 1, 1, -1.e-4
S6, 1, 1, -1.e-4
S7, 1, 1, -1.e-4
S8, 1, 1, -1.e-4
*End Step
*Step, name=S1_MINUS, nlgeom=YES, inc=40
*Static
1., 1., 1.e-8, 1.
*Boundary, op=MOD
S1, 1, 1, -9.9e-5
S2, 1, 1, -1.e-4
S3, 1, 1, -1.e-4
S4, 1, 1, -1.e-4
S5, 1, 1, -1.e-4
S6, 1, 1, -1.e-4
S7, 1, 1, -1.e-4
S8, 1, 1, -1.e-4
*End Step
*Step, name=S2_PLUS, nlgeom=YES, inc=40
*Static
1., 1., 1.e-8, 1.
*Boundary, op=MOD
S1, 1, 1, -1.e-4
S2, 1, 1, -1.01e-4
S3, 1, 1, -1.e-4
S4, 1, 1, -1.e-4
S5, 1, 1, -1.e-4
S6, 1, 1, -1.e-4
S7, 1, 1, -1.e-4
S8, 1, 1, -1.e-4
*End Step
*Step, name=S2_MINUS, nlgeom=YES, inc=40
*Static
1., 1., 1.e-8, 1.
*Boundary, op=MOD
S1, 1, 1, -1.e-4
S2, 1, 1, -9.9e-5
S3, 1, 1, -1.e-4
S4, 1, 1, -1.e-4
S5, 1, 1, -1.e-4
S6, 1, 1, -1.e-4
S7, 1, 1, -1.e-4
S8, 1, 1, -1.e-4
*End Step
*Step, name=S3_PLUS, nlgeom=YES, inc=40
*Static
1., 1., 1.e-8, 1.
*Boundary, op=MOD
S1, 1, 1, -1.e-4
S2, 1, 1, -1.e-4
S3, 1, 1, -1.01e-4
S4, 1, 1, -1.e-4
S5, 1, 1, -1.e-4
S6, 1, 1, -1.e-4
S7, 1, 1, -1.e-4
S8, 1, 1, -1.e-4
*End Step
*Step, name=S3_MINUS, nlgeom=YES, inc=40
*Static
1., 1., 1.e-8, 1.
*Boundary, op=MOD
S1, 1, 1, -1.e-4
S2, 1, 1, -1.e-4
S3, 1, 1, -9.9e-5
S4, 1, 1, -1.e-4
S5, 1, 1, -1.e-4
S6, 1, 1, -1.e-4
S7, 1, 1, -1.e-4
S8, 1, 1, -1.e-4
*End Step
*Step, name=S4_PLUS, nlgeom=YES, inc=40
*Static
1., 1., 1.e-8, 1.
*Boundary, op=MOD
S1, 1, 1, -1.e-4
S2, 1, 1, -1.e-4
S3, 1, 1, -1.e-4
S4, 1, 1, -1.01e-4
S5, 1, 1, -1.e-4
S6, 1, 1, -1.e-4
S7, 1, 1, -1.e-4
S8, 1, 1, -1.e-4
*End Step
*Step, name=S4_MINUS, nlgeom=YES, inc=40
*Static
1., 1., 1.e-8, 1.
*Boundary, op=MOD
S1, 1, 1, -1.e-4
S2, 1, 1, -1.e-4
S3, 1, 1, -1.e-4
S4, 1, 1, -9.9e-5
S5, 1, 1, -1.e-4
S6, 1, 1, -1.e-4
S7, 1, 1, -1.e-4
S8, 1, 1, -1.e-4
*End Step
*Step, name=S5_PLUS, nlgeom=YES, inc=40
*Static
1., 1., 1.e-8, 1.
*Boundary, op=MOD
S1, 1, 1, -1.e-4
S2, 1, 1, -1.e-4
S3, 1, 1, -1.e-4
S4, 1, 1, -1.e-4
S5, 1, 1, -1.01e-4
S6, 1, 1, -1.e-4
S7, 1, 1, -1.e-4
S8, 1, 1, -1.e-4
*End Step
*Step, name=S5_MINUS, nlgeom=YES, inc=40
*Static
1., 1., 1.e-8, 1.
*Boundary, op=MOD
S1, 1, 1, -1.e-4
S2, 1, 1, -1.e-4
S3, 1, 1, -1.e-4
S4, 1, 1, -1.e-4
S5, 1, 1, -9.9e-5
S6, 1, 1, -1.e-4
S7, 1, 1, -1.e-4
S8, 1, 1, -1.e-4
*End Step
*Step, name=S6_PLUS, nlgeom=YES, inc=40
*Static
1., 1., 1.e-8, 1.
*Boundary, op=MOD
S1, 1, 1, -1.e-4
S2, 1, 1, -1.e-4
S3, 1, 1, -1.e-4
S4, 1, 1, -1.e-4
S5, 1, 1, -1.e-4
S6, 1, 1, -1.01e-4
S7, 1, 1, -1.e-4
S8, 1, 1, -1.e-4
*End Step
*Step, name=S6_MINUS, nlgeom=YES, inc=40
*Static
1., 1., 1.e-8, 1.
*Boundary, op=MOD
S1, 1, 1, -1.e-4
S2, 1, 1, -1.e-4
S3, 1, 1, -1.e-4
S4, 1, 1, -1.e-4
S5, 1, 1, -1.e-4
S6, 1, 1, -9.9e-5
S7, 1, 1, -1.e-4
S8, 1, 1, -1.e-4
*End Step
*Step, name=S7_PLUS, nlgeom=YES, inc=40
*Static
1., 1., 1.e-8, 1.
*Boundary, op=MOD
S1, 1, 1, -1.e-4
S2, 1, 1, -1.e-4
S3, 1, 1, -1.e-4
S4, 1, 1, -1.e-4
S5, 1, 1, -1.e-4
S6, 1, 1, -1.e-4
S7, 1, 1, -1.01e-4
S8, 1, 1, -1.e-4
*End Step
*Step, name=S7_MINUS, nlgeom=YES, inc=40
*Static
1., 1., 1.e-8, 1.
*Boundary, op=MOD
S1, 1, 1, -1.e-4
S2, 1, 1, -1.e-4
S3, 1, 1, -1.e-4
S4, 1, 1, -1.e-4
S5, 1, 1, -1.e-4
S6, 1, 1, -1.e-4
S7, 1, 1, -9.9e-5
S8, 1, 1, -1.e-4
*End Step
*Step, name=S8_PLUS, nlgeom=YES, inc=40
*Static
1., 1., 1.e-8, 1.
*Boundary, op=MOD
S1, 1, 1, -1.e-4
S2, 1, 1, -1.e-4
S3, 1, 1, -1.e-4
S4, 1, 1, -1.e-4
S5, 1, 1, -1.e-4
S6, 1, 1, -1.e-4
S7, 1, 1, -1.e-4
S8, 1, 1, -1.01e-4
*End Step
*Step, name=S8_MINUS, nlgeom=YES, inc=40
*Static
1., 1., 1.e-8, 1.
*Boundary, op=MOD
S1, 1, 1, -1.e-4
S2, 1, 1, -1.e-4
S3, 1, 1, -1.e-4
S4, 1, 1, -1.e-4
S5, 1, 1, -1.e-4
S6, 1, 1, -1.e-4
S7, 1, 1, -1.e-4
S8, 1, 1, -9.9e-5
*End Step
