*Heading
** CAX8T nodal traction recovery: shared edge, five pulses, partial contact, release and friction.
*Preprint, echo=NO, model=NO, history=NO, contact=NO
*Include, input=b10_cax8t_recovery_mesh.inc
*Material, name=SOLID
*Elastic
1e9, 0.3
*Conductivity
10
*Density
1000
*Specific Heat
100
*Solid Section, elset=INNER, material=SOLID
,
*Solid Section, elset=OUTER, material=SOLID
,
*Initial Conditions, type=TEMPERATURE
ALL, 300
*Surface Interaction, name=INTERFACE
*Surface Behavior, pressure-overclosure=LINEAR
1e13
*Friction, slip tolerance=0.001
0.2
*Gap Heat Generation
0
*Contact Pair, interaction=INTERFACE, type=NODE TO SURFACE, adjust=0
S_INNER, S_OUTER
*Amplitude, name=r0, time=TOTAL TIME
0.0, 0, 0.1, 0.000002, 0.2, 0.000006, 0.3, 0.000002
0.4, 0.000002, 0.5, 0.000002, 0.6, 0.000002, 0.7, 0.000003
0.8, 0, 0.9, 0, 1.0, 0, 1.1, 0
1.2, 0, 1.3, 0.000002, 1.4, 0.000002
*Amplitude, name=z0, time=TOTAL TIME
0.0, 0, 0.1, 0, 0.2, 0, 0.3, 0
0.4, 0, 0.5, 0, 0.6, 0, 0.7, 0.000001
0.8, 0.000001, 0.9, 0.000001, 1.0, 0.000001, 1.1, 0.000001
1.2, 0, 1.3, 1e-8, 1.4, 0.000002
*Amplitude, name=r1, time=TOTAL TIME
0.0, 0, 0.1, 0.000002, 0.2, 0.000002, 0.3, 0.000006
0.4, 0.000002, 0.5, 0.000002, 0.6, 0.000002, 0.7, 0
0.8, 0.000003, 0.9, 0, 1.0, 0, 1.1, 0
1.2, 0, 1.3, 0.0000024999999999999998, 1.4, 0.0000024999999999999998
*Amplitude, name=z1, time=TOTAL TIME
0.0, 0, 0.1, 0, 0.2, 0, 0.3, 0
0.4, 0, 0.5, 0, 0.6, 0, 0.7, 0.000001
0.8, 0.000001, 0.9, 0.000001, 1.0, 0.000001, 1.1, 0.000001
1.2, 0, 1.3, -2e-8, 1.4, 0.000002
*Amplitude, name=r2, time=TOTAL TIME
0.0, 0, 0.1, 0.000002, 0.2, 0.000002, 0.3, 0.000002
0.4, 0.000006, 0.5, 0.000002, 0.6, 0.000002, 0.7, 0
0.8, 0, 0.9, 0.000003, 1.0, 0, 1.1, 0
1.2, 0, 1.3, 0.000003, 1.4, 0.000003
*Amplitude, name=z2, time=TOTAL TIME
0.0, 0, 0.1, 0, 0.2, 0, 0.3, 0
0.4, 0, 0.5, 0, 0.6, 0, 0.7, 0.000001
0.8, 0.000001, 0.9, 0.000001, 1.0, 0.000001, 1.1, 0.000001
1.2, 0, 1.3, 3.0000000000000004e-8, 1.4, 0.000002
*Amplitude, name=r3, time=TOTAL TIME
0.0, 0, 0.1, 0.000002, 0.2, 0.000002, 0.3, 0.000002
0.4, 0.000002, 0.5, 0.000006, 0.6, 0.000002, 0.7, 0
0.8, 0, 0.9, 0, 1.0, 0.000003, 1.1, 0
1.2, 0, 1.3, 0.0000035, 1.4, 0.0000035
*Amplitude, name=z3, time=TOTAL TIME
0.0, 0, 0.1, 0, 0.2, 0, 0.3, 0
0.4, 0, 0.5, 0, 0.6, 0, 0.7, 0.000001
0.8, 0.000001, 0.9, 0.000001, 1.0, 0.000001, 1.1, 0.000001
1.2, 0, 1.3, -4e-8, 1.4, 0.000002
*Amplitude, name=r4, time=TOTAL TIME
0.0, 0, 0.1, 0.000002, 0.2, 0.000002, 0.3, 0.000002
0.4, 0.000002, 0.5, 0.000002, 0.6, 0.000006, 0.7, 0
0.8, 0, 0.9, 0, 1.0, 0, 1.1, 0.000003
1.2, 0, 1.3, 0.000004, 1.4, 0.000004
*Amplitude, name=z4, time=TOTAL TIME
0.0, 0, 0.1, 0, 0.2, 0, 0.3, 0
0.4, 0, 0.5, 0, 0.6, 0, 0.7, 0.000001
0.8, 0.000001, 0.9, 0.000001, 1.0, 0.000001, 1.1, 0.000001
1.2, 0, 1.3, 5e-8, 1.4, 0.000002
*Step, name=RECOVERY, nlgeom=NO, inc=14
*Coupled Temperature-Displacement
0.1, 1.4, 0.1, 0.1
*Controls, parameters=FIELD, field=DISPLACEMENT
1e-10, 1e-10, , , , 1e-10
*Boundary
ALL, 11, 11, 600
FIXED, 1, 2, 0
*Boundary, amplitude=r0
C0, 1, 1, 1
*Boundary, amplitude=z0
C0, 2, 2, 1
*Boundary, amplitude=r1
C1, 1, 1, 1
*Boundary, amplitude=z1
C1, 2, 2, 1
*Boundary, amplitude=r2
C2, 1, 1, 1
*Boundary, amplitude=z2
C2, 2, 2, 1
*Boundary, amplitude=r3
C3, 1, 1, 1
*Boundary, amplitude=z3
C3, 2, 2, 1
*Boundary, amplitude=r4
C4, 1, 1, 1
*Boundary, amplitude=z4
C4, 2, 2, 1
*Output, field, frequency=1
*Node Output
NT, U, RF, RFL
*Element Output
S, EE, COORD, IVOL, HFL
*Contact Output
CSTRESS, CDISP, CFORCE
*Output, history, frequency=0
*End Step
