*Heading
** Abaqus 2025 density/capacity identification; explicit complete input.
** All nodal fields prescribed; k=1e-20, alpha=0. One thermal basis per disconnected element.
** Steps: reference, deformation A, hold A, deformation B, return reference.
*Preprint, echo=NO, model=NO, history=NO, contact=NO
*Node
1, 0, 0, 3
2, 0.5, 0, 3
3, 0.5, 1, 3
4, 0, 1, 3
5, 0, 0, 4
6, 0.5, 0, 4
7, 0.5, 1, 4
8, 0, 1, 4
9, 0, 0, 6
10, 0.5, 0, 6
11, 0.5, 1, 6
12, 0, 1, 6
13, 0, 0, 7
14, 0.5, 0, 7
15, 0.5, 1, 7
16, 0, 1, 7
17, 0, 0, 9
18, 0.5, 0, 9
19, 0.5, 1, 9
20, 0, 1, 9
21, 0, 0, 10
22, 0.5, 0, 10
23, 0.5, 1, 10
24, 0, 1, 10
25, 0, 0, 12
26, 0.5, 0, 12
27, 0.5, 1, 12
28, 0, 1, 12
29, 0, 0, 13
30, 0.5, 0, 13
31, 0.5, 1, 13
32, 0, 1, 13
33, 0, 0, 15
34, 0.5, 0, 15
35, 0.5, 1, 15
36, 0, 1, 15
37, 0, 0, 16
38, 0.5, 0, 16
39, 0.5, 1, 16
40, 0, 1, 16
41, 0, 0, 18
42, 0.5, 0, 18
43, 0.5, 1, 18
44, 0, 1, 18
45, 0, 0, 19
46, 0.5, 0, 19
47, 0.5, 1, 19
48, 0, 1, 19
49, 0, 0, 21
50, 0.5, 0, 21
51, 0.5, 1, 21
52, 0, 1, 21
53, 0, 0, 22
54, 0.5, 0, 22
55, 0.5, 1, 22
56, 0, 1, 22
57, 0, 0, 24
58, 0.5, 0, 24
59, 0.5, 1, 24
60, 0, 1, 24
61, 0, 0, 25
62, 0.5, 0, 25
63, 0.5, 1, 25
64, 0, 1, 25
65, 0, 0, 27
66, 0.5, 0, 27
67, 0.5, 1, 27
68, 0, 1, 27
69, 0, 0, 28
70, 0.5, 0, 28
71, 0.5, 1, 28
72, 0, 1, 28
73, 0, 0, 30
74, 0.5, 0, 30
75, 0.5, 1, 30
76, 0, 1, 30
77, 0, 0, 31
78, 0.5, 0, 31
79, 0.5, 1, 31
80, 0, 1, 31
81, 0, 0, 33
82, 0.5, 0, 33
83, 0.5, 1, 33
84, 0, 1, 33
85, 0, 0, 34
86, 0.5, 0, 34
87, 0.5, 1, 34
88, 0, 1, 34
89, 0, 0, 36
90, 0.5, 0, 36
91, 0.5, 1, 36
92, 0, 1, 36
93, 0, 0, 37
94, 0.5, 0, 37
95, 0.5, 1, 37
96, 0, 1, 37
97, 0, 0, 39
98, 0.5, 0, 39
99, 0.5, 1, 39
100, 0, 1, 39
101, 0, 0, 40
102, 0.5, 0, 40
103, 0.5, 1, 40
104, 0, 1, 40
105, 0, 0, 42
106, 0.5, 0, 42
107, 0.5, 1, 42
108, 0, 1, 42
109, 0, 0, 43
110, 0.5, 0, 43
111, 0.5, 1, 43
112, 0, 1, 43
113, 0, 0, 45
114, 0.5, 0, 45
115, 0.5, 1, 45
116, 0, 1, 45
117, 0, 0, 46
118, 0.5, 0, 46
119, 0.5, 1, 46
120, 0, 1, 46
121, 0, 0, 48
122, 0.5, 0, 48
123, 0.5, 1, 48
124, 0, 1, 48
125, 0, 0, 49
126, 0.5, 0, 49
127, 0.5, 1, 49
128, 0, 1, 49
129, 0, 0, 51
130, 0.5, 0, 51
131, 0.5, 1, 51
132, 0, 1, 51
133, 0, 0, 52
134, 0.5, 0, 52
135, 0.5, 1, 52
136, 0, 1, 52
137, 0, 0, 54
138, 0.5, 0, 54
139, 0.5, 1, 54
140, 0, 1, 54
141, 0, 0, 55
142, 0.5, 0, 55
143, 0.5, 1, 55
144, 0, 1, 55
145, 0, 0, 57
146, 0.5, 0, 57
147, 0.5, 1, 57
148, 0, 1, 57
149, 0, 0, 58
150, 0.5, 0, 58
151, 0.5, 1, 58
152, 0, 1, 58
153, 0, 0, 60
154, 0.5, 0, 60
155, 0.5, 1, 60
156, 0, 1, 60
157, 0, 0, 61
158, 0.5, 0, 61
159, 0.5, 1, 61
160, 0, 1, 61
161, 0, 0, 63
162, 0.5, 0, 63
163, 0.5, 1, 63
164, 0, 1, 63
165, 0, 0, 64
166, 0.5, 0, 64
167, 0.5, 1, 64
168, 0, 1, 64
169, 0, 0, 66
170, 0.5, 0, 66
171, 0.5, 1, 66
172, 0, 1, 66
173, 0, 0, 67
174, 0.5, 0, 67
175, 0.5, 1, 67
176, 0, 1, 67
177, 0, 0, 69
178, 0.5, 0, 69
179, 0.5, 1, 69
180, 0, 1, 69
181, 0, 0, 70
182, 0.5, 0, 70
183, 0.5, 1, 70
184, 0, 1, 70
185, 0, 0, 72
186, 0.5, 0, 72
187, 0.5, 1, 72
188, 0, 1, 72
189, 0, 0, 73
190, 0.5, 0, 73
191, 0.5, 1, 73
192, 0, 1, 73
193, 0, 0, 75
194, 1.2, 0.10000000000000001, 74.950000000000003
195, 1.1000000000000001, 1, 75.099999999999994
196, -0.10000000000000001, 0.90000000000000002, 75
197, 0.050000000000000003, -0.10000000000000001, 76
198, 1.3, 0, 76.099999999999994
199, 1, 1.2, 75.900000000000006
200, -0.20000000000000001, 1, 76.200000000000003
201, 0, 0, 78
202, 1.2, 0.10000000000000001, 77.950000000000003
203, 1.1000000000000001, 1, 78.099999999999994
204, -0.10000000000000001, 0.90000000000000002, 78
205, 0.050000000000000003, -0.10000000000000001, 79
206, 1.3, 0, 79.099999999999994
207, 1, 1.2, 78.900000000000006
208, -0.20000000000000001, 1, 79.200000000000003
209, 0, 0, 81
210, 1.2, 0.10000000000000001, 80.950000000000003
211, 1.1000000000000001, 1, 81.099999999999994
212, -0.10000000000000001, 0.90000000000000002, 81
213, 0.050000000000000003, -0.10000000000000001, 82
214, 1.3, 0, 82.099999999999994
215, 1, 1.2, 81.900000000000006
216, -0.20000000000000001, 1, 82.200000000000003
217, 0, 0, 84
218, 1.2, 0.10000000000000001, 83.950000000000003
219, 1.1000000000000001, 1, 84.099999999999994
220, -0.10000000000000001, 0.90000000000000002, 84
221, 0.050000000000000003, -0.10000000000000001, 85
222, 1.3, 0, 85.099999999999994
223, 1, 1.2, 84.900000000000006
224, -0.20000000000000001, 1, 85.200000000000003
225, 0, 0, 87
226, 1.2, 0.10000000000000001, 86.950000000000003
227, 1.1000000000000001, 1, 87.099999999999994
228, -0.10000000000000001, 0.90000000000000002, 87
229, 0.050000000000000003, -0.10000000000000001, 88
230, 1.3, 0, 88.099999999999994
231, 1, 1.2, 87.900000000000006
232, -0.20000000000000001, 1, 88.200000000000003
233, 0, 0, 90
234, 1.2, 0.10000000000000001, 89.950000000000003
235, 1.1000000000000001, 1, 90.099999999999994
236, -0.10000000000000001, 0.90000000000000002, 90
237, 0.050000000000000003, -0.10000000000000001, 91
238, 1.3, 0, 91.099999999999994
239, 1, 1.2, 90.900000000000006
240, -0.20000000000000001, 1, 91.200000000000003
241, 0, 0, 93
242, 1.2, 0.10000000000000001, 92.950000000000003
243, 1.1000000000000001, 1, 93.099999999999994
244, -0.10000000000000001, 0.90000000000000002, 93
245, 0.050000000000000003, -0.10000000000000001, 94
246, 1.3, 0, 94.099999999999994
247, 1, 1.2, 93.900000000000006
248, -0.20000000000000001, 1, 94.200000000000003
249, 0, 0, 96
250, 1.2, 0.10000000000000001, 95.950000000000003
251, 1.1000000000000001, 1, 96.099999999999994
252, -0.10000000000000001, 0.90000000000000002, 96
253, 0.050000000000000003, -0.10000000000000001, 97
254, 1.3, 0, 97.099999999999994
255, 1, 1.2, 96.900000000000006
256, -0.20000000000000001, 1, 97.200000000000003
257, 0, 0, 99
258, 1.2, 0.10000000000000001, 98.950000000000003
259, 1.1000000000000001, 1, 99.099999999999994
260, -0.10000000000000001, 0.90000000000000002, 99
261, 0.050000000000000003, -0.10000000000000001, 100
262, 1.3, 0, 100.09999999999999
263, 1, 1.2, 99.900000000000006
264, -0.20000000000000001, 1, 100.2
265, 0, 0, 102
266, 1.2, 0.10000000000000001, 101.95
267, 1.1000000000000001, 1, 102.09999999999999
268, -0.10000000000000001, 0.90000000000000002, 102
269, 0.050000000000000003, -0.10000000000000001, 103
270, 1.3, 0, 103.09999999999999
271, 1, 1.2, 102.90000000000001
272, -0.20000000000000001, 1, 103.2
273, 0, 0, 105
274, 1.2, 0.10000000000000001, 104.95
275, 1.1000000000000001, 1, 105.09999999999999
276, -0.10000000000000001, 0.90000000000000002, 105
277, 0.050000000000000003, -0.10000000000000001, 106
278, 1.3, 0, 106.09999999999999
279, 1, 1.2, 105.90000000000001
280, -0.20000000000000001, 1, 106.2
281, 0, 0, 108
282, 1.2, 0.10000000000000001, 107.95
283, 1.1000000000000001, 1, 108.09999999999999
284, -0.10000000000000001, 0.90000000000000002, 108
285, 0.050000000000000003, -0.10000000000000001, 109
286, 1.3, 0, 109.09999999999999
287, 1, 1.2, 108.90000000000001
288, -0.20000000000000001, 1, 109.2
289, 0, 0, 111
290, 1.2, 0.10000000000000001, 110.95
291, 1.1000000000000001, 1, 111.09999999999999
292, -0.10000000000000001, 0.90000000000000002, 111
293, 0.050000000000000003, -0.10000000000000001, 112
294, 1.3, 0, 112.09999999999999
295, 1, 1.2, 111.90000000000001
296, -0.20000000000000001, 1, 112.2
297, 0, 0, 114
298, 1.2, 0.10000000000000001, 113.95
299, 1.1000000000000001, 1, 114.09999999999999
300, -0.10000000000000001, 0.90000000000000002, 114
301, 0.050000000000000003, -0.10000000000000001, 115
302, 1.3, 0, 115.09999999999999
303, 1, 1.2, 114.90000000000001
304, -0.20000000000000001, 1, 115.2
305, 0, 0, 117
306, 1.2, 0.10000000000000001, 116.95
307, 1.1000000000000001, 1, 117.09999999999999
308, -0.10000000000000001, 0.90000000000000002, 117
309, 0.050000000000000003, -0.10000000000000001, 118
310, 1.3, 0, 118.09999999999999
311, 1, 1.2, 117.90000000000001
312, -0.20000000000000001, 1, 118.2
313, 0, 0, 120
314, 1.2, 0.10000000000000001, 119.95
315, 1.1000000000000001, 1, 120.09999999999999
316, -0.10000000000000001, 0.90000000000000002, 120
317, 0.050000000000000003, -0.10000000000000001, 121
318, 1.3, 0, 121.09999999999999
319, 1, 1.2, 120.90000000000001
320, -0.20000000000000001, 1, 121.2
321, 0, 0, 123
322, 1.2, 0.10000000000000001, 122.95
323, 1.1000000000000001, 1, 123.09999999999999
324, -0.10000000000000001, 0.90000000000000002, 123
325, 0.050000000000000003, -0.10000000000000001, 124
326, 1.3, 0, 124.09999999999999
327, 1, 1.2, 123.90000000000001
328, -0.20000000000000001, 1, 124.2
329, 0, 0, 126
330, 1.2, 0.10000000000000001, 125.95
331, 1.1000000000000001, 1, 126.09999999999999
332, -0.10000000000000001, 0.90000000000000002, 126
333, 0.050000000000000003, -0.10000000000000001, 127
334, 1.3, 0, 127.09999999999999
335, 1, 1.2, 126.90000000000001
336, -0.20000000000000001, 1, 127.2
337, 0, 0, 129
338, 1.2, 0.10000000000000001, 128.94999999999999
339, 1.1000000000000001, 1, 129.09999999999999
340, -0.10000000000000001, 0.90000000000000002, 129
341, 0.050000000000000003, -0.10000000000000001, 130
342, 1.3, 0, 130.09999999999999
343, 1, 1.2, 129.90000000000001
344, -0.20000000000000001, 1, 130.19999999999999
345, 0, 0, 132
346, 1.2, 0.10000000000000001, 131.94999999999999
347, 1.1000000000000001, 1, 132.09999999999999
348, -0.10000000000000001, 0.90000000000000002, 132
349, 0.050000000000000003, -0.10000000000000001, 133
350, 1.3, 0, 133.09999999999999
351, 1, 1.2, 132.90000000000001
352, -0.20000000000000001, 1, 133.19999999999999
353, 0, 0, 135
354, 1.2, 0.10000000000000001, 134.94999999999999
355, 1.1000000000000001, 1, 135.09999999999999
356, -0.10000000000000001, 0.90000000000000002, 135
357, 0.050000000000000003, -0.10000000000000001, 136
358, 1.3, 0, 136.09999999999999
359, 1, 1.2, 135.90000000000001
360, -0.20000000000000001, 1, 136.19999999999999
361, 0, 0, 138
362, 1.2, 0.10000000000000001, 137.94999999999999
363, 1.1000000000000001, 1, 138.09999999999999
364, -0.10000000000000001, 0.90000000000000002, 138
365, 0.050000000000000003, -0.10000000000000001, 139
366, 1.3, 0, 139.09999999999999
367, 1, 1.2, 138.90000000000001
368, -0.20000000000000001, 1, 139.19999999999999
369, 0, 0, 141
370, 1.2, 0.10000000000000001, 140.94999999999999
371, 1.1000000000000001, 1, 141.09999999999999
372, -0.10000000000000001, 0.90000000000000002, 141
373, 0.050000000000000003, -0.10000000000000001, 142
374, 1.3, 0, 142.09999999999999
375, 1, 1.2, 141.90000000000001
376, -0.20000000000000001, 1, 142.19999999999999
377, 0, 0, 144
378, 1.2, 0.10000000000000001, 143.94999999999999
379, 1.1000000000000001, 1, 144.09999999999999
380, -0.10000000000000001, 0.90000000000000002, 144
381, 0.050000000000000003, -0.10000000000000001, 145
382, 1.3, 0, 145.09999999999999
383, 1, 1.2, 144.90000000000001
384, -0.20000000000000001, 1, 145.19999999999999
385, 0, 0, 147
386, 0.5, 0, 147
387, 0.5, 1, 147
388, 0, 1, 147
389, 0, 0, 148
390, 0.5, 0, 148
391, 0.5, 1, 148
392, 0, 1, 148
393, 0, 0, 150
394, 0.5, 0, 150
395, 0.5, 1, 150
396, 0, 1, 150
397, 0, 0, 151
398, 0.5, 0, 151
399, 0.5, 1, 151
400, 0, 1, 151
401, 0, 0, 153
402, 0.5, 0, 153
403, 0.5, 1, 153
404, 0, 1, 153
405, 0, 0, 154
406, 0.5, 0, 154
407, 0.5, 1, 154
408, 0, 1, 154
409, 0, 0, 156
410, 0.5, 0, 156
411, 0.5, 1, 156
412, 0, 1, 156
413, 0, 0, 157
414, 0.5, 0, 157
415, 0.5, 1, 157
416, 0, 1, 157
417, 0, 0, 159
418, 0.5, 0, 159
419, 0.5, 1, 159
420, 0, 1, 159
421, 0, 0, 160
422, 0.5, 0, 160
423, 0.5, 1, 160
424, 0, 1, 160
425, 0, 0, 162
426, 0.5, 0, 162
427, 0.5, 1, 162
428, 0, 1, 162
429, 0, 0, 163
430, 0.5, 0, 163
431, 0.5, 1, 163
432, 0, 1, 163
433, 0, 0, 165
434, 0.5, 0, 165
435, 0.5, 1, 165
436, 0, 1, 165
437, 0, 0, 166
438, 0.5, 0, 166
439, 0.5, 1, 166
440, 0, 1, 166
441, 0, 0, 168
442, 0.5, 0, 168
443, 0.5, 1, 168
444, 0, 1, 168
445, 0, 0, 169
446, 0.5, 0, 169
447, 0.5, 1, 169
448, 0, 1, 169
449, 0, 0, 171
450, 0.5, 0, 171
451, 0.5, 1, 171
452, 0, 1, 171
453, 0, 0, 172
454, 0.5, 0, 172
455, 0.5, 1, 172
456, 0, 1, 172
457, 0, 0, 174
458, 0.5, 0, 174
459, 0.5, 1, 174
460, 0, 1, 174
461, 0, 0, 175
462, 0.5, 0, 175
463, 0.5, 1, 175
464, 0, 1, 175
465, 0, 0, 177
466, 0.5, 0, 177
467, 0.5, 1, 177
468, 0, 1, 177
469, 0, 0, 178
470, 0.5, 0, 178
471, 0.5, 1, 178
472, 0, 1, 178
473, 0, 0, 180
474, 0.5, 0, 180
475, 0.5, 1, 180
476, 0, 1, 180
477, 0, 0, 181
478, 0.5, 0, 181
479, 0.5, 1, 181
480, 0, 1, 181
481, 0, 0, 183
482, 0.5, 0, 183
483, 0.5, 1, 183
484, 0, 1, 183
485, 0, 0, 184
486, 0.5, 0, 184
487, 0.5, 1, 184
488, 0, 1, 184
489, 0, 0, 186
490, 0.5, 0, 186
491, 0.5, 1, 186
492, 0, 1, 186
493, 0, 0, 187
494, 0.5, 0, 187
495, 0.5, 1, 187
496, 0, 1, 187
497, 0, 0, 189
498, 0.5, 0, 189
499, 0.5, 1, 189
500, 0, 1, 189
501, 0, 0, 190
502, 0.5, 0, 190
503, 0.5, 1, 190
504, 0, 1, 190
505, 0, 0, 192
506, 0.5, 0, 192
507, 0.5, 1, 192
508, 0, 1, 192
509, 0, 0, 193
510, 0.5, 0, 193
511, 0.5, 1, 193
512, 0, 1, 193
513, 0, 0, 195
514, 0.5, 0, 195
515, 0.5, 1, 195
516, 0, 1, 195
517, 0, 0, 196
518, 0.5, 0, 196
519, 0.5, 1, 196
520, 0, 1, 196
521, 0, 0, 198
522, 0.5, 0, 198
523, 0.5, 1, 198
524, 0, 1, 198
525, 0, 0, 199
526, 0.5, 0, 199
527, 0.5, 1, 199
528, 0, 1, 199
529, 0, 0, 201
530, 0.5, 0, 201
531, 0.5, 1, 201
532, 0, 1, 201
533, 0, 0, 202
534, 0.5, 0, 202
535, 0.5, 1, 202
536, 0, 1, 202
537, 0, 0, 204
538, 0.5, 0, 204
539, 0.5, 1, 204
540, 0, 1, 204
541, 0, 0, 205
542, 0.5, 0, 205
543, 0.5, 1, 205
544, 0, 1, 205
545, 0, 0, 207
546, 0.5, 0, 207
547, 0.5, 1, 207
548, 0, 1, 207
549, 0, 0, 208
550, 0.5, 0, 208
551, 0.5, 1, 208
552, 0, 1, 208
553, 0, 0, 210
554, 0.5, 0, 210
555, 0.5, 1, 210
556, 0, 1, 210
557, 0, 0, 211
558, 0.5, 0, 211
559, 0.5, 1, 211
560, 0, 1, 211
561, 0, 0, 213
562, 0.5, 0, 213
563, 0.5, 1, 213
564, 0, 1, 213
565, 0, 0, 214
566, 0.5, 0, 214
567, 0.5, 1, 214
568, 0, 1, 214
569, 0, 0, 216
570, 0.5, 0, 216
571, 0.5, 1, 216
572, 0, 1, 216
573, 0, 0, 217
574, 0.5, 0, 217
575, 0.5, 1, 217
576, 0, 1, 217
577, 0, 0, 219
578, 1.2, 0.10000000000000001, 218.94999999999999
579, 1.1000000000000001, 1, 219.09999999999999
580, -0.10000000000000001, 0.90000000000000002, 219
581, 0.050000000000000003, -0.10000000000000001, 220
582, 1.3, 0, 220.09999999999999
583, 1, 1.2, 219.90000000000001
584, -0.20000000000000001, 1, 220.19999999999999
585, 0, 0, 222
586, 1.2, 0.10000000000000001, 221.94999999999999
587, 1.1000000000000001, 1, 222.09999999999999
588, -0.10000000000000001, 0.90000000000000002, 222
589, 0.050000000000000003, -0.10000000000000001, 223
590, 1.3, 0, 223.09999999999999
591, 1, 1.2, 222.90000000000001
592, -0.20000000000000001, 1, 223.19999999999999
593, 0, 0, 225
594, 1.2, 0.10000000000000001, 224.94999999999999
595, 1.1000000000000001, 1, 225.09999999999999
596, -0.10000000000000001, 0.90000000000000002, 225
597, 0.050000000000000003, -0.10000000000000001, 226
598, 1.3, 0, 226.09999999999999
599, 1, 1.2, 225.90000000000001
600, -0.20000000000000001, 1, 226.19999999999999
601, 0, 0, 228
602, 1.2, 0.10000000000000001, 227.94999999999999
603, 1.1000000000000001, 1, 228.09999999999999
604, -0.10000000000000001, 0.90000000000000002, 228
605, 0.050000000000000003, -0.10000000000000001, 229
606, 1.3, 0, 229.09999999999999
607, 1, 1.2, 228.90000000000001
608, -0.20000000000000001, 1, 229.19999999999999
609, 0, 0, 231
610, 1.2, 0.10000000000000001, 230.94999999999999
611, 1.1000000000000001, 1, 231.09999999999999
612, -0.10000000000000001, 0.90000000000000002, 231
613, 0.050000000000000003, -0.10000000000000001, 232
614, 1.3, 0, 232.09999999999999
615, 1, 1.2, 231.90000000000001
616, -0.20000000000000001, 1, 232.19999999999999
617, 0, 0, 234
618, 1.2, 0.10000000000000001, 233.94999999999999
619, 1.1000000000000001, 1, 234.09999999999999
620, -0.10000000000000001, 0.90000000000000002, 234
621, 0.050000000000000003, -0.10000000000000001, 235
622, 1.3, 0, 235.09999999999999
623, 1, 1.2, 234.90000000000001
624, -0.20000000000000001, 1, 235.19999999999999
625, 0, 0, 237
626, 1.2, 0.10000000000000001, 236.94999999999999
627, 1.1000000000000001, 1, 237.09999999999999
628, -0.10000000000000001, 0.90000000000000002, 237
629, 0.050000000000000003, -0.10000000000000001, 238
630, 1.3, 0, 238.09999999999999
631, 1, 1.2, 237.90000000000001
632, -0.20000000000000001, 1, 238.19999999999999
633, 0, 0, 240
634, 1.2, 0.10000000000000001, 239.94999999999999
635, 1.1000000000000001, 1, 240.09999999999999
636, -0.10000000000000001, 0.90000000000000002, 240
637, 0.050000000000000003, -0.10000000000000001, 241
638, 1.3, 0, 241.09999999999999
639, 1, 1.2, 240.90000000000001
640, -0.20000000000000001, 1, 241.19999999999999
641, 0, 0, 243
642, 1.2, 0.10000000000000001, 242.94999999999999
643, 1.1000000000000001, 1, 243.09999999999999
644, -0.10000000000000001, 0.90000000000000002, 243
645, 0.050000000000000003, -0.10000000000000001, 244
646, 1.3, 0, 244.09999999999999
647, 1, 1.2, 243.90000000000001
648, -0.20000000000000001, 1, 244.19999999999999
649, 0, 0, 246
650, 1.2, 0.10000000000000001, 245.94999999999999
651, 1.1000000000000001, 1, 246.09999999999999
652, -0.10000000000000001, 0.90000000000000002, 246
653, 0.050000000000000003, -0.10000000000000001, 247
654, 1.3, 0, 247.09999999999999
655, 1, 1.2, 246.90000000000001
656, -0.20000000000000001, 1, 247.19999999999999
657, 0, 0, 249
658, 1.2, 0.10000000000000001, 248.94999999999999
659, 1.1000000000000001, 1, 249.09999999999999
660, -0.10000000000000001, 0.90000000000000002, 249
661, 0.050000000000000003, -0.10000000000000001, 250
662, 1.3, 0, 250.09999999999999
663, 1, 1.2, 249.90000000000001
664, -0.20000000000000001, 1, 250.19999999999999
665, 0, 0, 252
666, 1.2, 0.10000000000000001, 251.94999999999999
667, 1.1000000000000001, 1, 252.09999999999999
668, -0.10000000000000001, 0.90000000000000002, 252
669, 0.050000000000000003, -0.10000000000000001, 253
670, 1.3, 0, 253.09999999999999
671, 1, 1.2, 252.90000000000001
672, -0.20000000000000001, 1, 253.19999999999999
673, 0, 0, 255
674, 1.2, 0.10000000000000001, 254.94999999999999
675, 1.1000000000000001, 1, 255.09999999999999
676, -0.10000000000000001, 0.90000000000000002, 255
677, 0.050000000000000003, -0.10000000000000001, 256
678, 1.3, 0, 256.10000000000002
679, 1, 1.2, 255.90000000000001
680, -0.20000000000000001, 1, 256.19999999999999
681, 0, 0, 258
682, 1.2, 0.10000000000000001, 257.94999999999999
683, 1.1000000000000001, 1, 258.10000000000002
684, -0.10000000000000001, 0.90000000000000002, 258
685, 0.050000000000000003, -0.10000000000000001, 259
686, 1.3, 0, 259.10000000000002
687, 1, 1.2, 258.89999999999998
688, -0.20000000000000001, 1, 259.19999999999999
689, 0, 0, 261
690, 1.2, 0.10000000000000001, 260.94999999999999
691, 1.1000000000000001, 1, 261.10000000000002
692, -0.10000000000000001, 0.90000000000000002, 261
693, 0.050000000000000003, -0.10000000000000001, 262
694, 1.3, 0, 262.10000000000002
695, 1, 1.2, 261.89999999999998
696, -0.20000000000000001, 1, 262.19999999999999
697, 0, 0, 264
698, 1.2, 0.10000000000000001, 263.94999999999999
699, 1.1000000000000001, 1, 264.10000000000002
700, -0.10000000000000001, 0.90000000000000002, 264
701, 0.050000000000000003, -0.10000000000000001, 265
702, 1.3, 0, 265.10000000000002
703, 1, 1.2, 264.89999999999998
704, -0.20000000000000001, 1, 265.19999999999999
705, 0, 0, 267
706, 1.2, 0.10000000000000001, 266.94999999999999
707, 1.1000000000000001, 1, 267.10000000000002
708, -0.10000000000000001, 0.90000000000000002, 267
709, 0.050000000000000003, -0.10000000000000001, 268
710, 1.3, 0, 268.10000000000002
711, 1, 1.2, 267.89999999999998
712, -0.20000000000000001, 1, 268.19999999999999
713, 0, 0, 270
714, 1.2, 0.10000000000000001, 269.94999999999999
715, 1.1000000000000001, 1, 270.10000000000002
716, -0.10000000000000001, 0.90000000000000002, 270
717, 0.050000000000000003, -0.10000000000000001, 271
718, 1.3, 0, 271.10000000000002
719, 1, 1.2, 270.89999999999998
720, -0.20000000000000001, 1, 271.19999999999999
721, 0, 0, 273
722, 1.2, 0.10000000000000001, 272.94999999999999
723, 1.1000000000000001, 1, 273.10000000000002
724, -0.10000000000000001, 0.90000000000000002, 273
725, 0.050000000000000003, -0.10000000000000001, 274
726, 1.3, 0, 274.10000000000002
727, 1, 1.2, 273.89999999999998
728, -0.20000000000000001, 1, 274.19999999999999
729, 0, 0, 276
730, 1.2, 0.10000000000000001, 275.94999999999999
731, 1.1000000000000001, 1, 276.10000000000002
732, -0.10000000000000001, 0.90000000000000002, 276
733, 0.050000000000000003, -0.10000000000000001, 277
734, 1.3, 0, 277.10000000000002
735, 1, 1.2, 276.89999999999998
736, -0.20000000000000001, 1, 277.19999999999999
737, 0, 0, 279
738, 1.2, 0.10000000000000001, 278.94999999999999
739, 1.1000000000000001, 1, 279.10000000000002
740, -0.10000000000000001, 0.90000000000000002, 279
741, 0.050000000000000003, -0.10000000000000001, 280
742, 1.3, 0, 280.10000000000002
743, 1, 1.2, 279.89999999999998
744, -0.20000000000000001, 1, 280.19999999999999
745, 0, 0, 282
746, 1.2, 0.10000000000000001, 281.94999999999999
747, 1.1000000000000001, 1, 282.10000000000002
748, -0.10000000000000001, 0.90000000000000002, 282
749, 0.050000000000000003, -0.10000000000000001, 283
750, 1.3, 0, 283.10000000000002
751, 1, 1.2, 282.89999999999998
752, -0.20000000000000001, 1, 283.19999999999999
753, 0, 0, 285
754, 1.2, 0.10000000000000001, 284.94999999999999
755, 1.1000000000000001, 1, 285.10000000000002
756, -0.10000000000000001, 0.90000000000000002, 285
757, 0.050000000000000003, -0.10000000000000001, 286
758, 1.3, 0, 286.10000000000002
759, 1, 1.2, 285.89999999999998
760, -0.20000000000000001, 1, 286.19999999999999
761, 0, 0, 288
762, 1.2, 0.10000000000000001, 287.94999999999999
763, 1.1000000000000001, 1, 288.10000000000002
764, -0.10000000000000001, 0.90000000000000002, 288
765, 0.050000000000000003, -0.10000000000000001, 289
766, 1.3, 0, 289.10000000000002
767, 1, 1.2, 288.89999999999998
768, -0.20000000000000001, 1, 289.19999999999999
769, 1, 291
770, 2, 291
771, 2, 292
772, 1, 292
773, 1, 294
774, 2, 294
775, 2, 295
776, 1, 295
777, 1, 297
778, 2, 297
779, 2, 298
780, 1, 298
781, 1, 300
782, 2, 300
783, 2, 301
784, 1, 301
785, 1, 303
786, 2, 303
787, 2, 304
788, 1, 304
789, 1, 306
790, 2, 306
791, 2, 307
792, 1, 307
793, 1, 309
794, 2, 309
795, 2, 310
796, 1, 310
797, 1, 312
798, 2, 312
799, 2, 313
800, 1, 313
801, 1, 315
802, 2, 315
803, 2, 316
804, 1, 316
805, 1, 318
806, 2, 318
807, 2, 319
808, 1, 319
809, 1, 321
810, 2, 321
811, 2, 322
812, 1, 322
813, 1, 324
814, 2, 324
815, 2, 325
816, 1, 325
817, 1, 327
818, 2.2000000000000002, 327.10000000000002
819, 1.8999999999999999, 328.19999999999999
820, 0.84999999999999998, 327.89999999999998
821, 1, 330
822, 2.2000000000000002, 330.10000000000002
823, 1.8999999999999999, 331.19999999999999
824, 0.84999999999999998, 330.89999999999998
825, 1, 333
826, 2.2000000000000002, 333.10000000000002
827, 1.8999999999999999, 334.19999999999999
828, 0.84999999999999998, 333.89999999999998
829, 1, 336
830, 2.2000000000000002, 336.10000000000002
831, 1.8999999999999999, 337.19999999999999
832, 0.84999999999999998, 336.89999999999998
833, 1, 339
834, 2.2000000000000002, 339.10000000000002
835, 1.8999999999999999, 340.19999999999999
836, 0.84999999999999998, 339.89999999999998
837, 1, 342
838, 2.2000000000000002, 342.10000000000002
839, 1.8999999999999999, 343.19999999999999
840, 0.84999999999999998, 342.89999999999998
841, 1, 345
842, 2.2000000000000002, 345.10000000000002
843, 1.8999999999999999, 346.19999999999999
844, 0.84999999999999998, 345.89999999999998
845, 1, 348
846, 2.2000000000000002, 348.10000000000002
847, 1.8999999999999999, 349.19999999999999
848, 0.84999999999999998, 348.89999999999998
849, 1, 351
850, 2.2000000000000002, 351.10000000000002
851, 1.8999999999999999, 352.19999999999999
852, 0.84999999999999998, 351.89999999999998
853, 1, 354
854, 2.2000000000000002, 354.10000000000002
855, 1.8999999999999999, 355.19999999999999
856, 0.84999999999999998, 354.89999999999998
857, 1, 357
858, 2.2000000000000002, 357.10000000000002
859, 1.8999999999999999, 358.19999999999999
860, 0.84999999999999998, 357.89999999999998
861, 1, 360
862, 2.2000000000000002, 360.10000000000002
863, 1.8999999999999999, 361.19999999999999
864, 0.84999999999999998, 360.89999999999998
865, 1, 363
866, 2, 363
867, 2, 364
868, 1, 364
869, 1, 366
870, 2, 366
871, 2, 367
872, 1, 367
873, 1, 369
874, 2, 369
875, 2, 370
876, 1, 370
877, 1, 372
878, 2, 372
879, 2, 373
880, 1, 373
881, 1, 375
882, 2, 375
883, 2, 376
884, 1, 376
885, 1, 378
886, 2, 378
887, 2, 379
888, 1, 379
889, 1, 381
890, 2, 381
891, 2, 382
892, 1, 382
893, 1, 384
894, 2, 384
895, 2, 385
896, 1, 385
897, 1, 387
898, 2, 387
899, 2, 388
900, 1, 388
901, 1, 390
902, 2, 390
903, 2, 391
904, 1, 391
905, 1, 393
906, 2, 393
907, 2, 394
908, 1, 394
909, 1, 396
910, 2, 396
911, 2, 397
912, 1, 397
913, 1, 399
914, 2.2000000000000002, 399.10000000000002
915, 1.8999999999999999, 400.19999999999999
916, 0.84999999999999998, 399.89999999999998
917, 1, 402
918, 2.2000000000000002, 402.10000000000002
919, 1.8999999999999999, 403.19999999999999
920, 0.84999999999999998, 402.89999999999998
921, 1, 405
922, 2.2000000000000002, 405.10000000000002
923, 1.8999999999999999, 406.19999999999999
924, 0.84999999999999998, 405.89999999999998
925, 1, 408
926, 2.2000000000000002, 408.10000000000002
927, 1.8999999999999999, 409.19999999999999
928, 0.84999999999999998, 408.89999999999998
929, 1, 411
930, 2.2000000000000002, 411.10000000000002
931, 1.8999999999999999, 412.19999999999999
932, 0.84999999999999998, 411.89999999999998
933, 1, 414
934, 2.2000000000000002, 414.10000000000002
935, 1.8999999999999999, 415.19999999999999
936, 0.84999999999999998, 414.89999999999998
937, 1, 417
938, 2.2000000000000002, 417.10000000000002
939, 1.8999999999999999, 418.19999999999999
940, 0.84999999999999998, 417.89999999999998
941, 1, 420
942, 2.2000000000000002, 420.10000000000002
943, 1.8999999999999999, 421.19999999999999
944, 0.84999999999999998, 420.89999999999998
945, 1, 423
946, 2.2000000000000002, 423.10000000000002
947, 1.8999999999999999, 424.19999999999999
948, 0.84999999999999998, 423.89999999999998
949, 1, 426
950, 2.2000000000000002, 426.10000000000002
951, 1.8999999999999999, 427.19999999999999
952, 0.84999999999999998, 426.89999999999998
953, 1, 429
954, 2.2000000000000002, 429.10000000000002
955, 1.8999999999999999, 430.19999999999999
956, 0.84999999999999998, 429.89999999999998
957, 1, 432
958, 2.2000000000000002, 432.10000000000002
959, 1.8999999999999999, 433.19999999999999
960, 0.84999999999999998, 432.89999999999998
*Element, type=C3D8T, elset=E1
1, 1, 2, 3, 4, 5, 6, 7, 8
*Solid Section, elset=E1, material=CONSTANT
,
*Element, type=C3D8T, elset=E2
2, 9, 10, 11, 12, 13, 14, 15, 16
*Solid Section, elset=E2, material=CONSTANT
,
*Element, type=C3D8T, elset=E3
3, 17, 18, 19, 20, 21, 22, 23, 24
*Solid Section, elset=E3, material=CONSTANT
,
*Element, type=C3D8T, elset=E4
4, 25, 26, 27, 28, 29, 30, 31, 32
*Solid Section, elset=E4, material=CONSTANT
,
*Element, type=C3D8T, elset=E5
5, 33, 34, 35, 36, 37, 38, 39, 40
*Solid Section, elset=E5, material=CONSTANT
,
*Element, type=C3D8T, elset=E6
6, 41, 42, 43, 44, 45, 46, 47, 48
*Solid Section, elset=E6, material=CONSTANT
,
*Element, type=C3D8T, elset=E7
7, 49, 50, 51, 52, 53, 54, 55, 56
*Solid Section, elset=E7, material=CONSTANT
,
*Element, type=C3D8T, elset=E8
8, 57, 58, 59, 60, 61, 62, 63, 64
*Solid Section, elset=E8, material=CONSTANT
,
*Element, type=C3D8T, elset=E9
9, 65, 66, 67, 68, 69, 70, 71, 72
*Solid Section, elset=E9, material=DENSITY
,
*Element, type=C3D8T, elset=E10
10, 73, 74, 75, 76, 77, 78, 79, 80
*Solid Section, elset=E10, material=DENSITY
,
*Element, type=C3D8T, elset=E11
11, 81, 82, 83, 84, 85, 86, 87, 88
*Solid Section, elset=E11, material=DENSITY
,
*Element, type=C3D8T, elset=E12
12, 89, 90, 91, 92, 93, 94, 95, 96
*Solid Section, elset=E12, material=DENSITY
,
*Element, type=C3D8T, elset=E13
13, 97, 98, 99, 100, 101, 102, 103, 104
*Solid Section, elset=E13, material=DENSITY
,
*Element, type=C3D8T, elset=E14
14, 105, 106, 107, 108, 109, 110, 111, 112
*Solid Section, elset=E14, material=DENSITY
,
*Element, type=C3D8T, elset=E15
15, 113, 114, 115, 116, 117, 118, 119, 120
*Solid Section, elset=E15, material=DENSITY
,
*Element, type=C3D8T, elset=E16
16, 121, 122, 123, 124, 125, 126, 127, 128
*Solid Section, elset=E16, material=DENSITY
,
*Element, type=C3D8T, elset=E17
17, 129, 130, 131, 132, 133, 134, 135, 136
*Solid Section, elset=E17, material=DENSITY_CP
,
*Element, type=C3D8T, elset=E18
18, 137, 138, 139, 140, 141, 142, 143, 144
*Solid Section, elset=E18, material=DENSITY_CP
,
*Element, type=C3D8T, elset=E19
19, 145, 146, 147, 148, 149, 150, 151, 152
*Solid Section, elset=E19, material=DENSITY_CP
,
*Element, type=C3D8T, elset=E20
20, 153, 154, 155, 156, 157, 158, 159, 160
*Solid Section, elset=E20, material=DENSITY_CP
,
*Element, type=C3D8T, elset=E21
21, 161, 162, 163, 164, 165, 166, 167, 168
*Solid Section, elset=E21, material=DENSITY_CP
,
*Element, type=C3D8T, elset=E22
22, 169, 170, 171, 172, 173, 174, 175, 176
*Solid Section, elset=E22, material=DENSITY_CP
,
*Element, type=C3D8T, elset=E23
23, 177, 178, 179, 180, 181, 182, 183, 184
*Solid Section, elset=E23, material=DENSITY_CP
,
*Element, type=C3D8T, elset=E24
24, 185, 186, 187, 188, 189, 190, 191, 192
*Solid Section, elset=E24, material=DENSITY_CP
,
*Element, type=C3D8T, elset=E25
25, 193, 194, 195, 196, 197, 198, 199, 200
*Solid Section, elset=E25, material=CONSTANT
,
*Element, type=C3D8T, elset=E26
26, 201, 202, 203, 204, 205, 206, 207, 208
*Solid Section, elset=E26, material=CONSTANT
,
*Element, type=C3D8T, elset=E27
27, 209, 210, 211, 212, 213, 214, 215, 216
*Solid Section, elset=E27, material=CONSTANT
,
*Element, type=C3D8T, elset=E28
28, 217, 218, 219, 220, 221, 222, 223, 224
*Solid Section, elset=E28, material=CONSTANT
,
*Element, type=C3D8T, elset=E29
29, 225, 226, 227, 228, 229, 230, 231, 232
*Solid Section, elset=E29, material=CONSTANT
,
*Element, type=C3D8T, elset=E30
30, 233, 234, 235, 236, 237, 238, 239, 240
*Solid Section, elset=E30, material=CONSTANT
,
*Element, type=C3D8T, elset=E31
31, 241, 242, 243, 244, 245, 246, 247, 248
*Solid Section, elset=E31, material=CONSTANT
,
*Element, type=C3D8T, elset=E32
32, 249, 250, 251, 252, 253, 254, 255, 256
*Solid Section, elset=E32, material=CONSTANT
,
*Element, type=C3D8T, elset=E33
33, 257, 258, 259, 260, 261, 262, 263, 264
*Solid Section, elset=E33, material=DENSITY
,
*Element, type=C3D8T, elset=E34
34, 265, 266, 267, 268, 269, 270, 271, 272
*Solid Section, elset=E34, material=DENSITY
,
*Element, type=C3D8T, elset=E35
35, 273, 274, 275, 276, 277, 278, 279, 280
*Solid Section, elset=E35, material=DENSITY
,
*Element, type=C3D8T, elset=E36
36, 281, 282, 283, 284, 285, 286, 287, 288
*Solid Section, elset=E36, material=DENSITY
,
*Element, type=C3D8T, elset=E37
37, 289, 290, 291, 292, 293, 294, 295, 296
*Solid Section, elset=E37, material=DENSITY
,
*Element, type=C3D8T, elset=E38
38, 297, 298, 299, 300, 301, 302, 303, 304
*Solid Section, elset=E38, material=DENSITY
,
*Element, type=C3D8T, elset=E39
39, 305, 306, 307, 308, 309, 310, 311, 312
*Solid Section, elset=E39, material=DENSITY
,
*Element, type=C3D8T, elset=E40
40, 313, 314, 315, 316, 317, 318, 319, 320
*Solid Section, elset=E40, material=DENSITY
,
*Element, type=C3D8T, elset=E41
41, 321, 322, 323, 324, 325, 326, 327, 328
*Solid Section, elset=E41, material=DENSITY_CP
,
*Element, type=C3D8T, elset=E42
42, 329, 330, 331, 332, 333, 334, 335, 336
*Solid Section, elset=E42, material=DENSITY_CP
,
*Element, type=C3D8T, elset=E43
43, 337, 338, 339, 340, 341, 342, 343, 344
*Solid Section, elset=E43, material=DENSITY_CP
,
*Element, type=C3D8T, elset=E44
44, 345, 346, 347, 348, 349, 350, 351, 352
*Solid Section, elset=E44, material=DENSITY_CP
,
*Element, type=C3D8T, elset=E45
45, 353, 354, 355, 356, 357, 358, 359, 360
*Solid Section, elset=E45, material=DENSITY_CP
,
*Element, type=C3D8T, elset=E46
46, 361, 362, 363, 364, 365, 366, 367, 368
*Solid Section, elset=E46, material=DENSITY_CP
,
*Element, type=C3D8T, elset=E47
47, 369, 370, 371, 372, 373, 374, 375, 376
*Solid Section, elset=E47, material=DENSITY_CP
,
*Element, type=C3D8T, elset=E48
48, 377, 378, 379, 380, 381, 382, 383, 384
*Solid Section, elset=E48, material=DENSITY_CP
,
*Element, type=C3D8RT, elset=E49
49, 385, 386, 387, 388, 389, 390, 391, 392
*Solid Section, elset=E49, material=CONSTANT
,
*Element, type=C3D8RT, elset=E50
50, 393, 394, 395, 396, 397, 398, 399, 400
*Solid Section, elset=E50, material=CONSTANT
,
*Element, type=C3D8RT, elset=E51
51, 401, 402, 403, 404, 405, 406, 407, 408
*Solid Section, elset=E51, material=CONSTANT
,
*Element, type=C3D8RT, elset=E52
52, 409, 410, 411, 412, 413, 414, 415, 416
*Solid Section, elset=E52, material=CONSTANT
,
*Element, type=C3D8RT, elset=E53
53, 417, 418, 419, 420, 421, 422, 423, 424
*Solid Section, elset=E53, material=CONSTANT
,
*Element, type=C3D8RT, elset=E54
54, 425, 426, 427, 428, 429, 430, 431, 432
*Solid Section, elset=E54, material=CONSTANT
,
*Element, type=C3D8RT, elset=E55
55, 433, 434, 435, 436, 437, 438, 439, 440
*Solid Section, elset=E55, material=CONSTANT
,
*Element, type=C3D8RT, elset=E56
56, 441, 442, 443, 444, 445, 446, 447, 448
*Solid Section, elset=E56, material=CONSTANT
,
*Element, type=C3D8RT, elset=E57
57, 449, 450, 451, 452, 453, 454, 455, 456
*Solid Section, elset=E57, material=DENSITY
,
*Element, type=C3D8RT, elset=E58
58, 457, 458, 459, 460, 461, 462, 463, 464
*Solid Section, elset=E58, material=DENSITY
,
*Element, type=C3D8RT, elset=E59
59, 465, 466, 467, 468, 469, 470, 471, 472
*Solid Section, elset=E59, material=DENSITY
,
*Element, type=C3D8RT, elset=E60
60, 473, 474, 475, 476, 477, 478, 479, 480
*Solid Section, elset=E60, material=DENSITY
,
*Element, type=C3D8RT, elset=E61
61, 481, 482, 483, 484, 485, 486, 487, 488
*Solid Section, elset=E61, material=DENSITY
,
*Element, type=C3D8RT, elset=E62
62, 489, 490, 491, 492, 493, 494, 495, 496
*Solid Section, elset=E62, material=DENSITY
,
*Element, type=C3D8RT, elset=E63
63, 497, 498, 499, 500, 501, 502, 503, 504
*Solid Section, elset=E63, material=DENSITY
,
*Element, type=C3D8RT, elset=E64
64, 505, 506, 507, 508, 509, 510, 511, 512
*Solid Section, elset=E64, material=DENSITY
,
*Element, type=C3D8RT, elset=E65
65, 513, 514, 515, 516, 517, 518, 519, 520
*Solid Section, elset=E65, material=DENSITY_CP
,
*Element, type=C3D8RT, elset=E66
66, 521, 522, 523, 524, 525, 526, 527, 528
*Solid Section, elset=E66, material=DENSITY_CP
,
*Element, type=C3D8RT, elset=E67
67, 529, 530, 531, 532, 533, 534, 535, 536
*Solid Section, elset=E67, material=DENSITY_CP
,
*Element, type=C3D8RT, elset=E68
68, 537, 538, 539, 540, 541, 542, 543, 544
*Solid Section, elset=E68, material=DENSITY_CP
,
*Element, type=C3D8RT, elset=E69
69, 545, 546, 547, 548, 549, 550, 551, 552
*Solid Section, elset=E69, material=DENSITY_CP
,
*Element, type=C3D8RT, elset=E70
70, 553, 554, 555, 556, 557, 558, 559, 560
*Solid Section, elset=E70, material=DENSITY_CP
,
*Element, type=C3D8RT, elset=E71
71, 561, 562, 563, 564, 565, 566, 567, 568
*Solid Section, elset=E71, material=DENSITY_CP
,
*Element, type=C3D8RT, elset=E72
72, 569, 570, 571, 572, 573, 574, 575, 576
*Solid Section, elset=E72, material=DENSITY_CP
,
*Element, type=C3D8RT, elset=E73
73, 577, 578, 579, 580, 581, 582, 583, 584
*Solid Section, elset=E73, material=CONSTANT
,
*Element, type=C3D8RT, elset=E74
74, 585, 586, 587, 588, 589, 590, 591, 592
*Solid Section, elset=E74, material=CONSTANT
,
*Element, type=C3D8RT, elset=E75
75, 593, 594, 595, 596, 597, 598, 599, 600
*Solid Section, elset=E75, material=CONSTANT
,
*Element, type=C3D8RT, elset=E76
76, 601, 602, 603, 604, 605, 606, 607, 608
*Solid Section, elset=E76, material=CONSTANT
,
*Element, type=C3D8RT, elset=E77
77, 609, 610, 611, 612, 613, 614, 615, 616
*Solid Section, elset=E77, material=CONSTANT
,
*Element, type=C3D8RT, elset=E78
78, 617, 618, 619, 620, 621, 622, 623, 624
*Solid Section, elset=E78, material=CONSTANT
,
*Element, type=C3D8RT, elset=E79
79, 625, 626, 627, 628, 629, 630, 631, 632
*Solid Section, elset=E79, material=CONSTANT
,
*Element, type=C3D8RT, elset=E80
80, 633, 634, 635, 636, 637, 638, 639, 640
*Solid Section, elset=E80, material=CONSTANT
,
*Element, type=C3D8RT, elset=E81
81, 641, 642, 643, 644, 645, 646, 647, 648
*Solid Section, elset=E81, material=DENSITY
,
*Element, type=C3D8RT, elset=E82
82, 649, 650, 651, 652, 653, 654, 655, 656
*Solid Section, elset=E82, material=DENSITY
,
*Element, type=C3D8RT, elset=E83
83, 657, 658, 659, 660, 661, 662, 663, 664
*Solid Section, elset=E83, material=DENSITY
,
*Element, type=C3D8RT, elset=E84
84, 665, 666, 667, 668, 669, 670, 671, 672
*Solid Section, elset=E84, material=DENSITY
,
*Element, type=C3D8RT, elset=E85
85, 673, 674, 675, 676, 677, 678, 679, 680
*Solid Section, elset=E85, material=DENSITY
,
*Element, type=C3D8RT, elset=E86
86, 681, 682, 683, 684, 685, 686, 687, 688
*Solid Section, elset=E86, material=DENSITY
,
*Element, type=C3D8RT, elset=E87
87, 689, 690, 691, 692, 693, 694, 695, 696
*Solid Section, elset=E87, material=DENSITY
,
*Element, type=C3D8RT, elset=E88
88, 697, 698, 699, 700, 701, 702, 703, 704
*Solid Section, elset=E88, material=DENSITY
,
*Element, type=C3D8RT, elset=E89
89, 705, 706, 707, 708, 709, 710, 711, 712
*Solid Section, elset=E89, material=DENSITY_CP
,
*Element, type=C3D8RT, elset=E90
90, 713, 714, 715, 716, 717, 718, 719, 720
*Solid Section, elset=E90, material=DENSITY_CP
,
*Element, type=C3D8RT, elset=E91
91, 721, 722, 723, 724, 725, 726, 727, 728
*Solid Section, elset=E91, material=DENSITY_CP
,
*Element, type=C3D8RT, elset=E92
92, 729, 730, 731, 732, 733, 734, 735, 736
*Solid Section, elset=E92, material=DENSITY_CP
,
*Element, type=C3D8RT, elset=E93
93, 737, 738, 739, 740, 741, 742, 743, 744
*Solid Section, elset=E93, material=DENSITY_CP
,
*Element, type=C3D8RT, elset=E94
94, 745, 746, 747, 748, 749, 750, 751, 752
*Solid Section, elset=E94, material=DENSITY_CP
,
*Element, type=C3D8RT, elset=E95
95, 753, 754, 755, 756, 757, 758, 759, 760
*Solid Section, elset=E95, material=DENSITY_CP
,
*Element, type=C3D8RT, elset=E96
96, 761, 762, 763, 764, 765, 766, 767, 768
*Solid Section, elset=E96, material=DENSITY_CP
,
*Element, type=CAX4T, elset=E97
97, 769, 770, 771, 772
*Solid Section, elset=E97, material=CONSTANT
,
*Element, type=CAX4T, elset=E98
98, 773, 774, 775, 776
*Solid Section, elset=E98, material=CONSTANT
,
*Element, type=CAX4T, elset=E99
99, 777, 778, 779, 780
*Solid Section, elset=E99, material=CONSTANT
,
*Element, type=CAX4T, elset=E100
100, 781, 782, 783, 784
*Solid Section, elset=E100, material=CONSTANT
,
*Element, type=CAX4T, elset=E101
101, 785, 786, 787, 788
*Solid Section, elset=E101, material=DENSITY
,
*Element, type=CAX4T, elset=E102
102, 789, 790, 791, 792
*Solid Section, elset=E102, material=DENSITY
,
*Element, type=CAX4T, elset=E103
103, 793, 794, 795, 796
*Solid Section, elset=E103, material=DENSITY
,
*Element, type=CAX4T, elset=E104
104, 797, 798, 799, 800
*Solid Section, elset=E104, material=DENSITY
,
*Element, type=CAX4T, elset=E105
105, 801, 802, 803, 804
*Solid Section, elset=E105, material=DENSITY_CP
,
*Element, type=CAX4T, elset=E106
106, 805, 806, 807, 808
*Solid Section, elset=E106, material=DENSITY_CP
,
*Element, type=CAX4T, elset=E107
107, 809, 810, 811, 812
*Solid Section, elset=E107, material=DENSITY_CP
,
*Element, type=CAX4T, elset=E108
108, 813, 814, 815, 816
*Solid Section, elset=E108, material=DENSITY_CP
,
*Element, type=CAX4T, elset=E109
109, 817, 818, 819, 820
*Solid Section, elset=E109, material=CONSTANT
,
*Element, type=CAX4T, elset=E110
110, 821, 822, 823, 824
*Solid Section, elset=E110, material=CONSTANT
,
*Element, type=CAX4T, elset=E111
111, 825, 826, 827, 828
*Solid Section, elset=E111, material=CONSTANT
,
*Element, type=CAX4T, elset=E112
112, 829, 830, 831, 832
*Solid Section, elset=E112, material=CONSTANT
,
*Element, type=CAX4T, elset=E113
113, 833, 834, 835, 836
*Solid Section, elset=E113, material=DENSITY
,
*Element, type=CAX4T, elset=E114
114, 837, 838, 839, 840
*Solid Section, elset=E114, material=DENSITY
,
*Element, type=CAX4T, elset=E115
115, 841, 842, 843, 844
*Solid Section, elset=E115, material=DENSITY
,
*Element, type=CAX4T, elset=E116
116, 845, 846, 847, 848
*Solid Section, elset=E116, material=DENSITY
,
*Element, type=CAX4T, elset=E117
117, 849, 850, 851, 852
*Solid Section, elset=E117, material=DENSITY_CP
,
*Element, type=CAX4T, elset=E118
118, 853, 854, 855, 856
*Solid Section, elset=E118, material=DENSITY_CP
,
*Element, type=CAX4T, elset=E119
119, 857, 858, 859, 860
*Solid Section, elset=E119, material=DENSITY_CP
,
*Element, type=CAX4T, elset=E120
120, 861, 862, 863, 864
*Solid Section, elset=E120, material=DENSITY_CP
,
*Element, type=CAX4RT, elset=E121
121, 865, 866, 867, 868
*Solid Section, elset=E121, material=CONSTANT
,
*Element, type=CAX4RT, elset=E122
122, 869, 870, 871, 872
*Solid Section, elset=E122, material=CONSTANT
,
*Element, type=CAX4RT, elset=E123
123, 873, 874, 875, 876
*Solid Section, elset=E123, material=CONSTANT
,
*Element, type=CAX4RT, elset=E124
124, 877, 878, 879, 880
*Solid Section, elset=E124, material=CONSTANT
,
*Element, type=CAX4RT, elset=E125
125, 881, 882, 883, 884
*Solid Section, elset=E125, material=DENSITY
,
*Element, type=CAX4RT, elset=E126
126, 885, 886, 887, 888
*Solid Section, elset=E126, material=DENSITY
,
*Element, type=CAX4RT, elset=E127
127, 889, 890, 891, 892
*Solid Section, elset=E127, material=DENSITY
,
*Element, type=CAX4RT, elset=E128
128, 893, 894, 895, 896
*Solid Section, elset=E128, material=DENSITY
,
*Element, type=CAX4RT, elset=E129
129, 897, 898, 899, 900
*Solid Section, elset=E129, material=DENSITY_CP
,
*Element, type=CAX4RT, elset=E130
130, 901, 902, 903, 904
*Solid Section, elset=E130, material=DENSITY_CP
,
*Element, type=CAX4RT, elset=E131
131, 905, 906, 907, 908
*Solid Section, elset=E131, material=DENSITY_CP
,
*Element, type=CAX4RT, elset=E132
132, 909, 910, 911, 912
*Solid Section, elset=E132, material=DENSITY_CP
,
*Element, type=CAX4RT, elset=E133
133, 913, 914, 915, 916
*Solid Section, elset=E133, material=CONSTANT
,
*Element, type=CAX4RT, elset=E134
134, 917, 918, 919, 920
*Solid Section, elset=E134, material=CONSTANT
,
*Element, type=CAX4RT, elset=E135
135, 921, 922, 923, 924
*Solid Section, elset=E135, material=CONSTANT
,
*Element, type=CAX4RT, elset=E136
136, 925, 926, 927, 928
*Solid Section, elset=E136, material=CONSTANT
,
*Element, type=CAX4RT, elset=E137
137, 929, 930, 931, 932
*Solid Section, elset=E137, material=DENSITY
,
*Element, type=CAX4RT, elset=E138
138, 933, 934, 935, 936
*Solid Section, elset=E138, material=DENSITY
,
*Element, type=CAX4RT, elset=E139
139, 937, 938, 939, 940
*Solid Section, elset=E139, material=DENSITY
,
*Element, type=CAX4RT, elset=E140
140, 941, 942, 943, 944
*Solid Section, elset=E140, material=DENSITY
,
*Element, type=CAX4RT, elset=E141
141, 945, 946, 947, 948
*Solid Section, elset=E141, material=DENSITY_CP
,
*Element, type=CAX4RT, elset=E142
142, 949, 950, 951, 952
*Solid Section, elset=E142, material=DENSITY_CP
,
*Element, type=CAX4RT, elset=E143
143, 953, 954, 955, 956
*Solid Section, elset=E143, material=DENSITY_CP
,
*Element, type=CAX4RT, elset=E144
144, 957, 958, 959, 960
*Solid Section, elset=E144, material=DENSITY_CP
,
*Material, name=CONSTANT
*Elastic
1e6, .25
*Expansion
0.0
*Conductivity
1e-20
*Density
2000.0
*Specific Heat
3000
*Material, name=DENSITY
*Elastic
1e6, .25
*Expansion
0.0
*Conductivity
1e-20
*Density
2000, 300
1900, 360
1400, 420
1300, 480
*Specific Heat
3000
*Material, name=DENSITY_CP
*Elastic
1e6, .25
*Expansion
0.0
*Conductivity
1e-20
*Density
2000, 300
1900, 360
1400, 420
1300, 480
*Specific Heat
3000, 300
3720, 480
*Initial Conditions, type=TEMPERATURE
1, 300
2, 300
3, 300
4, 300
5, 300
6, 300
7, 300
8, 300
9, 300
10, 300
11, 300
12, 300
13, 300
14, 300
15, 300
16, 300
17, 300
18, 300
19, 300
20, 300
21, 300
22, 300
23, 300
24, 300
25, 300
26, 300
27, 300
28, 300
29, 300
30, 300
31, 300
32, 300
33, 300
34, 300
35, 300
36, 300
37, 300
38, 300
39, 300
40, 300
41, 300
42, 300
43, 300
44, 300
45, 300
46, 300
47, 300
48, 300
49, 300
50, 300
51, 300
52, 300
53, 300
54, 300
55, 300
56, 300
57, 300
58, 300
59, 300
60, 300
61, 300
62, 300
63, 300
64, 300
65, 310
66, 330
67, 350
68, 370
69, 390
70, 410
71, 430
72, 450
73, 310
74, 330
75, 350
76, 370
77, 390
78, 410
79, 430
80, 450
81, 310
82, 330
83, 350
84, 370
85, 390
86, 410
87, 430
88, 450
89, 310
90, 330
91, 350
92, 370
93, 390
94, 410
95, 430
96, 450
97, 310
98, 330
99, 350
100, 370
101, 390
102, 410
103, 430
104, 450
105, 310
106, 330
107, 350
108, 370
109, 390
110, 410
111, 430
112, 450
113, 310
114, 330
115, 350
116, 370
117, 390
118, 410
119, 430
120, 450
121, 310
122, 330
123, 350
124, 370
125, 390
126, 410
127, 430
128, 450
129, 310
130, 330
131, 350
132, 370
133, 390
134, 410
135, 430
136, 450
137, 310
138, 330
139, 350
140, 370
141, 390
142, 410
143, 430
144, 450
145, 310
146, 330
147, 350
148, 370
149, 390
150, 410
151, 430
152, 450
153, 310
154, 330
155, 350
156, 370
157, 390
158, 410
159, 430
160, 450
161, 310
162, 330
163, 350
164, 370
165, 390
166, 410
167, 430
168, 450
169, 310
170, 330
171, 350
172, 370
173, 390
174, 410
175, 430
176, 450
177, 310
178, 330
179, 350
180, 370
181, 390
182, 410
183, 430
184, 450
185, 310
186, 330
187, 350
188, 370
189, 390
190, 410
191, 430
192, 450
193, 300
194, 300
195, 300
196, 300
197, 300
198, 300
199, 300
200, 300
201, 300
202, 300
203, 300
204, 300
205, 300
206, 300
207, 300
208, 300
209, 300
210, 300
211, 300
212, 300
213, 300
214, 300
215, 300
216, 300
217, 300
218, 300
219, 300
220, 300
221, 300
222, 300
223, 300
224, 300
225, 300
226, 300
227, 300
228, 300
229, 300
230, 300
231, 300
232, 300
233, 300
234, 300
235, 300
236, 300
237, 300
238, 300
239, 300
240, 300
241, 300
242, 300
243, 300
244, 300
245, 300
246, 300
247, 300
248, 300
249, 300
250, 300
251, 300
252, 300
253, 300
254, 300
255, 300
256, 300
257, 310
258, 330
259, 350
260, 370
261, 390
262, 410
263, 430
264, 450
265, 310
266, 330
267, 350
268, 370
269, 390
270, 410
271, 430
272, 450
273, 310
274, 330
275, 350
276, 370
277, 390
278, 410
279, 430
280, 450
281, 310
282, 330
283, 350
284, 370
285, 390
286, 410
287, 430
288, 450
289, 310
290, 330
291, 350
292, 370
293, 390
294, 410
295, 430
296, 450
297, 310
298, 330
299, 350
300, 370
301, 390
302, 410
303, 430
304, 450
305, 310
306, 330
307, 350
308, 370
309, 390
310, 410
311, 430
312, 450
313, 310
314, 330
315, 350
316, 370
317, 390
318, 410
319, 430
320, 450
321, 310
322, 330
323, 350
324, 370
325, 390
326, 410
327, 430
328, 450
329, 310
330, 330
331, 350
332, 370
333, 390
334, 410
335, 430
336, 450
337, 310
338, 330
339, 350
340, 370
341, 390
342, 410
343, 430
344, 450
345, 310
346, 330
347, 350
348, 370
349, 390
350, 410
351, 430
352, 450
353, 310
354, 330
355, 350
356, 370
357, 390
358, 410
359, 430
360, 450
361, 310
362, 330
363, 350
364, 370
365, 390
366, 410
367, 430
368, 450
369, 310
370, 330
371, 350
372, 370
373, 390
374, 410
375, 430
376, 450
377, 310
378, 330
379, 350
380, 370
381, 390
382, 410
383, 430
384, 450
385, 300
386, 300
387, 300
388, 300
389, 300
390, 300
391, 300
392, 300
393, 300
394, 300
395, 300
396, 300
397, 300
398, 300
399, 300
400, 300
401, 300
402, 300
403, 300
404, 300
405, 300
406, 300
407, 300
408, 300
409, 300
410, 300
411, 300
412, 300
413, 300
414, 300
415, 300
416, 300
417, 300
418, 300
419, 300
420, 300
421, 300
422, 300
423, 300
424, 300
425, 300
426, 300
427, 300
428, 300
429, 300
430, 300
431, 300
432, 300
433, 300
434, 300
435, 300
436, 300
437, 300
438, 300
439, 300
440, 300
441, 300
442, 300
443, 300
444, 300
445, 300
446, 300
447, 300
448, 300
449, 310
450, 330
451, 350
452, 370
453, 390
454, 410
455, 430
456, 450
457, 310
458, 330
459, 350
460, 370
461, 390
462, 410
463, 430
464, 450
465, 310
466, 330
467, 350
468, 370
469, 390
470, 410
471, 430
472, 450
473, 310
474, 330
475, 350
476, 370
477, 390
478, 410
479, 430
480, 450
481, 310
482, 330
483, 350
484, 370
485, 390
486, 410
487, 430
488, 450
489, 310
490, 330
491, 350
492, 370
493, 390
494, 410
495, 430
496, 450
497, 310
498, 330
499, 350
500, 370
501, 390
502, 410
503, 430
504, 450
505, 310
506, 330
507, 350
508, 370
509, 390
510, 410
511, 430
512, 450
513, 310
514, 330
515, 350
516, 370
517, 390
518, 410
519, 430
520, 450
521, 310
522, 330
523, 350
524, 370
525, 390
526, 410
527, 430
528, 450
529, 310
530, 330
531, 350
532, 370
533, 390
534, 410
535, 430
536, 450
537, 310
538, 330
539, 350
540, 370
541, 390
542, 410
543, 430
544, 450
545, 310
546, 330
547, 350
548, 370
549, 390
550, 410
551, 430
552, 450
553, 310
554, 330
555, 350
556, 370
557, 390
558, 410
559, 430
560, 450
561, 310
562, 330
563, 350
564, 370
565, 390
566, 410
567, 430
568, 450
569, 310
570, 330
571, 350
572, 370
573, 390
574, 410
575, 430
576, 450
577, 300
578, 300
579, 300
580, 300
581, 300
582, 300
583, 300
584, 300
585, 300
586, 300
587, 300
588, 300
589, 300
590, 300
591, 300
592, 300
593, 300
594, 300
595, 300
596, 300
597, 300
598, 300
599, 300
600, 300
601, 300
602, 300
603, 300
604, 300
605, 300
606, 300
607, 300
608, 300
609, 300
610, 300
611, 300
612, 300
613, 300
614, 300
615, 300
616, 300
617, 300
618, 300
619, 300
620, 300
621, 300
622, 300
623, 300
624, 300
625, 300
626, 300
627, 300
628, 300
629, 300
630, 300
631, 300
632, 300
633, 300
634, 300
635, 300
636, 300
637, 300
638, 300
639, 300
640, 300
641, 310
642, 330
643, 350
644, 370
645, 390
646, 410
647, 430
648, 450
649, 310
650, 330
651, 350
652, 370
653, 390
654, 410
655, 430
656, 450
657, 310
658, 330
659, 350
660, 370
661, 390
662, 410
663, 430
664, 450
665, 310
666, 330
667, 350
668, 370
669, 390
670, 410
671, 430
672, 450
673, 310
674, 330
675, 350
676, 370
677, 390
678, 410
679, 430
680, 450
681, 310
682, 330
683, 350
684, 370
685, 390
686, 410
687, 430
688, 450
689, 310
690, 330
691, 350
692, 370
693, 390
694, 410
695, 430
696, 450
697, 310
698, 330
699, 350
700, 370
701, 390
702, 410
703, 430
704, 450
705, 310
706, 330
707, 350
708, 370
709, 390
710, 410
711, 430
712, 450
713, 310
714, 330
715, 350
716, 370
717, 390
718, 410
719, 430
720, 450
721, 310
722, 330
723, 350
724, 370
725, 390
726, 410
727, 430
728, 450
729, 310
730, 330
731, 350
732, 370
733, 390
734, 410
735, 430
736, 450
737, 310
738, 330
739, 350
740, 370
741, 390
742, 410
743, 430
744, 450
745, 310
746, 330
747, 350
748, 370
749, 390
750, 410
751, 430
752, 450
753, 310
754, 330
755, 350
756, 370
757, 390
758, 410
759, 430
760, 450
761, 310
762, 330
763, 350
764, 370
765, 390
766, 410
767, 430
768, 450
769, 300
770, 300
771, 300
772, 300
773, 300
774, 300
775, 300
776, 300
777, 300
778, 300
779, 300
780, 300
781, 300
782, 300
783, 300
784, 300
785, 310
786, 330
787, 390
788, 450
789, 310
790, 330
791, 390
792, 450
793, 310
794, 330
795, 390
796, 450
797, 310
798, 330
799, 390
800, 450
801, 310
802, 330
803, 390
804, 450
805, 310
806, 330
807, 390
808, 450
809, 310
810, 330
811, 390
812, 450
813, 310
814, 330
815, 390
816, 450
817, 300
818, 300
819, 300
820, 300
821, 300
822, 300
823, 300
824, 300
825, 300
826, 300
827, 300
828, 300
829, 300
830, 300
831, 300
832, 300
833, 310
834, 330
835, 390
836, 450
837, 310
838, 330
839, 390
840, 450
841, 310
842, 330
843, 390
844, 450
845, 310
846, 330
847, 390
848, 450
849, 310
850, 330
851, 390
852, 450
853, 310
854, 330
855, 390
856, 450
857, 310
858, 330
859, 390
860, 450
861, 310
862, 330
863, 390
864, 450
865, 300
866, 300
867, 300
868, 300
869, 300
870, 300
871, 300
872, 300
873, 300
874, 300
875, 300
876, 300
877, 300
878, 300
879, 300
880, 300
881, 310
882, 330
883, 390
884, 450
885, 310
886, 330
887, 390
888, 450
889, 310
890, 330
891, 390
892, 450
893, 310
894, 330
895, 390
896, 450
897, 310
898, 330
899, 390
900, 450
901, 310
902, 330
903, 390
904, 450
905, 310
906, 330
907, 390
908, 450
909, 310
910, 330
911, 390
912, 450
913, 300
914, 300
915, 300
916, 300
917, 300
918, 300
919, 300
920, 300
921, 300
922, 300
923, 300
924, 300
925, 300
926, 300
927, 300
928, 300
929, 310
930, 330
931, 390
932, 450
933, 310
934, 330
935, 390
936, 450
937, 310
938, 330
939, 390
940, 450
941, 310
942, 330
943, 390
944, 450
945, 310
946, 330
947, 390
948, 450
949, 310
950, 330
951, 390
952, 450
953, 310
954, 330
955, 390
956, 450
957, 310
958, 330
959, 390
960, 450
*Step, name=REFERENCE, nlgeom=YES, inc=1
*Coupled Temperature-Displacement
1, 1, 1, 1
*Boundary, op=NEW
1, 1, 1, 0
1, 2, 2, 0
1, 3, 3, 0
1, 11, 11, 301
2, 1, 1, 0
2, 2, 2, 0
2, 3, 3, 0
2, 11, 11, 300
3, 1, 1, 0
3, 2, 2, 0
3, 3, 3, 0
3, 11, 11, 300
4, 1, 1, 0
4, 2, 2, 0
4, 3, 3, 0
4, 11, 11, 300
5, 1, 1, 0
5, 2, 2, 0
5, 3, 3, 0
5, 11, 11, 300
6, 1, 1, 0
6, 2, 2, 0
6, 3, 3, 0
6, 11, 11, 300
7, 1, 1, 0
7, 2, 2, 0
7, 3, 3, 0
7, 11, 11, 300
8, 1, 1, 0
8, 2, 2, 0
8, 3, 3, 0
8, 11, 11, 300
9, 1, 1, 0
9, 2, 2, 0
9, 3, 3, 0
9, 11, 11, 300
10, 1, 1, 0
10, 2, 2, 0
10, 3, 3, 0
10, 11, 11, 301
11, 1, 1, 0
11, 2, 2, 0
11, 3, 3, 0
11, 11, 11, 300
12, 1, 1, 0
12, 2, 2, 0
12, 3, 3, 0
12, 11, 11, 300
13, 1, 1, 0
13, 2, 2, 0
13, 3, 3, 0
13, 11, 11, 300
14, 1, 1, 0
14, 2, 2, 0
14, 3, 3, 0
14, 11, 11, 300
15, 1, 1, 0
15, 2, 2, 0
15, 3, 3, 0
15, 11, 11, 300
16, 1, 1, 0
16, 2, 2, 0
16, 3, 3, 0
16, 11, 11, 300
17, 1, 1, 0
17, 2, 2, 0
17, 3, 3, 0
17, 11, 11, 300
18, 1, 1, 0
18, 2, 2, 0
18, 3, 3, 0
18, 11, 11, 300
19, 1, 1, 0
19, 2, 2, 0
19, 3, 3, 0
19, 11, 11, 301
20, 1, 1, 0
20, 2, 2, 0
20, 3, 3, 0
20, 11, 11, 300
21, 1, 1, 0
21, 2, 2, 0
21, 3, 3, 0
21, 11, 11, 300
22, 1, 1, 0
22, 2, 2, 0
22, 3, 3, 0
22, 11, 11, 300
23, 1, 1, 0
23, 2, 2, 0
23, 3, 3, 0
23, 11, 11, 300
24, 1, 1, 0
24, 2, 2, 0
24, 3, 3, 0
24, 11, 11, 300
25, 1, 1, 0
25, 2, 2, 0
25, 3, 3, 0
25, 11, 11, 300
26, 1, 1, 0
26, 2, 2, 0
26, 3, 3, 0
26, 11, 11, 300
27, 1, 1, 0
27, 2, 2, 0
27, 3, 3, 0
27, 11, 11, 300
28, 1, 1, 0
28, 2, 2, 0
28, 3, 3, 0
28, 11, 11, 301
29, 1, 1, 0
29, 2, 2, 0
29, 3, 3, 0
29, 11, 11, 300
30, 1, 1, 0
30, 2, 2, 0
30, 3, 3, 0
30, 11, 11, 300
31, 1, 1, 0
31, 2, 2, 0
31, 3, 3, 0
31, 11, 11, 300
32, 1, 1, 0
32, 2, 2, 0
32, 3, 3, 0
32, 11, 11, 300
33, 1, 1, 0
33, 2, 2, 0
33, 3, 3, 0
33, 11, 11, 300
34, 1, 1, 0
34, 2, 2, 0
34, 3, 3, 0
34, 11, 11, 300
35, 1, 1, 0
35, 2, 2, 0
35, 3, 3, 0
35, 11, 11, 300
36, 1, 1, 0
36, 2, 2, 0
36, 3, 3, 0
36, 11, 11, 300
37, 1, 1, 0
37, 2, 2, 0
37, 3, 3, 0
37, 11, 11, 301
38, 1, 1, 0
38, 2, 2, 0
38, 3, 3, 0
38, 11, 11, 300
39, 1, 1, 0
39, 2, 2, 0
39, 3, 3, 0
39, 11, 11, 300
40, 1, 1, 0
40, 2, 2, 0
40, 3, 3, 0
40, 11, 11, 300
41, 1, 1, 0
41, 2, 2, 0
41, 3, 3, 0
41, 11, 11, 300
42, 1, 1, 0
42, 2, 2, 0
42, 3, 3, 0
42, 11, 11, 300
43, 1, 1, 0
43, 2, 2, 0
43, 3, 3, 0
43, 11, 11, 300
44, 1, 1, 0
44, 2, 2, 0
44, 3, 3, 0
44, 11, 11, 300
45, 1, 1, 0
45, 2, 2, 0
45, 3, 3, 0
45, 11, 11, 300
46, 1, 1, 0
46, 2, 2, 0
46, 3, 3, 0
46, 11, 11, 301
47, 1, 1, 0
47, 2, 2, 0
47, 3, 3, 0
47, 11, 11, 300
48, 1, 1, 0
48, 2, 2, 0
48, 3, 3, 0
48, 11, 11, 300
49, 1, 1, 0
49, 2, 2, 0
49, 3, 3, 0
49, 11, 11, 300
50, 1, 1, 0
50, 2, 2, 0
50, 3, 3, 0
50, 11, 11, 300
51, 1, 1, 0
51, 2, 2, 0
51, 3, 3, 0
51, 11, 11, 300
52, 1, 1, 0
52, 2, 2, 0
52, 3, 3, 0
52, 11, 11, 300
53, 1, 1, 0
53, 2, 2, 0
53, 3, 3, 0
53, 11, 11, 300
54, 1, 1, 0
54, 2, 2, 0
54, 3, 3, 0
54, 11, 11, 300
55, 1, 1, 0
55, 2, 2, 0
55, 3, 3, 0
55, 11, 11, 301
56, 1, 1, 0
56, 2, 2, 0
56, 3, 3, 0
56, 11, 11, 300
57, 1, 1, 0
57, 2, 2, 0
57, 3, 3, 0
57, 11, 11, 300
58, 1, 1, 0
58, 2, 2, 0
58, 3, 3, 0
58, 11, 11, 300
59, 1, 1, 0
59, 2, 2, 0
59, 3, 3, 0
59, 11, 11, 300
60, 1, 1, 0
60, 2, 2, 0
60, 3, 3, 0
60, 11, 11, 300
61, 1, 1, 0
61, 2, 2, 0
61, 3, 3, 0
61, 11, 11, 300
62, 1, 1, 0
62, 2, 2, 0
62, 3, 3, 0
62, 11, 11, 300
63, 1, 1, 0
63, 2, 2, 0
63, 3, 3, 0
63, 11, 11, 300
64, 1, 1, 0
64, 2, 2, 0
64, 3, 3, 0
64, 11, 11, 301
65, 1, 1, 0
65, 2, 2, 0
65, 3, 3, 0
65, 11, 11, 311
66, 1, 1, 0
66, 2, 2, 0
66, 3, 3, 0
66, 11, 11, 330
67, 1, 1, 0
67, 2, 2, 0
67, 3, 3, 0
67, 11, 11, 350
68, 1, 1, 0
68, 2, 2, 0
68, 3, 3, 0
68, 11, 11, 370
69, 1, 1, 0
69, 2, 2, 0
69, 3, 3, 0
69, 11, 11, 390
70, 1, 1, 0
70, 2, 2, 0
70, 3, 3, 0
70, 11, 11, 410
71, 1, 1, 0
71, 2, 2, 0
71, 3, 3, 0
71, 11, 11, 430
72, 1, 1, 0
72, 2, 2, 0
72, 3, 3, 0
72, 11, 11, 450
73, 1, 1, 0
73, 2, 2, 0
73, 3, 3, 0
73, 11, 11, 310
74, 1, 1, 0
74, 2, 2, 0
74, 3, 3, 0
74, 11, 11, 331
75, 1, 1, 0
75, 2, 2, 0
75, 3, 3, 0
75, 11, 11, 350
76, 1, 1, 0
76, 2, 2, 0
76, 3, 3, 0
76, 11, 11, 370
77, 1, 1, 0
77, 2, 2, 0
77, 3, 3, 0
77, 11, 11, 390
78, 1, 1, 0
78, 2, 2, 0
78, 3, 3, 0
78, 11, 11, 410
79, 1, 1, 0
79, 2, 2, 0
79, 3, 3, 0
79, 11, 11, 430
80, 1, 1, 0
80, 2, 2, 0
80, 3, 3, 0
80, 11, 11, 450
81, 1, 1, 0
81, 2, 2, 0
81, 3, 3, 0
81, 11, 11, 310
82, 1, 1, 0
82, 2, 2, 0
82, 3, 3, 0
82, 11, 11, 330
83, 1, 1, 0
83, 2, 2, 0
83, 3, 3, 0
83, 11, 11, 351
84, 1, 1, 0
84, 2, 2, 0
84, 3, 3, 0
84, 11, 11, 370
85, 1, 1, 0
85, 2, 2, 0
85, 3, 3, 0
85, 11, 11, 390
86, 1, 1, 0
86, 2, 2, 0
86, 3, 3, 0
86, 11, 11, 410
87, 1, 1, 0
87, 2, 2, 0
87, 3, 3, 0
87, 11, 11, 430
88, 1, 1, 0
88, 2, 2, 0
88, 3, 3, 0
88, 11, 11, 450
89, 1, 1, 0
89, 2, 2, 0
89, 3, 3, 0
89, 11, 11, 310
90, 1, 1, 0
90, 2, 2, 0
90, 3, 3, 0
90, 11, 11, 330
91, 1, 1, 0
91, 2, 2, 0
91, 3, 3, 0
91, 11, 11, 350
92, 1, 1, 0
92, 2, 2, 0
92, 3, 3, 0
92, 11, 11, 371
93, 1, 1, 0
93, 2, 2, 0
93, 3, 3, 0
93, 11, 11, 390
94, 1, 1, 0
94, 2, 2, 0
94, 3, 3, 0
94, 11, 11, 410
95, 1, 1, 0
95, 2, 2, 0
95, 3, 3, 0
95, 11, 11, 430
96, 1, 1, 0
96, 2, 2, 0
96, 3, 3, 0
96, 11, 11, 450
97, 1, 1, 0
97, 2, 2, 0
97, 3, 3, 0
97, 11, 11, 310
98, 1, 1, 0
98, 2, 2, 0
98, 3, 3, 0
98, 11, 11, 330
99, 1, 1, 0
99, 2, 2, 0
99, 3, 3, 0
99, 11, 11, 350
100, 1, 1, 0
100, 2, 2, 0
100, 3, 3, 0
100, 11, 11, 370
101, 1, 1, 0
101, 2, 2, 0
101, 3, 3, 0
101, 11, 11, 391
102, 1, 1, 0
102, 2, 2, 0
102, 3, 3, 0
102, 11, 11, 410
103, 1, 1, 0
103, 2, 2, 0
103, 3, 3, 0
103, 11, 11, 430
104, 1, 1, 0
104, 2, 2, 0
104, 3, 3, 0
104, 11, 11, 450
105, 1, 1, 0
105, 2, 2, 0
105, 3, 3, 0
105, 11, 11, 310
106, 1, 1, 0
106, 2, 2, 0
106, 3, 3, 0
106, 11, 11, 330
107, 1, 1, 0
107, 2, 2, 0
107, 3, 3, 0
107, 11, 11, 350
108, 1, 1, 0
108, 2, 2, 0
108, 3, 3, 0
108, 11, 11, 370
109, 1, 1, 0
109, 2, 2, 0
109, 3, 3, 0
109, 11, 11, 390
110, 1, 1, 0
110, 2, 2, 0
110, 3, 3, 0
110, 11, 11, 411
111, 1, 1, 0
111, 2, 2, 0
111, 3, 3, 0
111, 11, 11, 430
112, 1, 1, 0
112, 2, 2, 0
112, 3, 3, 0
112, 11, 11, 450
113, 1, 1, 0
113, 2, 2, 0
113, 3, 3, 0
113, 11, 11, 310
114, 1, 1, 0
114, 2, 2, 0
114, 3, 3, 0
114, 11, 11, 330
115, 1, 1, 0
115, 2, 2, 0
115, 3, 3, 0
115, 11, 11, 350
116, 1, 1, 0
116, 2, 2, 0
116, 3, 3, 0
116, 11, 11, 370
117, 1, 1, 0
117, 2, 2, 0
117, 3, 3, 0
117, 11, 11, 390
118, 1, 1, 0
118, 2, 2, 0
118, 3, 3, 0
118, 11, 11, 410
119, 1, 1, 0
119, 2, 2, 0
119, 3, 3, 0
119, 11, 11, 431
120, 1, 1, 0
120, 2, 2, 0
120, 3, 3, 0
120, 11, 11, 450
121, 1, 1, 0
121, 2, 2, 0
121, 3, 3, 0
121, 11, 11, 310
122, 1, 1, 0
122, 2, 2, 0
122, 3, 3, 0
122, 11, 11, 330
123, 1, 1, 0
123, 2, 2, 0
123, 3, 3, 0
123, 11, 11, 350
124, 1, 1, 0
124, 2, 2, 0
124, 3, 3, 0
124, 11, 11, 370
125, 1, 1, 0
125, 2, 2, 0
125, 3, 3, 0
125, 11, 11, 390
126, 1, 1, 0
126, 2, 2, 0
126, 3, 3, 0
126, 11, 11, 410
127, 1, 1, 0
127, 2, 2, 0
127, 3, 3, 0
127, 11, 11, 430
128, 1, 1, 0
128, 2, 2, 0
128, 3, 3, 0
128, 11, 11, 451
129, 1, 1, 0
129, 2, 2, 0
129, 3, 3, 0
129, 11, 11, 311
130, 1, 1, 0
130, 2, 2, 0
130, 3, 3, 0
130, 11, 11, 330
131, 1, 1, 0
131, 2, 2, 0
131, 3, 3, 0
131, 11, 11, 350
132, 1, 1, 0
132, 2, 2, 0
132, 3, 3, 0
132, 11, 11, 370
133, 1, 1, 0
133, 2, 2, 0
133, 3, 3, 0
133, 11, 11, 390
134, 1, 1, 0
134, 2, 2, 0
134, 3, 3, 0
134, 11, 11, 410
135, 1, 1, 0
135, 2, 2, 0
135, 3, 3, 0
135, 11, 11, 430
136, 1, 1, 0
136, 2, 2, 0
136, 3, 3, 0
136, 11, 11, 450
137, 1, 1, 0
137, 2, 2, 0
137, 3, 3, 0
137, 11, 11, 310
138, 1, 1, 0
138, 2, 2, 0
138, 3, 3, 0
138, 11, 11, 331
139, 1, 1, 0
139, 2, 2, 0
139, 3, 3, 0
139, 11, 11, 350
140, 1, 1, 0
140, 2, 2, 0
140, 3, 3, 0
140, 11, 11, 370
141, 1, 1, 0
141, 2, 2, 0
141, 3, 3, 0
141, 11, 11, 390
142, 1, 1, 0
142, 2, 2, 0
142, 3, 3, 0
142, 11, 11, 410
143, 1, 1, 0
143, 2, 2, 0
143, 3, 3, 0
143, 11, 11, 430
144, 1, 1, 0
144, 2, 2, 0
144, 3, 3, 0
144, 11, 11, 450
145, 1, 1, 0
145, 2, 2, 0
145, 3, 3, 0
145, 11, 11, 310
146, 1, 1, 0
146, 2, 2, 0
146, 3, 3, 0
146, 11, 11, 330
147, 1, 1, 0
147, 2, 2, 0
147, 3, 3, 0
147, 11, 11, 351
148, 1, 1, 0
148, 2, 2, 0
148, 3, 3, 0
148, 11, 11, 370
149, 1, 1, 0
149, 2, 2, 0
149, 3, 3, 0
149, 11, 11, 390
150, 1, 1, 0
150, 2, 2, 0
150, 3, 3, 0
150, 11, 11, 410
151, 1, 1, 0
151, 2, 2, 0
151, 3, 3, 0
151, 11, 11, 430
152, 1, 1, 0
152, 2, 2, 0
152, 3, 3, 0
152, 11, 11, 450
153, 1, 1, 0
153, 2, 2, 0
153, 3, 3, 0
153, 11, 11, 310
154, 1, 1, 0
154, 2, 2, 0
154, 3, 3, 0
154, 11, 11, 330
155, 1, 1, 0
155, 2, 2, 0
155, 3, 3, 0
155, 11, 11, 350
156, 1, 1, 0
156, 2, 2, 0
156, 3, 3, 0
156, 11, 11, 371
157, 1, 1, 0
157, 2, 2, 0
157, 3, 3, 0
157, 11, 11, 390
158, 1, 1, 0
158, 2, 2, 0
158, 3, 3, 0
158, 11, 11, 410
159, 1, 1, 0
159, 2, 2, 0
159, 3, 3, 0
159, 11, 11, 430
160, 1, 1, 0
160, 2, 2, 0
160, 3, 3, 0
160, 11, 11, 450
161, 1, 1, 0
161, 2, 2, 0
161, 3, 3, 0
161, 11, 11, 310
162, 1, 1, 0
162, 2, 2, 0
162, 3, 3, 0
162, 11, 11, 330
163, 1, 1, 0
163, 2, 2, 0
163, 3, 3, 0
163, 11, 11, 350
164, 1, 1, 0
164, 2, 2, 0
164, 3, 3, 0
164, 11, 11, 370
165, 1, 1, 0
165, 2, 2, 0
165, 3, 3, 0
165, 11, 11, 391
166, 1, 1, 0
166, 2, 2, 0
166, 3, 3, 0
166, 11, 11, 410
167, 1, 1, 0
167, 2, 2, 0
167, 3, 3, 0
167, 11, 11, 430
168, 1, 1, 0
168, 2, 2, 0
168, 3, 3, 0
168, 11, 11, 450
169, 1, 1, 0
169, 2, 2, 0
169, 3, 3, 0
169, 11, 11, 310
170, 1, 1, 0
170, 2, 2, 0
170, 3, 3, 0
170, 11, 11, 330
171, 1, 1, 0
171, 2, 2, 0
171, 3, 3, 0
171, 11, 11, 350
172, 1, 1, 0
172, 2, 2, 0
172, 3, 3, 0
172, 11, 11, 370
173, 1, 1, 0
173, 2, 2, 0
173, 3, 3, 0
173, 11, 11, 390
174, 1, 1, 0
174, 2, 2, 0
174, 3, 3, 0
174, 11, 11, 411
175, 1, 1, 0
175, 2, 2, 0
175, 3, 3, 0
175, 11, 11, 430
176, 1, 1, 0
176, 2, 2, 0
176, 3, 3, 0
176, 11, 11, 450
177, 1, 1, 0
177, 2, 2, 0
177, 3, 3, 0
177, 11, 11, 310
178, 1, 1, 0
178, 2, 2, 0
178, 3, 3, 0
178, 11, 11, 330
179, 1, 1, 0
179, 2, 2, 0
179, 3, 3, 0
179, 11, 11, 350
180, 1, 1, 0
180, 2, 2, 0
180, 3, 3, 0
180, 11, 11, 370
181, 1, 1, 0
181, 2, 2, 0
181, 3, 3, 0
181, 11, 11, 390
182, 1, 1, 0
182, 2, 2, 0
182, 3, 3, 0
182, 11, 11, 410
183, 1, 1, 0
183, 2, 2, 0
183, 3, 3, 0
183, 11, 11, 431
184, 1, 1, 0
184, 2, 2, 0
184, 3, 3, 0
184, 11, 11, 450
185, 1, 1, 0
185, 2, 2, 0
185, 3, 3, 0
185, 11, 11, 310
186, 1, 1, 0
186, 2, 2, 0
186, 3, 3, 0
186, 11, 11, 330
187, 1, 1, 0
187, 2, 2, 0
187, 3, 3, 0
187, 11, 11, 350
188, 1, 1, 0
188, 2, 2, 0
188, 3, 3, 0
188, 11, 11, 370
189, 1, 1, 0
189, 2, 2, 0
189, 3, 3, 0
189, 11, 11, 390
190, 1, 1, 0
190, 2, 2, 0
190, 3, 3, 0
190, 11, 11, 410
191, 1, 1, 0
191, 2, 2, 0
191, 3, 3, 0
191, 11, 11, 430
192, 1, 1, 0
192, 2, 2, 0
192, 3, 3, 0
192, 11, 11, 451
193, 1, 1, 0
193, 2, 2, 0
193, 3, 3, 0
193, 11, 11, 301
194, 1, 1, 0
194, 2, 2, 0
194, 3, 3, 0
194, 11, 11, 300
195, 1, 1, 0
195, 2, 2, 0
195, 3, 3, 0
195, 11, 11, 300
196, 1, 1, 0
196, 2, 2, 0
196, 3, 3, 0
196, 11, 11, 300
197, 1, 1, 0
197, 2, 2, 0
197, 3, 3, 0
197, 11, 11, 300
198, 1, 1, 0
198, 2, 2, 0
198, 3, 3, 0
198, 11, 11, 300
199, 1, 1, 0
199, 2, 2, 0
199, 3, 3, 0
199, 11, 11, 300
200, 1, 1, 0
200, 2, 2, 0
200, 3, 3, 0
200, 11, 11, 300
201, 1, 1, 0
201, 2, 2, 0
201, 3, 3, 0
201, 11, 11, 300
202, 1, 1, 0
202, 2, 2, 0
202, 3, 3, 0
202, 11, 11, 301
203, 1, 1, 0
203, 2, 2, 0
203, 3, 3, 0
203, 11, 11, 300
204, 1, 1, 0
204, 2, 2, 0
204, 3, 3, 0
204, 11, 11, 300
205, 1, 1, 0
205, 2, 2, 0
205, 3, 3, 0
205, 11, 11, 300
206, 1, 1, 0
206, 2, 2, 0
206, 3, 3, 0
206, 11, 11, 300
207, 1, 1, 0
207, 2, 2, 0
207, 3, 3, 0
207, 11, 11, 300
208, 1, 1, 0
208, 2, 2, 0
208, 3, 3, 0
208, 11, 11, 300
209, 1, 1, 0
209, 2, 2, 0
209, 3, 3, 0
209, 11, 11, 300
210, 1, 1, 0
210, 2, 2, 0
210, 3, 3, 0
210, 11, 11, 300
211, 1, 1, 0
211, 2, 2, 0
211, 3, 3, 0
211, 11, 11, 301
212, 1, 1, 0
212, 2, 2, 0
212, 3, 3, 0
212, 11, 11, 300
213, 1, 1, 0
213, 2, 2, 0
213, 3, 3, 0
213, 11, 11, 300
214, 1, 1, 0
214, 2, 2, 0
214, 3, 3, 0
214, 11, 11, 300
215, 1, 1, 0
215, 2, 2, 0
215, 3, 3, 0
215, 11, 11, 300
216, 1, 1, 0
216, 2, 2, 0
216, 3, 3, 0
216, 11, 11, 300
217, 1, 1, 0
217, 2, 2, 0
217, 3, 3, 0
217, 11, 11, 300
218, 1, 1, 0
218, 2, 2, 0
218, 3, 3, 0
218, 11, 11, 300
219, 1, 1, 0
219, 2, 2, 0
219, 3, 3, 0
219, 11, 11, 300
220, 1, 1, 0
220, 2, 2, 0
220, 3, 3, 0
220, 11, 11, 301
221, 1, 1, 0
221, 2, 2, 0
221, 3, 3, 0
221, 11, 11, 300
222, 1, 1, 0
222, 2, 2, 0
222, 3, 3, 0
222, 11, 11, 300
223, 1, 1, 0
223, 2, 2, 0
223, 3, 3, 0
223, 11, 11, 300
224, 1, 1, 0
224, 2, 2, 0
224, 3, 3, 0
224, 11, 11, 300
225, 1, 1, 0
225, 2, 2, 0
225, 3, 3, 0
225, 11, 11, 300
226, 1, 1, 0
226, 2, 2, 0
226, 3, 3, 0
226, 11, 11, 300
227, 1, 1, 0
227, 2, 2, 0
227, 3, 3, 0
227, 11, 11, 300
228, 1, 1, 0
228, 2, 2, 0
228, 3, 3, 0
228, 11, 11, 300
229, 1, 1, 0
229, 2, 2, 0
229, 3, 3, 0
229, 11, 11, 301
230, 1, 1, 0
230, 2, 2, 0
230, 3, 3, 0
230, 11, 11, 300
231, 1, 1, 0
231, 2, 2, 0
231, 3, 3, 0
231, 11, 11, 300
232, 1, 1, 0
232, 2, 2, 0
232, 3, 3, 0
232, 11, 11, 300
233, 1, 1, 0
233, 2, 2, 0
233, 3, 3, 0
233, 11, 11, 300
234, 1, 1, 0
234, 2, 2, 0
234, 3, 3, 0
234, 11, 11, 300
235, 1, 1, 0
235, 2, 2, 0
235, 3, 3, 0
235, 11, 11, 300
236, 1, 1, 0
236, 2, 2, 0
236, 3, 3, 0
236, 11, 11, 300
237, 1, 1, 0
237, 2, 2, 0
237, 3, 3, 0
237, 11, 11, 300
238, 1, 1, 0
238, 2, 2, 0
238, 3, 3, 0
238, 11, 11, 301
239, 1, 1, 0
239, 2, 2, 0
239, 3, 3, 0
239, 11, 11, 300
240, 1, 1, 0
240, 2, 2, 0
240, 3, 3, 0
240, 11, 11, 300
241, 1, 1, 0
241, 2, 2, 0
241, 3, 3, 0
241, 11, 11, 300
242, 1, 1, 0
242, 2, 2, 0
242, 3, 3, 0
242, 11, 11, 300
243, 1, 1, 0
243, 2, 2, 0
243, 3, 3, 0
243, 11, 11, 300
244, 1, 1, 0
244, 2, 2, 0
244, 3, 3, 0
244, 11, 11, 300
245, 1, 1, 0
245, 2, 2, 0
245, 3, 3, 0
245, 11, 11, 300
246, 1, 1, 0
246, 2, 2, 0
246, 3, 3, 0
246, 11, 11, 300
247, 1, 1, 0
247, 2, 2, 0
247, 3, 3, 0
247, 11, 11, 301
248, 1, 1, 0
248, 2, 2, 0
248, 3, 3, 0
248, 11, 11, 300
249, 1, 1, 0
249, 2, 2, 0
249, 3, 3, 0
249, 11, 11, 300
250, 1, 1, 0
250, 2, 2, 0
250, 3, 3, 0
250, 11, 11, 300
251, 1, 1, 0
251, 2, 2, 0
251, 3, 3, 0
251, 11, 11, 300
252, 1, 1, 0
252, 2, 2, 0
252, 3, 3, 0
252, 11, 11, 300
253, 1, 1, 0
253, 2, 2, 0
253, 3, 3, 0
253, 11, 11, 300
254, 1, 1, 0
254, 2, 2, 0
254, 3, 3, 0
254, 11, 11, 300
255, 1, 1, 0
255, 2, 2, 0
255, 3, 3, 0
255, 11, 11, 300
256, 1, 1, 0
256, 2, 2, 0
256, 3, 3, 0
256, 11, 11, 301
257, 1, 1, 0
257, 2, 2, 0
257, 3, 3, 0
257, 11, 11, 311
258, 1, 1, 0
258, 2, 2, 0
258, 3, 3, 0
258, 11, 11, 330
259, 1, 1, 0
259, 2, 2, 0
259, 3, 3, 0
259, 11, 11, 350
260, 1, 1, 0
260, 2, 2, 0
260, 3, 3, 0
260, 11, 11, 370
261, 1, 1, 0
261, 2, 2, 0
261, 3, 3, 0
261, 11, 11, 390
262, 1, 1, 0
262, 2, 2, 0
262, 3, 3, 0
262, 11, 11, 410
263, 1, 1, 0
263, 2, 2, 0
263, 3, 3, 0
263, 11, 11, 430
264, 1, 1, 0
264, 2, 2, 0
264, 3, 3, 0
264, 11, 11, 450
265, 1, 1, 0
265, 2, 2, 0
265, 3, 3, 0
265, 11, 11, 310
266, 1, 1, 0
266, 2, 2, 0
266, 3, 3, 0
266, 11, 11, 331
267, 1, 1, 0
267, 2, 2, 0
267, 3, 3, 0
267, 11, 11, 350
268, 1, 1, 0
268, 2, 2, 0
268, 3, 3, 0
268, 11, 11, 370
269, 1, 1, 0
269, 2, 2, 0
269, 3, 3, 0
269, 11, 11, 390
270, 1, 1, 0
270, 2, 2, 0
270, 3, 3, 0
270, 11, 11, 410
271, 1, 1, 0
271, 2, 2, 0
271, 3, 3, 0
271, 11, 11, 430
272, 1, 1, 0
272, 2, 2, 0
272, 3, 3, 0
272, 11, 11, 450
273, 1, 1, 0
273, 2, 2, 0
273, 3, 3, 0
273, 11, 11, 310
274, 1, 1, 0
274, 2, 2, 0
274, 3, 3, 0
274, 11, 11, 330
275, 1, 1, 0
275, 2, 2, 0
275, 3, 3, 0
275, 11, 11, 351
276, 1, 1, 0
276, 2, 2, 0
276, 3, 3, 0
276, 11, 11, 370
277, 1, 1, 0
277, 2, 2, 0
277, 3, 3, 0
277, 11, 11, 390
278, 1, 1, 0
278, 2, 2, 0
278, 3, 3, 0
278, 11, 11, 410
279, 1, 1, 0
279, 2, 2, 0
279, 3, 3, 0
279, 11, 11, 430
280, 1, 1, 0
280, 2, 2, 0
280, 3, 3, 0
280, 11, 11, 450
281, 1, 1, 0
281, 2, 2, 0
281, 3, 3, 0
281, 11, 11, 310
282, 1, 1, 0
282, 2, 2, 0
282, 3, 3, 0
282, 11, 11, 330
283, 1, 1, 0
283, 2, 2, 0
283, 3, 3, 0
283, 11, 11, 350
284, 1, 1, 0
284, 2, 2, 0
284, 3, 3, 0
284, 11, 11, 371
285, 1, 1, 0
285, 2, 2, 0
285, 3, 3, 0
285, 11, 11, 390
286, 1, 1, 0
286, 2, 2, 0
286, 3, 3, 0
286, 11, 11, 410
287, 1, 1, 0
287, 2, 2, 0
287, 3, 3, 0
287, 11, 11, 430
288, 1, 1, 0
288, 2, 2, 0
288, 3, 3, 0
288, 11, 11, 450
289, 1, 1, 0
289, 2, 2, 0
289, 3, 3, 0
289, 11, 11, 310
290, 1, 1, 0
290, 2, 2, 0
290, 3, 3, 0
290, 11, 11, 330
291, 1, 1, 0
291, 2, 2, 0
291, 3, 3, 0
291, 11, 11, 350
292, 1, 1, 0
292, 2, 2, 0
292, 3, 3, 0
292, 11, 11, 370
293, 1, 1, 0
293, 2, 2, 0
293, 3, 3, 0
293, 11, 11, 391
294, 1, 1, 0
294, 2, 2, 0
294, 3, 3, 0
294, 11, 11, 410
295, 1, 1, 0
295, 2, 2, 0
295, 3, 3, 0
295, 11, 11, 430
296, 1, 1, 0
296, 2, 2, 0
296, 3, 3, 0
296, 11, 11, 450
297, 1, 1, 0
297, 2, 2, 0
297, 3, 3, 0
297, 11, 11, 310
298, 1, 1, 0
298, 2, 2, 0
298, 3, 3, 0
298, 11, 11, 330
299, 1, 1, 0
299, 2, 2, 0
299, 3, 3, 0
299, 11, 11, 350
300, 1, 1, 0
300, 2, 2, 0
300, 3, 3, 0
300, 11, 11, 370
301, 1, 1, 0
301, 2, 2, 0
301, 3, 3, 0
301, 11, 11, 390
302, 1, 1, 0
302, 2, 2, 0
302, 3, 3, 0
302, 11, 11, 411
303, 1, 1, 0
303, 2, 2, 0
303, 3, 3, 0
303, 11, 11, 430
304, 1, 1, 0
304, 2, 2, 0
304, 3, 3, 0
304, 11, 11, 450
305, 1, 1, 0
305, 2, 2, 0
305, 3, 3, 0
305, 11, 11, 310
306, 1, 1, 0
306, 2, 2, 0
306, 3, 3, 0
306, 11, 11, 330
307, 1, 1, 0
307, 2, 2, 0
307, 3, 3, 0
307, 11, 11, 350
308, 1, 1, 0
308, 2, 2, 0
308, 3, 3, 0
308, 11, 11, 370
309, 1, 1, 0
309, 2, 2, 0
309, 3, 3, 0
309, 11, 11, 390
310, 1, 1, 0
310, 2, 2, 0
310, 3, 3, 0
310, 11, 11, 410
311, 1, 1, 0
311, 2, 2, 0
311, 3, 3, 0
311, 11, 11, 431
312, 1, 1, 0
312, 2, 2, 0
312, 3, 3, 0
312, 11, 11, 450
313, 1, 1, 0
313, 2, 2, 0
313, 3, 3, 0
313, 11, 11, 310
314, 1, 1, 0
314, 2, 2, 0
314, 3, 3, 0
314, 11, 11, 330
315, 1, 1, 0
315, 2, 2, 0
315, 3, 3, 0
315, 11, 11, 350
316, 1, 1, 0
316, 2, 2, 0
316, 3, 3, 0
316, 11, 11, 370
317, 1, 1, 0
317, 2, 2, 0
317, 3, 3, 0
317, 11, 11, 390
318, 1, 1, 0
318, 2, 2, 0
318, 3, 3, 0
318, 11, 11, 410
319, 1, 1, 0
319, 2, 2, 0
319, 3, 3, 0
319, 11, 11, 430
320, 1, 1, 0
320, 2, 2, 0
320, 3, 3, 0
320, 11, 11, 451
321, 1, 1, 0
321, 2, 2, 0
321, 3, 3, 0
321, 11, 11, 311
322, 1, 1, 0
322, 2, 2, 0
322, 3, 3, 0
322, 11, 11, 330
323, 1, 1, 0
323, 2, 2, 0
323, 3, 3, 0
323, 11, 11, 350
324, 1, 1, 0
324, 2, 2, 0
324, 3, 3, 0
324, 11, 11, 370
325, 1, 1, 0
325, 2, 2, 0
325, 3, 3, 0
325, 11, 11, 390
326, 1, 1, 0
326, 2, 2, 0
326, 3, 3, 0
326, 11, 11, 410
327, 1, 1, 0
327, 2, 2, 0
327, 3, 3, 0
327, 11, 11, 430
328, 1, 1, 0
328, 2, 2, 0
328, 3, 3, 0
328, 11, 11, 450
329, 1, 1, 0
329, 2, 2, 0
329, 3, 3, 0
329, 11, 11, 310
330, 1, 1, 0
330, 2, 2, 0
330, 3, 3, 0
330, 11, 11, 331
331, 1, 1, 0
331, 2, 2, 0
331, 3, 3, 0
331, 11, 11, 350
332, 1, 1, 0
332, 2, 2, 0
332, 3, 3, 0
332, 11, 11, 370
333, 1, 1, 0
333, 2, 2, 0
333, 3, 3, 0
333, 11, 11, 390
334, 1, 1, 0
334, 2, 2, 0
334, 3, 3, 0
334, 11, 11, 410
335, 1, 1, 0
335, 2, 2, 0
335, 3, 3, 0
335, 11, 11, 430
336, 1, 1, 0
336, 2, 2, 0
336, 3, 3, 0
336, 11, 11, 450
337, 1, 1, 0
337, 2, 2, 0
337, 3, 3, 0
337, 11, 11, 310
338, 1, 1, 0
338, 2, 2, 0
338, 3, 3, 0
338, 11, 11, 330
339, 1, 1, 0
339, 2, 2, 0
339, 3, 3, 0
339, 11, 11, 351
340, 1, 1, 0
340, 2, 2, 0
340, 3, 3, 0
340, 11, 11, 370
341, 1, 1, 0
341, 2, 2, 0
341, 3, 3, 0
341, 11, 11, 390
342, 1, 1, 0
342, 2, 2, 0
342, 3, 3, 0
342, 11, 11, 410
343, 1, 1, 0
343, 2, 2, 0
343, 3, 3, 0
343, 11, 11, 430
344, 1, 1, 0
344, 2, 2, 0
344, 3, 3, 0
344, 11, 11, 450
345, 1, 1, 0
345, 2, 2, 0
345, 3, 3, 0
345, 11, 11, 310
346, 1, 1, 0
346, 2, 2, 0
346, 3, 3, 0
346, 11, 11, 330
347, 1, 1, 0
347, 2, 2, 0
347, 3, 3, 0
347, 11, 11, 350
348, 1, 1, 0
348, 2, 2, 0
348, 3, 3, 0
348, 11, 11, 371
349, 1, 1, 0
349, 2, 2, 0
349, 3, 3, 0
349, 11, 11, 390
350, 1, 1, 0
350, 2, 2, 0
350, 3, 3, 0
350, 11, 11, 410
351, 1, 1, 0
351, 2, 2, 0
351, 3, 3, 0
351, 11, 11, 430
352, 1, 1, 0
352, 2, 2, 0
352, 3, 3, 0
352, 11, 11, 450
353, 1, 1, 0
353, 2, 2, 0
353, 3, 3, 0
353, 11, 11, 310
354, 1, 1, 0
354, 2, 2, 0
354, 3, 3, 0
354, 11, 11, 330
355, 1, 1, 0
355, 2, 2, 0
355, 3, 3, 0
355, 11, 11, 350
356, 1, 1, 0
356, 2, 2, 0
356, 3, 3, 0
356, 11, 11, 370
357, 1, 1, 0
357, 2, 2, 0
357, 3, 3, 0
357, 11, 11, 391
358, 1, 1, 0
358, 2, 2, 0
358, 3, 3, 0
358, 11, 11, 410
359, 1, 1, 0
359, 2, 2, 0
359, 3, 3, 0
359, 11, 11, 430
360, 1, 1, 0
360, 2, 2, 0
360, 3, 3, 0
360, 11, 11, 450
361, 1, 1, 0
361, 2, 2, 0
361, 3, 3, 0
361, 11, 11, 310
362, 1, 1, 0
362, 2, 2, 0
362, 3, 3, 0
362, 11, 11, 330
363, 1, 1, 0
363, 2, 2, 0
363, 3, 3, 0
363, 11, 11, 350
364, 1, 1, 0
364, 2, 2, 0
364, 3, 3, 0
364, 11, 11, 370
365, 1, 1, 0
365, 2, 2, 0
365, 3, 3, 0
365, 11, 11, 390
366, 1, 1, 0
366, 2, 2, 0
366, 3, 3, 0
366, 11, 11, 411
367, 1, 1, 0
367, 2, 2, 0
367, 3, 3, 0
367, 11, 11, 430
368, 1, 1, 0
368, 2, 2, 0
368, 3, 3, 0
368, 11, 11, 450
369, 1, 1, 0
369, 2, 2, 0
369, 3, 3, 0
369, 11, 11, 310
370, 1, 1, 0
370, 2, 2, 0
370, 3, 3, 0
370, 11, 11, 330
371, 1, 1, 0
371, 2, 2, 0
371, 3, 3, 0
371, 11, 11, 350
372, 1, 1, 0
372, 2, 2, 0
372, 3, 3, 0
372, 11, 11, 370
373, 1, 1, 0
373, 2, 2, 0
373, 3, 3, 0
373, 11, 11, 390
374, 1, 1, 0
374, 2, 2, 0
374, 3, 3, 0
374, 11, 11, 410
375, 1, 1, 0
375, 2, 2, 0
375, 3, 3, 0
375, 11, 11, 431
376, 1, 1, 0
376, 2, 2, 0
376, 3, 3, 0
376, 11, 11, 450
377, 1, 1, 0
377, 2, 2, 0
377, 3, 3, 0
377, 11, 11, 310
378, 1, 1, 0
378, 2, 2, 0
378, 3, 3, 0
378, 11, 11, 330
379, 1, 1, 0
379, 2, 2, 0
379, 3, 3, 0
379, 11, 11, 350
380, 1, 1, 0
380, 2, 2, 0
380, 3, 3, 0
380, 11, 11, 370
381, 1, 1, 0
381, 2, 2, 0
381, 3, 3, 0
381, 11, 11, 390
382, 1, 1, 0
382, 2, 2, 0
382, 3, 3, 0
382, 11, 11, 410
383, 1, 1, 0
383, 2, 2, 0
383, 3, 3, 0
383, 11, 11, 430
384, 1, 1, 0
384, 2, 2, 0
384, 3, 3, 0
384, 11, 11, 451
385, 1, 1, 0
385, 2, 2, 0
385, 3, 3, 0
385, 11, 11, 301
386, 1, 1, 0
386, 2, 2, 0
386, 3, 3, 0
386, 11, 11, 300
387, 1, 1, 0
387, 2, 2, 0
387, 3, 3, 0
387, 11, 11, 300
388, 1, 1, 0
388, 2, 2, 0
388, 3, 3, 0
388, 11, 11, 300
389, 1, 1, 0
389, 2, 2, 0
389, 3, 3, 0
389, 11, 11, 300
390, 1, 1, 0
390, 2, 2, 0
390, 3, 3, 0
390, 11, 11, 300
391, 1, 1, 0
391, 2, 2, 0
391, 3, 3, 0
391, 11, 11, 300
392, 1, 1, 0
392, 2, 2, 0
392, 3, 3, 0
392, 11, 11, 300
393, 1, 1, 0
393, 2, 2, 0
393, 3, 3, 0
393, 11, 11, 300
394, 1, 1, 0
394, 2, 2, 0
394, 3, 3, 0
394, 11, 11, 301
395, 1, 1, 0
395, 2, 2, 0
395, 3, 3, 0
395, 11, 11, 300
396, 1, 1, 0
396, 2, 2, 0
396, 3, 3, 0
396, 11, 11, 300
397, 1, 1, 0
397, 2, 2, 0
397, 3, 3, 0
397, 11, 11, 300
398, 1, 1, 0
398, 2, 2, 0
398, 3, 3, 0
398, 11, 11, 300
399, 1, 1, 0
399, 2, 2, 0
399, 3, 3, 0
399, 11, 11, 300
400, 1, 1, 0
400, 2, 2, 0
400, 3, 3, 0
400, 11, 11, 300
401, 1, 1, 0
401, 2, 2, 0
401, 3, 3, 0
401, 11, 11, 300
402, 1, 1, 0
402, 2, 2, 0
402, 3, 3, 0
402, 11, 11, 300
403, 1, 1, 0
403, 2, 2, 0
403, 3, 3, 0
403, 11, 11, 301
404, 1, 1, 0
404, 2, 2, 0
404, 3, 3, 0
404, 11, 11, 300
405, 1, 1, 0
405, 2, 2, 0
405, 3, 3, 0
405, 11, 11, 300
406, 1, 1, 0
406, 2, 2, 0
406, 3, 3, 0
406, 11, 11, 300
407, 1, 1, 0
407, 2, 2, 0
407, 3, 3, 0
407, 11, 11, 300
408, 1, 1, 0
408, 2, 2, 0
408, 3, 3, 0
408, 11, 11, 300
409, 1, 1, 0
409, 2, 2, 0
409, 3, 3, 0
409, 11, 11, 300
410, 1, 1, 0
410, 2, 2, 0
410, 3, 3, 0
410, 11, 11, 300
411, 1, 1, 0
411, 2, 2, 0
411, 3, 3, 0
411, 11, 11, 300
412, 1, 1, 0
412, 2, 2, 0
412, 3, 3, 0
412, 11, 11, 301
413, 1, 1, 0
413, 2, 2, 0
413, 3, 3, 0
413, 11, 11, 300
414, 1, 1, 0
414, 2, 2, 0
414, 3, 3, 0
414, 11, 11, 300
415, 1, 1, 0
415, 2, 2, 0
415, 3, 3, 0
415, 11, 11, 300
416, 1, 1, 0
416, 2, 2, 0
416, 3, 3, 0
416, 11, 11, 300
417, 1, 1, 0
417, 2, 2, 0
417, 3, 3, 0
417, 11, 11, 300
418, 1, 1, 0
418, 2, 2, 0
418, 3, 3, 0
418, 11, 11, 300
419, 1, 1, 0
419, 2, 2, 0
419, 3, 3, 0
419, 11, 11, 300
420, 1, 1, 0
420, 2, 2, 0
420, 3, 3, 0
420, 11, 11, 300
421, 1, 1, 0
421, 2, 2, 0
421, 3, 3, 0
421, 11, 11, 301
422, 1, 1, 0
422, 2, 2, 0
422, 3, 3, 0
422, 11, 11, 300
423, 1, 1, 0
423, 2, 2, 0
423, 3, 3, 0
423, 11, 11, 300
424, 1, 1, 0
424, 2, 2, 0
424, 3, 3, 0
424, 11, 11, 300
425, 1, 1, 0
425, 2, 2, 0
425, 3, 3, 0
425, 11, 11, 300
426, 1, 1, 0
426, 2, 2, 0
426, 3, 3, 0
426, 11, 11, 300
427, 1, 1, 0
427, 2, 2, 0
427, 3, 3, 0
427, 11, 11, 300
428, 1, 1, 0
428, 2, 2, 0
428, 3, 3, 0
428, 11, 11, 300
429, 1, 1, 0
429, 2, 2, 0
429, 3, 3, 0
429, 11, 11, 300
430, 1, 1, 0
430, 2, 2, 0
430, 3, 3, 0
430, 11, 11, 301
431, 1, 1, 0
431, 2, 2, 0
431, 3, 3, 0
431, 11, 11, 300
432, 1, 1, 0
432, 2, 2, 0
432, 3, 3, 0
432, 11, 11, 300
433, 1, 1, 0
433, 2, 2, 0
433, 3, 3, 0
433, 11, 11, 300
434, 1, 1, 0
434, 2, 2, 0
434, 3, 3, 0
434, 11, 11, 300
435, 1, 1, 0
435, 2, 2, 0
435, 3, 3, 0
435, 11, 11, 300
436, 1, 1, 0
436, 2, 2, 0
436, 3, 3, 0
436, 11, 11, 300
437, 1, 1, 0
437, 2, 2, 0
437, 3, 3, 0
437, 11, 11, 300
438, 1, 1, 0
438, 2, 2, 0
438, 3, 3, 0
438, 11, 11, 300
439, 1, 1, 0
439, 2, 2, 0
439, 3, 3, 0
439, 11, 11, 301
440, 1, 1, 0
440, 2, 2, 0
440, 3, 3, 0
440, 11, 11, 300
441, 1, 1, 0
441, 2, 2, 0
441, 3, 3, 0
441, 11, 11, 300
442, 1, 1, 0
442, 2, 2, 0
442, 3, 3, 0
442, 11, 11, 300
443, 1, 1, 0
443, 2, 2, 0
443, 3, 3, 0
443, 11, 11, 300
444, 1, 1, 0
444, 2, 2, 0
444, 3, 3, 0
444, 11, 11, 300
445, 1, 1, 0
445, 2, 2, 0
445, 3, 3, 0
445, 11, 11, 300
446, 1, 1, 0
446, 2, 2, 0
446, 3, 3, 0
446, 11, 11, 300
447, 1, 1, 0
447, 2, 2, 0
447, 3, 3, 0
447, 11, 11, 300
448, 1, 1, 0
448, 2, 2, 0
448, 3, 3, 0
448, 11, 11, 301
449, 1, 1, 0
449, 2, 2, 0
449, 3, 3, 0
449, 11, 11, 311
450, 1, 1, 0
450, 2, 2, 0
450, 3, 3, 0
450, 11, 11, 330
451, 1, 1, 0
451, 2, 2, 0
451, 3, 3, 0
451, 11, 11, 350
452, 1, 1, 0
452, 2, 2, 0
452, 3, 3, 0
452, 11, 11, 370
453, 1, 1, 0
453, 2, 2, 0
453, 3, 3, 0
453, 11, 11, 390
454, 1, 1, 0
454, 2, 2, 0
454, 3, 3, 0
454, 11, 11, 410
455, 1, 1, 0
455, 2, 2, 0
455, 3, 3, 0
455, 11, 11, 430
456, 1, 1, 0
456, 2, 2, 0
456, 3, 3, 0
456, 11, 11, 450
457, 1, 1, 0
457, 2, 2, 0
457, 3, 3, 0
457, 11, 11, 310
458, 1, 1, 0
458, 2, 2, 0
458, 3, 3, 0
458, 11, 11, 331
459, 1, 1, 0
459, 2, 2, 0
459, 3, 3, 0
459, 11, 11, 350
460, 1, 1, 0
460, 2, 2, 0
460, 3, 3, 0
460, 11, 11, 370
461, 1, 1, 0
461, 2, 2, 0
461, 3, 3, 0
461, 11, 11, 390
462, 1, 1, 0
462, 2, 2, 0
462, 3, 3, 0
462, 11, 11, 410
463, 1, 1, 0
463, 2, 2, 0
463, 3, 3, 0
463, 11, 11, 430
464, 1, 1, 0
464, 2, 2, 0
464, 3, 3, 0
464, 11, 11, 450
465, 1, 1, 0
465, 2, 2, 0
465, 3, 3, 0
465, 11, 11, 310
466, 1, 1, 0
466, 2, 2, 0
466, 3, 3, 0
466, 11, 11, 330
467, 1, 1, 0
467, 2, 2, 0
467, 3, 3, 0
467, 11, 11, 351
468, 1, 1, 0
468, 2, 2, 0
468, 3, 3, 0
468, 11, 11, 370
469, 1, 1, 0
469, 2, 2, 0
469, 3, 3, 0
469, 11, 11, 390
470, 1, 1, 0
470, 2, 2, 0
470, 3, 3, 0
470, 11, 11, 410
471, 1, 1, 0
471, 2, 2, 0
471, 3, 3, 0
471, 11, 11, 430
472, 1, 1, 0
472, 2, 2, 0
472, 3, 3, 0
472, 11, 11, 450
473, 1, 1, 0
473, 2, 2, 0
473, 3, 3, 0
473, 11, 11, 310
474, 1, 1, 0
474, 2, 2, 0
474, 3, 3, 0
474, 11, 11, 330
475, 1, 1, 0
475, 2, 2, 0
475, 3, 3, 0
475, 11, 11, 350
476, 1, 1, 0
476, 2, 2, 0
476, 3, 3, 0
476, 11, 11, 371
477, 1, 1, 0
477, 2, 2, 0
477, 3, 3, 0
477, 11, 11, 390
478, 1, 1, 0
478, 2, 2, 0
478, 3, 3, 0
478, 11, 11, 410
479, 1, 1, 0
479, 2, 2, 0
479, 3, 3, 0
479, 11, 11, 430
480, 1, 1, 0
480, 2, 2, 0
480, 3, 3, 0
480, 11, 11, 450
481, 1, 1, 0
481, 2, 2, 0
481, 3, 3, 0
481, 11, 11, 310
482, 1, 1, 0
482, 2, 2, 0
482, 3, 3, 0
482, 11, 11, 330
483, 1, 1, 0
483, 2, 2, 0
483, 3, 3, 0
483, 11, 11, 350
484, 1, 1, 0
484, 2, 2, 0
484, 3, 3, 0
484, 11, 11, 370
485, 1, 1, 0
485, 2, 2, 0
485, 3, 3, 0
485, 11, 11, 391
486, 1, 1, 0
486, 2, 2, 0
486, 3, 3, 0
486, 11, 11, 410
487, 1, 1, 0
487, 2, 2, 0
487, 3, 3, 0
487, 11, 11, 430
488, 1, 1, 0
488, 2, 2, 0
488, 3, 3, 0
488, 11, 11, 450
489, 1, 1, 0
489, 2, 2, 0
489, 3, 3, 0
489, 11, 11, 310
490, 1, 1, 0
490, 2, 2, 0
490, 3, 3, 0
490, 11, 11, 330
491, 1, 1, 0
491, 2, 2, 0
491, 3, 3, 0
491, 11, 11, 350
492, 1, 1, 0
492, 2, 2, 0
492, 3, 3, 0
492, 11, 11, 370
493, 1, 1, 0
493, 2, 2, 0
493, 3, 3, 0
493, 11, 11, 390
494, 1, 1, 0
494, 2, 2, 0
494, 3, 3, 0
494, 11, 11, 411
495, 1, 1, 0
495, 2, 2, 0
495, 3, 3, 0
495, 11, 11, 430
496, 1, 1, 0
496, 2, 2, 0
496, 3, 3, 0
496, 11, 11, 450
497, 1, 1, 0
497, 2, 2, 0
497, 3, 3, 0
497, 11, 11, 310
498, 1, 1, 0
498, 2, 2, 0
498, 3, 3, 0
498, 11, 11, 330
499, 1, 1, 0
499, 2, 2, 0
499, 3, 3, 0
499, 11, 11, 350
500, 1, 1, 0
500, 2, 2, 0
500, 3, 3, 0
500, 11, 11, 370
501, 1, 1, 0
501, 2, 2, 0
501, 3, 3, 0
501, 11, 11, 390
502, 1, 1, 0
502, 2, 2, 0
502, 3, 3, 0
502, 11, 11, 410
503, 1, 1, 0
503, 2, 2, 0
503, 3, 3, 0
503, 11, 11, 431
504, 1, 1, 0
504, 2, 2, 0
504, 3, 3, 0
504, 11, 11, 450
505, 1, 1, 0
505, 2, 2, 0
505, 3, 3, 0
505, 11, 11, 310
506, 1, 1, 0
506, 2, 2, 0
506, 3, 3, 0
506, 11, 11, 330
507, 1, 1, 0
507, 2, 2, 0
507, 3, 3, 0
507, 11, 11, 350
508, 1, 1, 0
508, 2, 2, 0
508, 3, 3, 0
508, 11, 11, 370
509, 1, 1, 0
509, 2, 2, 0
509, 3, 3, 0
509, 11, 11, 390
510, 1, 1, 0
510, 2, 2, 0
510, 3, 3, 0
510, 11, 11, 410
511, 1, 1, 0
511, 2, 2, 0
511, 3, 3, 0
511, 11, 11, 430
512, 1, 1, 0
512, 2, 2, 0
512, 3, 3, 0
512, 11, 11, 451
513, 1, 1, 0
513, 2, 2, 0
513, 3, 3, 0
513, 11, 11, 311
514, 1, 1, 0
514, 2, 2, 0
514, 3, 3, 0
514, 11, 11, 330
515, 1, 1, 0
515, 2, 2, 0
515, 3, 3, 0
515, 11, 11, 350
516, 1, 1, 0
516, 2, 2, 0
516, 3, 3, 0
516, 11, 11, 370
517, 1, 1, 0
517, 2, 2, 0
517, 3, 3, 0
517, 11, 11, 390
518, 1, 1, 0
518, 2, 2, 0
518, 3, 3, 0
518, 11, 11, 410
519, 1, 1, 0
519, 2, 2, 0
519, 3, 3, 0
519, 11, 11, 430
520, 1, 1, 0
520, 2, 2, 0
520, 3, 3, 0
520, 11, 11, 450
521, 1, 1, 0
521, 2, 2, 0
521, 3, 3, 0
521, 11, 11, 310
522, 1, 1, 0
522, 2, 2, 0
522, 3, 3, 0
522, 11, 11, 331
523, 1, 1, 0
523, 2, 2, 0
523, 3, 3, 0
523, 11, 11, 350
524, 1, 1, 0
524, 2, 2, 0
524, 3, 3, 0
524, 11, 11, 370
525, 1, 1, 0
525, 2, 2, 0
525, 3, 3, 0
525, 11, 11, 390
526, 1, 1, 0
526, 2, 2, 0
526, 3, 3, 0
526, 11, 11, 410
527, 1, 1, 0
527, 2, 2, 0
527, 3, 3, 0
527, 11, 11, 430
528, 1, 1, 0
528, 2, 2, 0
528, 3, 3, 0
528, 11, 11, 450
529, 1, 1, 0
529, 2, 2, 0
529, 3, 3, 0
529, 11, 11, 310
530, 1, 1, 0
530, 2, 2, 0
530, 3, 3, 0
530, 11, 11, 330
531, 1, 1, 0
531, 2, 2, 0
531, 3, 3, 0
531, 11, 11, 351
532, 1, 1, 0
532, 2, 2, 0
532, 3, 3, 0
532, 11, 11, 370
533, 1, 1, 0
533, 2, 2, 0
533, 3, 3, 0
533, 11, 11, 390
534, 1, 1, 0
534, 2, 2, 0
534, 3, 3, 0
534, 11, 11, 410
535, 1, 1, 0
535, 2, 2, 0
535, 3, 3, 0
535, 11, 11, 430
536, 1, 1, 0
536, 2, 2, 0
536, 3, 3, 0
536, 11, 11, 450
537, 1, 1, 0
537, 2, 2, 0
537, 3, 3, 0
537, 11, 11, 310
538, 1, 1, 0
538, 2, 2, 0
538, 3, 3, 0
538, 11, 11, 330
539, 1, 1, 0
539, 2, 2, 0
539, 3, 3, 0
539, 11, 11, 350
540, 1, 1, 0
540, 2, 2, 0
540, 3, 3, 0
540, 11, 11, 371
541, 1, 1, 0
541, 2, 2, 0
541, 3, 3, 0
541, 11, 11, 390
542, 1, 1, 0
542, 2, 2, 0
542, 3, 3, 0
542, 11, 11, 410
543, 1, 1, 0
543, 2, 2, 0
543, 3, 3, 0
543, 11, 11, 430
544, 1, 1, 0
544, 2, 2, 0
544, 3, 3, 0
544, 11, 11, 450
545, 1, 1, 0
545, 2, 2, 0
545, 3, 3, 0
545, 11, 11, 310
546, 1, 1, 0
546, 2, 2, 0
546, 3, 3, 0
546, 11, 11, 330
547, 1, 1, 0
547, 2, 2, 0
547, 3, 3, 0
547, 11, 11, 350
548, 1, 1, 0
548, 2, 2, 0
548, 3, 3, 0
548, 11, 11, 370
549, 1, 1, 0
549, 2, 2, 0
549, 3, 3, 0
549, 11, 11, 391
550, 1, 1, 0
550, 2, 2, 0
550, 3, 3, 0
550, 11, 11, 410
551, 1, 1, 0
551, 2, 2, 0
551, 3, 3, 0
551, 11, 11, 430
552, 1, 1, 0
552, 2, 2, 0
552, 3, 3, 0
552, 11, 11, 450
553, 1, 1, 0
553, 2, 2, 0
553, 3, 3, 0
553, 11, 11, 310
554, 1, 1, 0
554, 2, 2, 0
554, 3, 3, 0
554, 11, 11, 330
555, 1, 1, 0
555, 2, 2, 0
555, 3, 3, 0
555, 11, 11, 350
556, 1, 1, 0
556, 2, 2, 0
556, 3, 3, 0
556, 11, 11, 370
557, 1, 1, 0
557, 2, 2, 0
557, 3, 3, 0
557, 11, 11, 390
558, 1, 1, 0
558, 2, 2, 0
558, 3, 3, 0
558, 11, 11, 411
559, 1, 1, 0
559, 2, 2, 0
559, 3, 3, 0
559, 11, 11, 430
560, 1, 1, 0
560, 2, 2, 0
560, 3, 3, 0
560, 11, 11, 450
561, 1, 1, 0
561, 2, 2, 0
561, 3, 3, 0
561, 11, 11, 310
562, 1, 1, 0
562, 2, 2, 0
562, 3, 3, 0
562, 11, 11, 330
563, 1, 1, 0
563, 2, 2, 0
563, 3, 3, 0
563, 11, 11, 350
564, 1, 1, 0
564, 2, 2, 0
564, 3, 3, 0
564, 11, 11, 370
565, 1, 1, 0
565, 2, 2, 0
565, 3, 3, 0
565, 11, 11, 390
566, 1, 1, 0
566, 2, 2, 0
566, 3, 3, 0
566, 11, 11, 410
567, 1, 1, 0
567, 2, 2, 0
567, 3, 3, 0
567, 11, 11, 431
568, 1, 1, 0
568, 2, 2, 0
568, 3, 3, 0
568, 11, 11, 450
569, 1, 1, 0
569, 2, 2, 0
569, 3, 3, 0
569, 11, 11, 310
570, 1, 1, 0
570, 2, 2, 0
570, 3, 3, 0
570, 11, 11, 330
571, 1, 1, 0
571, 2, 2, 0
571, 3, 3, 0
571, 11, 11, 350
572, 1, 1, 0
572, 2, 2, 0
572, 3, 3, 0
572, 11, 11, 370
573, 1, 1, 0
573, 2, 2, 0
573, 3, 3, 0
573, 11, 11, 390
574, 1, 1, 0
574, 2, 2, 0
574, 3, 3, 0
574, 11, 11, 410
575, 1, 1, 0
575, 2, 2, 0
575, 3, 3, 0
575, 11, 11, 430
576, 1, 1, 0
576, 2, 2, 0
576, 3, 3, 0
576, 11, 11, 451
577, 1, 1, 0
577, 2, 2, 0
577, 3, 3, 0
577, 11, 11, 301
578, 1, 1, 0
578, 2, 2, 0
578, 3, 3, 0
578, 11, 11, 300
579, 1, 1, 0
579, 2, 2, 0
579, 3, 3, 0
579, 11, 11, 300
580, 1, 1, 0
580, 2, 2, 0
580, 3, 3, 0
580, 11, 11, 300
581, 1, 1, 0
581, 2, 2, 0
581, 3, 3, 0
581, 11, 11, 300
582, 1, 1, 0
582, 2, 2, 0
582, 3, 3, 0
582, 11, 11, 300
583, 1, 1, 0
583, 2, 2, 0
583, 3, 3, 0
583, 11, 11, 300
584, 1, 1, 0
584, 2, 2, 0
584, 3, 3, 0
584, 11, 11, 300
585, 1, 1, 0
585, 2, 2, 0
585, 3, 3, 0
585, 11, 11, 300
586, 1, 1, 0
586, 2, 2, 0
586, 3, 3, 0
586, 11, 11, 301
587, 1, 1, 0
587, 2, 2, 0
587, 3, 3, 0
587, 11, 11, 300
588, 1, 1, 0
588, 2, 2, 0
588, 3, 3, 0
588, 11, 11, 300
589, 1, 1, 0
589, 2, 2, 0
589, 3, 3, 0
589, 11, 11, 300
590, 1, 1, 0
590, 2, 2, 0
590, 3, 3, 0
590, 11, 11, 300
591, 1, 1, 0
591, 2, 2, 0
591, 3, 3, 0
591, 11, 11, 300
592, 1, 1, 0
592, 2, 2, 0
592, 3, 3, 0
592, 11, 11, 300
593, 1, 1, 0
593, 2, 2, 0
593, 3, 3, 0
593, 11, 11, 300
594, 1, 1, 0
594, 2, 2, 0
594, 3, 3, 0
594, 11, 11, 300
595, 1, 1, 0
595, 2, 2, 0
595, 3, 3, 0
595, 11, 11, 301
596, 1, 1, 0
596, 2, 2, 0
596, 3, 3, 0
596, 11, 11, 300
597, 1, 1, 0
597, 2, 2, 0
597, 3, 3, 0
597, 11, 11, 300
598, 1, 1, 0
598, 2, 2, 0
598, 3, 3, 0
598, 11, 11, 300
599, 1, 1, 0
599, 2, 2, 0
599, 3, 3, 0
599, 11, 11, 300
600, 1, 1, 0
600, 2, 2, 0
600, 3, 3, 0
600, 11, 11, 300
601, 1, 1, 0
601, 2, 2, 0
601, 3, 3, 0
601, 11, 11, 300
602, 1, 1, 0
602, 2, 2, 0
602, 3, 3, 0
602, 11, 11, 300
603, 1, 1, 0
603, 2, 2, 0
603, 3, 3, 0
603, 11, 11, 300
604, 1, 1, 0
604, 2, 2, 0
604, 3, 3, 0
604, 11, 11, 301
605, 1, 1, 0
605, 2, 2, 0
605, 3, 3, 0
605, 11, 11, 300
606, 1, 1, 0
606, 2, 2, 0
606, 3, 3, 0
606, 11, 11, 300
607, 1, 1, 0
607, 2, 2, 0
607, 3, 3, 0
607, 11, 11, 300
608, 1, 1, 0
608, 2, 2, 0
608, 3, 3, 0
608, 11, 11, 300
609, 1, 1, 0
609, 2, 2, 0
609, 3, 3, 0
609, 11, 11, 300
610, 1, 1, 0
610, 2, 2, 0
610, 3, 3, 0
610, 11, 11, 300
611, 1, 1, 0
611, 2, 2, 0
611, 3, 3, 0
611, 11, 11, 300
612, 1, 1, 0
612, 2, 2, 0
612, 3, 3, 0
612, 11, 11, 300
613, 1, 1, 0
613, 2, 2, 0
613, 3, 3, 0
613, 11, 11, 301
614, 1, 1, 0
614, 2, 2, 0
614, 3, 3, 0
614, 11, 11, 300
615, 1, 1, 0
615, 2, 2, 0
615, 3, 3, 0
615, 11, 11, 300
616, 1, 1, 0
616, 2, 2, 0
616, 3, 3, 0
616, 11, 11, 300
617, 1, 1, 0
617, 2, 2, 0
617, 3, 3, 0
617, 11, 11, 300
618, 1, 1, 0
618, 2, 2, 0
618, 3, 3, 0
618, 11, 11, 300
619, 1, 1, 0
619, 2, 2, 0
619, 3, 3, 0
619, 11, 11, 300
620, 1, 1, 0
620, 2, 2, 0
620, 3, 3, 0
620, 11, 11, 300
621, 1, 1, 0
621, 2, 2, 0
621, 3, 3, 0
621, 11, 11, 300
622, 1, 1, 0
622, 2, 2, 0
622, 3, 3, 0
622, 11, 11, 301
623, 1, 1, 0
623, 2, 2, 0
623, 3, 3, 0
623, 11, 11, 300
624, 1, 1, 0
624, 2, 2, 0
624, 3, 3, 0
624, 11, 11, 300
625, 1, 1, 0
625, 2, 2, 0
625, 3, 3, 0
625, 11, 11, 300
626, 1, 1, 0
626, 2, 2, 0
626, 3, 3, 0
626, 11, 11, 300
627, 1, 1, 0
627, 2, 2, 0
627, 3, 3, 0
627, 11, 11, 300
628, 1, 1, 0
628, 2, 2, 0
628, 3, 3, 0
628, 11, 11, 300
629, 1, 1, 0
629, 2, 2, 0
629, 3, 3, 0
629, 11, 11, 300
630, 1, 1, 0
630, 2, 2, 0
630, 3, 3, 0
630, 11, 11, 300
631, 1, 1, 0
631, 2, 2, 0
631, 3, 3, 0
631, 11, 11, 301
632, 1, 1, 0
632, 2, 2, 0
632, 3, 3, 0
632, 11, 11, 300
633, 1, 1, 0
633, 2, 2, 0
633, 3, 3, 0
633, 11, 11, 300
634, 1, 1, 0
634, 2, 2, 0
634, 3, 3, 0
634, 11, 11, 300
635, 1, 1, 0
635, 2, 2, 0
635, 3, 3, 0
635, 11, 11, 300
636, 1, 1, 0
636, 2, 2, 0
636, 3, 3, 0
636, 11, 11, 300
637, 1, 1, 0
637, 2, 2, 0
637, 3, 3, 0
637, 11, 11, 300
638, 1, 1, 0
638, 2, 2, 0
638, 3, 3, 0
638, 11, 11, 300
639, 1, 1, 0
639, 2, 2, 0
639, 3, 3, 0
639, 11, 11, 300
640, 1, 1, 0
640, 2, 2, 0
640, 3, 3, 0
640, 11, 11, 301
641, 1, 1, 0
641, 2, 2, 0
641, 3, 3, 0
641, 11, 11, 311
642, 1, 1, 0
642, 2, 2, 0
642, 3, 3, 0
642, 11, 11, 330
643, 1, 1, 0
643, 2, 2, 0
643, 3, 3, 0
643, 11, 11, 350
644, 1, 1, 0
644, 2, 2, 0
644, 3, 3, 0
644, 11, 11, 370
645, 1, 1, 0
645, 2, 2, 0
645, 3, 3, 0
645, 11, 11, 390
646, 1, 1, 0
646, 2, 2, 0
646, 3, 3, 0
646, 11, 11, 410
647, 1, 1, 0
647, 2, 2, 0
647, 3, 3, 0
647, 11, 11, 430
648, 1, 1, 0
648, 2, 2, 0
648, 3, 3, 0
648, 11, 11, 450
649, 1, 1, 0
649, 2, 2, 0
649, 3, 3, 0
649, 11, 11, 310
650, 1, 1, 0
650, 2, 2, 0
650, 3, 3, 0
650, 11, 11, 331
651, 1, 1, 0
651, 2, 2, 0
651, 3, 3, 0
651, 11, 11, 350
652, 1, 1, 0
652, 2, 2, 0
652, 3, 3, 0
652, 11, 11, 370
653, 1, 1, 0
653, 2, 2, 0
653, 3, 3, 0
653, 11, 11, 390
654, 1, 1, 0
654, 2, 2, 0
654, 3, 3, 0
654, 11, 11, 410
655, 1, 1, 0
655, 2, 2, 0
655, 3, 3, 0
655, 11, 11, 430
656, 1, 1, 0
656, 2, 2, 0
656, 3, 3, 0
656, 11, 11, 450
657, 1, 1, 0
657, 2, 2, 0
657, 3, 3, 0
657, 11, 11, 310
658, 1, 1, 0
658, 2, 2, 0
658, 3, 3, 0
658, 11, 11, 330
659, 1, 1, 0
659, 2, 2, 0
659, 3, 3, 0
659, 11, 11, 351
660, 1, 1, 0
660, 2, 2, 0
660, 3, 3, 0
660, 11, 11, 370
661, 1, 1, 0
661, 2, 2, 0
661, 3, 3, 0
661, 11, 11, 390
662, 1, 1, 0
662, 2, 2, 0
662, 3, 3, 0
662, 11, 11, 410
663, 1, 1, 0
663, 2, 2, 0
663, 3, 3, 0
663, 11, 11, 430
664, 1, 1, 0
664, 2, 2, 0
664, 3, 3, 0
664, 11, 11, 450
665, 1, 1, 0
665, 2, 2, 0
665, 3, 3, 0
665, 11, 11, 310
666, 1, 1, 0
666, 2, 2, 0
666, 3, 3, 0
666, 11, 11, 330
667, 1, 1, 0
667, 2, 2, 0
667, 3, 3, 0
667, 11, 11, 350
668, 1, 1, 0
668, 2, 2, 0
668, 3, 3, 0
668, 11, 11, 371
669, 1, 1, 0
669, 2, 2, 0
669, 3, 3, 0
669, 11, 11, 390
670, 1, 1, 0
670, 2, 2, 0
670, 3, 3, 0
670, 11, 11, 410
671, 1, 1, 0
671, 2, 2, 0
671, 3, 3, 0
671, 11, 11, 430
672, 1, 1, 0
672, 2, 2, 0
672, 3, 3, 0
672, 11, 11, 450
673, 1, 1, 0
673, 2, 2, 0
673, 3, 3, 0
673, 11, 11, 310
674, 1, 1, 0
674, 2, 2, 0
674, 3, 3, 0
674, 11, 11, 330
675, 1, 1, 0
675, 2, 2, 0
675, 3, 3, 0
675, 11, 11, 350
676, 1, 1, 0
676, 2, 2, 0
676, 3, 3, 0
676, 11, 11, 370
677, 1, 1, 0
677, 2, 2, 0
677, 3, 3, 0
677, 11, 11, 391
678, 1, 1, 0
678, 2, 2, 0
678, 3, 3, 0
678, 11, 11, 410
679, 1, 1, 0
679, 2, 2, 0
679, 3, 3, 0
679, 11, 11, 430
680, 1, 1, 0
680, 2, 2, 0
680, 3, 3, 0
680, 11, 11, 450
681, 1, 1, 0
681, 2, 2, 0
681, 3, 3, 0
681, 11, 11, 310
682, 1, 1, 0
682, 2, 2, 0
682, 3, 3, 0
682, 11, 11, 330
683, 1, 1, 0
683, 2, 2, 0
683, 3, 3, 0
683, 11, 11, 350
684, 1, 1, 0
684, 2, 2, 0
684, 3, 3, 0
684, 11, 11, 370
685, 1, 1, 0
685, 2, 2, 0
685, 3, 3, 0
685, 11, 11, 390
686, 1, 1, 0
686, 2, 2, 0
686, 3, 3, 0
686, 11, 11, 411
687, 1, 1, 0
687, 2, 2, 0
687, 3, 3, 0
687, 11, 11, 430
688, 1, 1, 0
688, 2, 2, 0
688, 3, 3, 0
688, 11, 11, 450
689, 1, 1, 0
689, 2, 2, 0
689, 3, 3, 0
689, 11, 11, 310
690, 1, 1, 0
690, 2, 2, 0
690, 3, 3, 0
690, 11, 11, 330
691, 1, 1, 0
691, 2, 2, 0
691, 3, 3, 0
691, 11, 11, 350
692, 1, 1, 0
692, 2, 2, 0
692, 3, 3, 0
692, 11, 11, 370
693, 1, 1, 0
693, 2, 2, 0
693, 3, 3, 0
693, 11, 11, 390
694, 1, 1, 0
694, 2, 2, 0
694, 3, 3, 0
694, 11, 11, 410
695, 1, 1, 0
695, 2, 2, 0
695, 3, 3, 0
695, 11, 11, 431
696, 1, 1, 0
696, 2, 2, 0
696, 3, 3, 0
696, 11, 11, 450
697, 1, 1, 0
697, 2, 2, 0
697, 3, 3, 0
697, 11, 11, 310
698, 1, 1, 0
698, 2, 2, 0
698, 3, 3, 0
698, 11, 11, 330
699, 1, 1, 0
699, 2, 2, 0
699, 3, 3, 0
699, 11, 11, 350
700, 1, 1, 0
700, 2, 2, 0
700, 3, 3, 0
700, 11, 11, 370
701, 1, 1, 0
701, 2, 2, 0
701, 3, 3, 0
701, 11, 11, 390
702, 1, 1, 0
702, 2, 2, 0
702, 3, 3, 0
702, 11, 11, 410
703, 1, 1, 0
703, 2, 2, 0
703, 3, 3, 0
703, 11, 11, 430
704, 1, 1, 0
704, 2, 2, 0
704, 3, 3, 0
704, 11, 11, 451
705, 1, 1, 0
705, 2, 2, 0
705, 3, 3, 0
705, 11, 11, 311
706, 1, 1, 0
706, 2, 2, 0
706, 3, 3, 0
706, 11, 11, 330
707, 1, 1, 0
707, 2, 2, 0
707, 3, 3, 0
707, 11, 11, 350
708, 1, 1, 0
708, 2, 2, 0
708, 3, 3, 0
708, 11, 11, 370
709, 1, 1, 0
709, 2, 2, 0
709, 3, 3, 0
709, 11, 11, 390
710, 1, 1, 0
710, 2, 2, 0
710, 3, 3, 0
710, 11, 11, 410
711, 1, 1, 0
711, 2, 2, 0
711, 3, 3, 0
711, 11, 11, 430
712, 1, 1, 0
712, 2, 2, 0
712, 3, 3, 0
712, 11, 11, 450
713, 1, 1, 0
713, 2, 2, 0
713, 3, 3, 0
713, 11, 11, 310
714, 1, 1, 0
714, 2, 2, 0
714, 3, 3, 0
714, 11, 11, 331
715, 1, 1, 0
715, 2, 2, 0
715, 3, 3, 0
715, 11, 11, 350
716, 1, 1, 0
716, 2, 2, 0
716, 3, 3, 0
716, 11, 11, 370
717, 1, 1, 0
717, 2, 2, 0
717, 3, 3, 0
717, 11, 11, 390
718, 1, 1, 0
718, 2, 2, 0
718, 3, 3, 0
718, 11, 11, 410
719, 1, 1, 0
719, 2, 2, 0
719, 3, 3, 0
719, 11, 11, 430
720, 1, 1, 0
720, 2, 2, 0
720, 3, 3, 0
720, 11, 11, 450
721, 1, 1, 0
721, 2, 2, 0
721, 3, 3, 0
721, 11, 11, 310
722, 1, 1, 0
722, 2, 2, 0
722, 3, 3, 0
722, 11, 11, 330
723, 1, 1, 0
723, 2, 2, 0
723, 3, 3, 0
723, 11, 11, 351
724, 1, 1, 0
724, 2, 2, 0
724, 3, 3, 0
724, 11, 11, 370
725, 1, 1, 0
725, 2, 2, 0
725, 3, 3, 0
725, 11, 11, 390
726, 1, 1, 0
726, 2, 2, 0
726, 3, 3, 0
726, 11, 11, 410
727, 1, 1, 0
727, 2, 2, 0
727, 3, 3, 0
727, 11, 11, 430
728, 1, 1, 0
728, 2, 2, 0
728, 3, 3, 0
728, 11, 11, 450
729, 1, 1, 0
729, 2, 2, 0
729, 3, 3, 0
729, 11, 11, 310
730, 1, 1, 0
730, 2, 2, 0
730, 3, 3, 0
730, 11, 11, 330
731, 1, 1, 0
731, 2, 2, 0
731, 3, 3, 0
731, 11, 11, 350
732, 1, 1, 0
732, 2, 2, 0
732, 3, 3, 0
732, 11, 11, 371
733, 1, 1, 0
733, 2, 2, 0
733, 3, 3, 0
733, 11, 11, 390
734, 1, 1, 0
734, 2, 2, 0
734, 3, 3, 0
734, 11, 11, 410
735, 1, 1, 0
735, 2, 2, 0
735, 3, 3, 0
735, 11, 11, 430
736, 1, 1, 0
736, 2, 2, 0
736, 3, 3, 0
736, 11, 11, 450
737, 1, 1, 0
737, 2, 2, 0
737, 3, 3, 0
737, 11, 11, 310
738, 1, 1, 0
738, 2, 2, 0
738, 3, 3, 0
738, 11, 11, 330
739, 1, 1, 0
739, 2, 2, 0
739, 3, 3, 0
739, 11, 11, 350
740, 1, 1, 0
740, 2, 2, 0
740, 3, 3, 0
740, 11, 11, 370
741, 1, 1, 0
741, 2, 2, 0
741, 3, 3, 0
741, 11, 11, 391
742, 1, 1, 0
742, 2, 2, 0
742, 3, 3, 0
742, 11, 11, 410
743, 1, 1, 0
743, 2, 2, 0
743, 3, 3, 0
743, 11, 11, 430
744, 1, 1, 0
744, 2, 2, 0
744, 3, 3, 0
744, 11, 11, 450
745, 1, 1, 0
745, 2, 2, 0
745, 3, 3, 0
745, 11, 11, 310
746, 1, 1, 0
746, 2, 2, 0
746, 3, 3, 0
746, 11, 11, 330
747, 1, 1, 0
747, 2, 2, 0
747, 3, 3, 0
747, 11, 11, 350
748, 1, 1, 0
748, 2, 2, 0
748, 3, 3, 0
748, 11, 11, 370
749, 1, 1, 0
749, 2, 2, 0
749, 3, 3, 0
749, 11, 11, 390
750, 1, 1, 0
750, 2, 2, 0
750, 3, 3, 0
750, 11, 11, 411
751, 1, 1, 0
751, 2, 2, 0
751, 3, 3, 0
751, 11, 11, 430
752, 1, 1, 0
752, 2, 2, 0
752, 3, 3, 0
752, 11, 11, 450
753, 1, 1, 0
753, 2, 2, 0
753, 3, 3, 0
753, 11, 11, 310
754, 1, 1, 0
754, 2, 2, 0
754, 3, 3, 0
754, 11, 11, 330
755, 1, 1, 0
755, 2, 2, 0
755, 3, 3, 0
755, 11, 11, 350
756, 1, 1, 0
756, 2, 2, 0
756, 3, 3, 0
756, 11, 11, 370
757, 1, 1, 0
757, 2, 2, 0
757, 3, 3, 0
757, 11, 11, 390
758, 1, 1, 0
758, 2, 2, 0
758, 3, 3, 0
758, 11, 11, 410
759, 1, 1, 0
759, 2, 2, 0
759, 3, 3, 0
759, 11, 11, 431
760, 1, 1, 0
760, 2, 2, 0
760, 3, 3, 0
760, 11, 11, 450
761, 1, 1, 0
761, 2, 2, 0
761, 3, 3, 0
761, 11, 11, 310
762, 1, 1, 0
762, 2, 2, 0
762, 3, 3, 0
762, 11, 11, 330
763, 1, 1, 0
763, 2, 2, 0
763, 3, 3, 0
763, 11, 11, 350
764, 1, 1, 0
764, 2, 2, 0
764, 3, 3, 0
764, 11, 11, 370
765, 1, 1, 0
765, 2, 2, 0
765, 3, 3, 0
765, 11, 11, 390
766, 1, 1, 0
766, 2, 2, 0
766, 3, 3, 0
766, 11, 11, 410
767, 1, 1, 0
767, 2, 2, 0
767, 3, 3, 0
767, 11, 11, 430
768, 1, 1, 0
768, 2, 2, 0
768, 3, 3, 0
768, 11, 11, 451
769, 1, 1, 0
769, 2, 2, 0
769, 11, 11, 301
770, 1, 1, 0
770, 2, 2, 0
770, 11, 11, 300
771, 1, 1, 0
771, 2, 2, 0
771, 11, 11, 300
772, 1, 1, 0
772, 2, 2, 0
772, 11, 11, 300
773, 1, 1, 0
773, 2, 2, 0
773, 11, 11, 300
774, 1, 1, 0
774, 2, 2, 0
774, 11, 11, 301
775, 1, 1, 0
775, 2, 2, 0
775, 11, 11, 300
776, 1, 1, 0
776, 2, 2, 0
776, 11, 11, 300
777, 1, 1, 0
777, 2, 2, 0
777, 11, 11, 300
778, 1, 1, 0
778, 2, 2, 0
778, 11, 11, 300
779, 1, 1, 0
779, 2, 2, 0
779, 11, 11, 301
780, 1, 1, 0
780, 2, 2, 0
780, 11, 11, 300
781, 1, 1, 0
781, 2, 2, 0
781, 11, 11, 300
782, 1, 1, 0
782, 2, 2, 0
782, 11, 11, 300
783, 1, 1, 0
783, 2, 2, 0
783, 11, 11, 300
784, 1, 1, 0
784, 2, 2, 0
784, 11, 11, 301
785, 1, 1, 0
785, 2, 2, 0
785, 11, 11, 311
786, 1, 1, 0
786, 2, 2, 0
786, 11, 11, 330
787, 1, 1, 0
787, 2, 2, 0
787, 11, 11, 390
788, 1, 1, 0
788, 2, 2, 0
788, 11, 11, 450
789, 1, 1, 0
789, 2, 2, 0
789, 11, 11, 310
790, 1, 1, 0
790, 2, 2, 0
790, 11, 11, 331
791, 1, 1, 0
791, 2, 2, 0
791, 11, 11, 390
792, 1, 1, 0
792, 2, 2, 0
792, 11, 11, 450
793, 1, 1, 0
793, 2, 2, 0
793, 11, 11, 310
794, 1, 1, 0
794, 2, 2, 0
794, 11, 11, 330
795, 1, 1, 0
795, 2, 2, 0
795, 11, 11, 391
796, 1, 1, 0
796, 2, 2, 0
796, 11, 11, 450
797, 1, 1, 0
797, 2, 2, 0
797, 11, 11, 310
798, 1, 1, 0
798, 2, 2, 0
798, 11, 11, 330
799, 1, 1, 0
799, 2, 2, 0
799, 11, 11, 390
800, 1, 1, 0
800, 2, 2, 0
800, 11, 11, 451
801, 1, 1, 0
801, 2, 2, 0
801, 11, 11, 311
802, 1, 1, 0
802, 2, 2, 0
802, 11, 11, 330
803, 1, 1, 0
803, 2, 2, 0
803, 11, 11, 390
804, 1, 1, 0
804, 2, 2, 0
804, 11, 11, 450
805, 1, 1, 0
805, 2, 2, 0
805, 11, 11, 310
806, 1, 1, 0
806, 2, 2, 0
806, 11, 11, 331
807, 1, 1, 0
807, 2, 2, 0
807, 11, 11, 390
808, 1, 1, 0
808, 2, 2, 0
808, 11, 11, 450
809, 1, 1, 0
809, 2, 2, 0
809, 11, 11, 310
810, 1, 1, 0
810, 2, 2, 0
810, 11, 11, 330
811, 1, 1, 0
811, 2, 2, 0
811, 11, 11, 391
812, 1, 1, 0
812, 2, 2, 0
812, 11, 11, 450
813, 1, 1, 0
813, 2, 2, 0
813, 11, 11, 310
814, 1, 1, 0
814, 2, 2, 0
814, 11, 11, 330
815, 1, 1, 0
815, 2, 2, 0
815, 11, 11, 390
816, 1, 1, 0
816, 2, 2, 0
816, 11, 11, 451
817, 1, 1, 0
817, 2, 2, 0
817, 11, 11, 301
818, 1, 1, 0
818, 2, 2, 0
818, 11, 11, 300
819, 1, 1, 0
819, 2, 2, 0
819, 11, 11, 300
820, 1, 1, 0
820, 2, 2, 0
820, 11, 11, 300
821, 1, 1, 0
821, 2, 2, 0
821, 11, 11, 300
822, 1, 1, 0
822, 2, 2, 0
822, 11, 11, 301
823, 1, 1, 0
823, 2, 2, 0
823, 11, 11, 300
824, 1, 1, 0
824, 2, 2, 0
824, 11, 11, 300
825, 1, 1, 0
825, 2, 2, 0
825, 11, 11, 300
826, 1, 1, 0
826, 2, 2, 0
826, 11, 11, 300
827, 1, 1, 0
827, 2, 2, 0
827, 11, 11, 301
828, 1, 1, 0
828, 2, 2, 0
828, 11, 11, 300
829, 1, 1, 0
829, 2, 2, 0
829, 11, 11, 300
830, 1, 1, 0
830, 2, 2, 0
830, 11, 11, 300
831, 1, 1, 0
831, 2, 2, 0
831, 11, 11, 300
832, 1, 1, 0
832, 2, 2, 0
832, 11, 11, 301
833, 1, 1, 0
833, 2, 2, 0
833, 11, 11, 311
834, 1, 1, 0
834, 2, 2, 0
834, 11, 11, 330
835, 1, 1, 0
835, 2, 2, 0
835, 11, 11, 390
836, 1, 1, 0
836, 2, 2, 0
836, 11, 11, 450
837, 1, 1, 0
837, 2, 2, 0
837, 11, 11, 310
838, 1, 1, 0
838, 2, 2, 0
838, 11, 11, 331
839, 1, 1, 0
839, 2, 2, 0
839, 11, 11, 390
840, 1, 1, 0
840, 2, 2, 0
840, 11, 11, 450
841, 1, 1, 0
841, 2, 2, 0
841, 11, 11, 310
842, 1, 1, 0
842, 2, 2, 0
842, 11, 11, 330
843, 1, 1, 0
843, 2, 2, 0
843, 11, 11, 391
844, 1, 1, 0
844, 2, 2, 0
844, 11, 11, 450
845, 1, 1, 0
845, 2, 2, 0
845, 11, 11, 310
846, 1, 1, 0
846, 2, 2, 0
846, 11, 11, 330
847, 1, 1, 0
847, 2, 2, 0
847, 11, 11, 390
848, 1, 1, 0
848, 2, 2, 0
848, 11, 11, 451
849, 1, 1, 0
849, 2, 2, 0
849, 11, 11, 311
850, 1, 1, 0
850, 2, 2, 0
850, 11, 11, 330
851, 1, 1, 0
851, 2, 2, 0
851, 11, 11, 390
852, 1, 1, 0
852, 2, 2, 0
852, 11, 11, 450
853, 1, 1, 0
853, 2, 2, 0
853, 11, 11, 310
854, 1, 1, 0
854, 2, 2, 0
854, 11, 11, 331
855, 1, 1, 0
855, 2, 2, 0
855, 11, 11, 390
856, 1, 1, 0
856, 2, 2, 0
856, 11, 11, 450
857, 1, 1, 0
857, 2, 2, 0
857, 11, 11, 310
858, 1, 1, 0
858, 2, 2, 0
858, 11, 11, 330
859, 1, 1, 0
859, 2, 2, 0
859, 11, 11, 391
860, 1, 1, 0
860, 2, 2, 0
860, 11, 11, 450
861, 1, 1, 0
861, 2, 2, 0
861, 11, 11, 310
862, 1, 1, 0
862, 2, 2, 0
862, 11, 11, 330
863, 1, 1, 0
863, 2, 2, 0
863, 11, 11, 390
864, 1, 1, 0
864, 2, 2, 0
864, 11, 11, 451
865, 1, 1, 0
865, 2, 2, 0
865, 11, 11, 301
866, 1, 1, 0
866, 2, 2, 0
866, 11, 11, 300
867, 1, 1, 0
867, 2, 2, 0
867, 11, 11, 300
868, 1, 1, 0
868, 2, 2, 0
868, 11, 11, 300
869, 1, 1, 0
869, 2, 2, 0
869, 11, 11, 300
870, 1, 1, 0
870, 2, 2, 0
870, 11, 11, 301
871, 1, 1, 0
871, 2, 2, 0
871, 11, 11, 300
872, 1, 1, 0
872, 2, 2, 0
872, 11, 11, 300
873, 1, 1, 0
873, 2, 2, 0
873, 11, 11, 300
874, 1, 1, 0
874, 2, 2, 0
874, 11, 11, 300
875, 1, 1, 0
875, 2, 2, 0
875, 11, 11, 301
876, 1, 1, 0
876, 2, 2, 0
876, 11, 11, 300
877, 1, 1, 0
877, 2, 2, 0
877, 11, 11, 300
878, 1, 1, 0
878, 2, 2, 0
878, 11, 11, 300
879, 1, 1, 0
879, 2, 2, 0
879, 11, 11, 300
880, 1, 1, 0
880, 2, 2, 0
880, 11, 11, 301
881, 1, 1, 0
881, 2, 2, 0
881, 11, 11, 311
882, 1, 1, 0
882, 2, 2, 0
882, 11, 11, 330
883, 1, 1, 0
883, 2, 2, 0
883, 11, 11, 390
884, 1, 1, 0
884, 2, 2, 0
884, 11, 11, 450
885, 1, 1, 0
885, 2, 2, 0
885, 11, 11, 310
886, 1, 1, 0
886, 2, 2, 0
886, 11, 11, 331
887, 1, 1, 0
887, 2, 2, 0
887, 11, 11, 390
888, 1, 1, 0
888, 2, 2, 0
888, 11, 11, 450
889, 1, 1, 0
889, 2, 2, 0
889, 11, 11, 310
890, 1, 1, 0
890, 2, 2, 0
890, 11, 11, 330
891, 1, 1, 0
891, 2, 2, 0
891, 11, 11, 391
892, 1, 1, 0
892, 2, 2, 0
892, 11, 11, 450
893, 1, 1, 0
893, 2, 2, 0
893, 11, 11, 310
894, 1, 1, 0
894, 2, 2, 0
894, 11, 11, 330
895, 1, 1, 0
895, 2, 2, 0
895, 11, 11, 390
896, 1, 1, 0
896, 2, 2, 0
896, 11, 11, 451
897, 1, 1, 0
897, 2, 2, 0
897, 11, 11, 311
898, 1, 1, 0
898, 2, 2, 0
898, 11, 11, 330
899, 1, 1, 0
899, 2, 2, 0
899, 11, 11, 390
900, 1, 1, 0
900, 2, 2, 0
900, 11, 11, 450
901, 1, 1, 0
901, 2, 2, 0
901, 11, 11, 310
902, 1, 1, 0
902, 2, 2, 0
902, 11, 11, 331
903, 1, 1, 0
903, 2, 2, 0
903, 11, 11, 390
904, 1, 1, 0
904, 2, 2, 0
904, 11, 11, 450
905, 1, 1, 0
905, 2, 2, 0
905, 11, 11, 310
906, 1, 1, 0
906, 2, 2, 0
906, 11, 11, 330
907, 1, 1, 0
907, 2, 2, 0
907, 11, 11, 391
908, 1, 1, 0
908, 2, 2, 0
908, 11, 11, 450
909, 1, 1, 0
909, 2, 2, 0
909, 11, 11, 310
910, 1, 1, 0
910, 2, 2, 0
910, 11, 11, 330
911, 1, 1, 0
911, 2, 2, 0
911, 11, 11, 390
912, 1, 1, 0
912, 2, 2, 0
912, 11, 11, 451
913, 1, 1, 0
913, 2, 2, 0
913, 11, 11, 301
914, 1, 1, 0
914, 2, 2, 0
914, 11, 11, 300
915, 1, 1, 0
915, 2, 2, 0
915, 11, 11, 300
916, 1, 1, 0
916, 2, 2, 0
916, 11, 11, 300
917, 1, 1, 0
917, 2, 2, 0
917, 11, 11, 300
918, 1, 1, 0
918, 2, 2, 0
918, 11, 11, 301
919, 1, 1, 0
919, 2, 2, 0
919, 11, 11, 300
920, 1, 1, 0
920, 2, 2, 0
920, 11, 11, 300
921, 1, 1, 0
921, 2, 2, 0
921, 11, 11, 300
922, 1, 1, 0
922, 2, 2, 0
922, 11, 11, 300
923, 1, 1, 0
923, 2, 2, 0
923, 11, 11, 301
924, 1, 1, 0
924, 2, 2, 0
924, 11, 11, 300
925, 1, 1, 0
925, 2, 2, 0
925, 11, 11, 300
926, 1, 1, 0
926, 2, 2, 0
926, 11, 11, 300
927, 1, 1, 0
927, 2, 2, 0
927, 11, 11, 300
928, 1, 1, 0
928, 2, 2, 0
928, 11, 11, 301
929, 1, 1, 0
929, 2, 2, 0
929, 11, 11, 311
930, 1, 1, 0
930, 2, 2, 0
930, 11, 11, 330
931, 1, 1, 0
931, 2, 2, 0
931, 11, 11, 390
932, 1, 1, 0
932, 2, 2, 0
932, 11, 11, 450
933, 1, 1, 0
933, 2, 2, 0
933, 11, 11, 310
934, 1, 1, 0
934, 2, 2, 0
934, 11, 11, 331
935, 1, 1, 0
935, 2, 2, 0
935, 11, 11, 390
936, 1, 1, 0
936, 2, 2, 0
936, 11, 11, 450
937, 1, 1, 0
937, 2, 2, 0
937, 11, 11, 310
938, 1, 1, 0
938, 2, 2, 0
938, 11, 11, 330
939, 1, 1, 0
939, 2, 2, 0
939, 11, 11, 391
940, 1, 1, 0
940, 2, 2, 0
940, 11, 11, 450
941, 1, 1, 0
941, 2, 2, 0
941, 11, 11, 310
942, 1, 1, 0
942, 2, 2, 0
942, 11, 11, 330
943, 1, 1, 0
943, 2, 2, 0
943, 11, 11, 390
944, 1, 1, 0
944, 2, 2, 0
944, 11, 11, 451
945, 1, 1, 0
945, 2, 2, 0
945, 11, 11, 311
946, 1, 1, 0
946, 2, 2, 0
946, 11, 11, 330
947, 1, 1, 0
947, 2, 2, 0
947, 11, 11, 390
948, 1, 1, 0
948, 2, 2, 0
948, 11, 11, 450
949, 1, 1, 0
949, 2, 2, 0
949, 11, 11, 310
950, 1, 1, 0
950, 2, 2, 0
950, 11, 11, 331
951, 1, 1, 0
951, 2, 2, 0
951, 11, 11, 390
952, 1, 1, 0
952, 2, 2, 0
952, 11, 11, 450
953, 1, 1, 0
953, 2, 2, 0
953, 11, 11, 310
954, 1, 1, 0
954, 2, 2, 0
954, 11, 11, 330
955, 1, 1, 0
955, 2, 2, 0
955, 11, 11, 391
956, 1, 1, 0
956, 2, 2, 0
956, 11, 11, 450
957, 1, 1, 0
957, 2, 2, 0
957, 11, 11, 310
958, 1, 1, 0
958, 2, 2, 0
958, 11, 11, 330
959, 1, 1, 0
959, 2, 2, 0
959, 11, 11, 390
960, 1, 1, 0
960, 2, 2, 0
960, 11, 11, 451
*Output, field, frequency=1
*Node Output
NT, RFL, U
*Element Output, position=INTEGRATION POINTS
IVOL, TEMP
*End Step
*Step, name=DEFORM_A, nlgeom=YES, inc=1
*Coupled Temperature-Displacement
1, 1, 1, 1
*Boundary, op=NEW
1, 1, 1, 0
1, 2, 2, 0
1, 3, 3, 0
1, 11, 11, 302
2, 1, 1, 0.12
2, 2, 2, 0.025000000000000001
2, 3, 3, 0.040000000000000001
2, 11, 11, 300
3, 1, 1, 0.059999999999999998
3, 2, 2, 0.10000000000000001
3, 3, 3, -0.035000000000000003
3, 11, 11, 300
4, 1, 1, -0.014999999999999999
4, 2, 2, 0.029999999999999999
4, 3, 3, 0.01
4, 11, 11, 300
5, 1, 1, 0.029999999999999999
5, 2, 2, -0.02
5, 3, 3, 0.080000000000000002
5, 11, 11, 300
6, 1, 1, 0.14000000000000001
6, 2, 2, 0.014999999999999999
6, 3, 3, 0.02
6, 11, 11, 300
7, 1, 1, 0.089999999999999997
7, 2, 2, 0.044999999999999998
7, 3, 3, 0.14999999999999999
7, 11, 11, 300
8, 1, 1, -0.040000000000000001
8, 2, 2, 0.11
8, 3, 3, 0.025000000000000001
8, 11, 11, 300
9, 1, 1, 0
9, 2, 2, 0
9, 3, 3, 0
9, 11, 11, 300
10, 1, 1, 0.12
10, 2, 2, 0.025000000000000001
10, 3, 3, 0.040000000000000001
10, 11, 11, 302
11, 1, 1, 0.059999999999999998
11, 2, 2, 0.10000000000000001
11, 3, 3, -0.035000000000000003
11, 11, 11, 300
12, 1, 1, -0.014999999999999999
12, 2, 2, 0.029999999999999999
12, 3, 3, 0.01
12, 11, 11, 300
13, 1, 1, 0.029999999999999999
13, 2, 2, -0.02
13, 3, 3, 0.080000000000000002
13, 11, 11, 300
14, 1, 1, 0.14000000000000001
14, 2, 2, 0.014999999999999999
14, 3, 3, 0.02
14, 11, 11, 300
15, 1, 1, 0.089999999999999997
15, 2, 2, 0.044999999999999998
15, 3, 3, 0.14999999999999999
15, 11, 11, 300
16, 1, 1, -0.040000000000000001
16, 2, 2, 0.11
16, 3, 3, 0.025000000000000001
16, 11, 11, 300
17, 1, 1, 0
17, 2, 2, 0
17, 3, 3, 0
17, 11, 11, 300
18, 1, 1, 0.12
18, 2, 2, 0.025000000000000001
18, 3, 3, 0.040000000000000001
18, 11, 11, 300
19, 1, 1, 0.059999999999999998
19, 2, 2, 0.10000000000000001
19, 3, 3, -0.035000000000000003
19, 11, 11, 302
20, 1, 1, -0.014999999999999999
20, 2, 2, 0.029999999999999999
20, 3, 3, 0.01
20, 11, 11, 300
21, 1, 1, 0.029999999999999999
21, 2, 2, -0.02
21, 3, 3, 0.080000000000000002
21, 11, 11, 300
22, 1, 1, 0.14000000000000001
22, 2, 2, 0.014999999999999999
22, 3, 3, 0.02
22, 11, 11, 300
23, 1, 1, 0.089999999999999997
23, 2, 2, 0.044999999999999998
23, 3, 3, 0.14999999999999999
23, 11, 11, 300
24, 1, 1, -0.040000000000000001
24, 2, 2, 0.11
24, 3, 3, 0.025000000000000001
24, 11, 11, 300
25, 1, 1, 0
25, 2, 2, 0
25, 3, 3, 0
25, 11, 11, 300
26, 1, 1, 0.12
26, 2, 2, 0.025000000000000001
26, 3, 3, 0.040000000000000001
26, 11, 11, 300
27, 1, 1, 0.059999999999999998
27, 2, 2, 0.10000000000000001
27, 3, 3, -0.035000000000000003
27, 11, 11, 300
28, 1, 1, -0.014999999999999999
28, 2, 2, 0.029999999999999999
28, 3, 3, 0.01
28, 11, 11, 302
29, 1, 1, 0.029999999999999999
29, 2, 2, -0.02
29, 3, 3, 0.080000000000000002
29, 11, 11, 300
30, 1, 1, 0.14000000000000001
30, 2, 2, 0.014999999999999999
30, 3, 3, 0.02
30, 11, 11, 300
31, 1, 1, 0.089999999999999997
31, 2, 2, 0.044999999999999998
31, 3, 3, 0.14999999999999999
31, 11, 11, 300
32, 1, 1, -0.040000000000000001
32, 2, 2, 0.11
32, 3, 3, 0.025000000000000001
32, 11, 11, 300
33, 1, 1, 0
33, 2, 2, 0
33, 3, 3, 0
33, 11, 11, 300
34, 1, 1, 0.12
34, 2, 2, 0.025000000000000001
34, 3, 3, 0.040000000000000001
34, 11, 11, 300
35, 1, 1, 0.059999999999999998
35, 2, 2, 0.10000000000000001
35, 3, 3, -0.035000000000000003
35, 11, 11, 300
36, 1, 1, -0.014999999999999999
36, 2, 2, 0.029999999999999999
36, 3, 3, 0.01
36, 11, 11, 300
37, 1, 1, 0.029999999999999999
37, 2, 2, -0.02
37, 3, 3, 0.080000000000000002
37, 11, 11, 302
38, 1, 1, 0.14000000000000001
38, 2, 2, 0.014999999999999999
38, 3, 3, 0.02
38, 11, 11, 300
39, 1, 1, 0.089999999999999997
39, 2, 2, 0.044999999999999998
39, 3, 3, 0.14999999999999999
39, 11, 11, 300
40, 1, 1, -0.040000000000000001
40, 2, 2, 0.11
40, 3, 3, 0.025000000000000001
40, 11, 11, 300
41, 1, 1, 0
41, 2, 2, 0
41, 3, 3, 0
41, 11, 11, 300
42, 1, 1, 0.12
42, 2, 2, 0.025000000000000001
42, 3, 3, 0.040000000000000001
42, 11, 11, 300
43, 1, 1, 0.059999999999999998
43, 2, 2, 0.10000000000000001
43, 3, 3, -0.035000000000000003
43, 11, 11, 300
44, 1, 1, -0.014999999999999999
44, 2, 2, 0.029999999999999999
44, 3, 3, 0.01
44, 11, 11, 300
45, 1, 1, 0.029999999999999999
45, 2, 2, -0.02
45, 3, 3, 0.080000000000000002
45, 11, 11, 300
46, 1, 1, 0.14000000000000001
46, 2, 2, 0.014999999999999999
46, 3, 3, 0.02
46, 11, 11, 302
47, 1, 1, 0.089999999999999997
47, 2, 2, 0.044999999999999998
47, 3, 3, 0.14999999999999999
47, 11, 11, 300
48, 1, 1, -0.040000000000000001
48, 2, 2, 0.11
48, 3, 3, 0.025000000000000001
48, 11, 11, 300
49, 1, 1, 0
49, 2, 2, 0
49, 3, 3, 0
49, 11, 11, 300
50, 1, 1, 0.12
50, 2, 2, 0.025000000000000001
50, 3, 3, 0.040000000000000001
50, 11, 11, 300
51, 1, 1, 0.059999999999999998
51, 2, 2, 0.10000000000000001
51, 3, 3, -0.035000000000000003
51, 11, 11, 300
52, 1, 1, -0.014999999999999999
52, 2, 2, 0.029999999999999999
52, 3, 3, 0.01
52, 11, 11, 300
53, 1, 1, 0.029999999999999999
53, 2, 2, -0.02
53, 3, 3, 0.080000000000000002
53, 11, 11, 300
54, 1, 1, 0.14000000000000001
54, 2, 2, 0.014999999999999999
54, 3, 3, 0.02
54, 11, 11, 300
55, 1, 1, 0.089999999999999997
55, 2, 2, 0.044999999999999998
55, 3, 3, 0.14999999999999999
55, 11, 11, 302
56, 1, 1, -0.040000000000000001
56, 2, 2, 0.11
56, 3, 3, 0.025000000000000001
56, 11, 11, 300
57, 1, 1, 0
57, 2, 2, 0
57, 3, 3, 0
57, 11, 11, 300
58, 1, 1, 0.12
58, 2, 2, 0.025000000000000001
58, 3, 3, 0.040000000000000001
58, 11, 11, 300
59, 1, 1, 0.059999999999999998
59, 2, 2, 0.10000000000000001
59, 3, 3, -0.035000000000000003
59, 11, 11, 300
60, 1, 1, -0.014999999999999999
60, 2, 2, 0.029999999999999999
60, 3, 3, 0.01
60, 11, 11, 300
61, 1, 1, 0.029999999999999999
61, 2, 2, -0.02
61, 3, 3, 0.080000000000000002
61, 11, 11, 300
62, 1, 1, 0.14000000000000001
62, 2, 2, 0.014999999999999999
62, 3, 3, 0.02
62, 11, 11, 300
63, 1, 1, 0.089999999999999997
63, 2, 2, 0.044999999999999998
63, 3, 3, 0.14999999999999999
63, 11, 11, 300
64, 1, 1, -0.040000000000000001
64, 2, 2, 0.11
64, 3, 3, 0.025000000000000001
64, 11, 11, 302
65, 1, 1, 0
65, 2, 2, 0
65, 3, 3, 0
65, 11, 11, 312
66, 1, 1, 0.12
66, 2, 2, 0.025000000000000001
66, 3, 3, 0.040000000000000001
66, 11, 11, 330
67, 1, 1, 0.059999999999999998
67, 2, 2, 0.10000000000000001
67, 3, 3, -0.035000000000000003
67, 11, 11, 350
68, 1, 1, -0.014999999999999999
68, 2, 2, 0.029999999999999999
68, 3, 3, 0.01
68, 11, 11, 370
69, 1, 1, 0.029999999999999999
69, 2, 2, -0.02
69, 3, 3, 0.080000000000000002
69, 11, 11, 390
70, 1, 1, 0.14000000000000001
70, 2, 2, 0.014999999999999999
70, 3, 3, 0.02
70, 11, 11, 410
71, 1, 1, 0.089999999999999997
71, 2, 2, 0.044999999999999998
71, 3, 3, 0.14999999999999999
71, 11, 11, 430
72, 1, 1, -0.040000000000000001
72, 2, 2, 0.11
72, 3, 3, 0.025000000000000001
72, 11, 11, 450
73, 1, 1, 0
73, 2, 2, 0
73, 3, 3, 0
73, 11, 11, 310
74, 1, 1, 0.12
74, 2, 2, 0.025000000000000001
74, 3, 3, 0.040000000000000001
74, 11, 11, 332
75, 1, 1, 0.059999999999999998
75, 2, 2, 0.10000000000000001
75, 3, 3, -0.035000000000000003
75, 11, 11, 350
76, 1, 1, -0.014999999999999999
76, 2, 2, 0.029999999999999999
76, 3, 3, 0.01
76, 11, 11, 370
77, 1, 1, 0.029999999999999999
77, 2, 2, -0.02
77, 3, 3, 0.080000000000000002
77, 11, 11, 390
78, 1, 1, 0.14000000000000001
78, 2, 2, 0.014999999999999999
78, 3, 3, 0.02
78, 11, 11, 410
79, 1, 1, 0.089999999999999997
79, 2, 2, 0.044999999999999998
79, 3, 3, 0.14999999999999999
79, 11, 11, 430
80, 1, 1, -0.040000000000000001
80, 2, 2, 0.11
80, 3, 3, 0.025000000000000001
80, 11, 11, 450
81, 1, 1, 0
81, 2, 2, 0
81, 3, 3, 0
81, 11, 11, 310
82, 1, 1, 0.12
82, 2, 2, 0.025000000000000001
82, 3, 3, 0.040000000000000001
82, 11, 11, 330
83, 1, 1, 0.059999999999999998
83, 2, 2, 0.10000000000000001
83, 3, 3, -0.035000000000000003
83, 11, 11, 352
84, 1, 1, -0.014999999999999999
84, 2, 2, 0.029999999999999999
84, 3, 3, 0.01
84, 11, 11, 370
85, 1, 1, 0.029999999999999999
85, 2, 2, -0.02
85, 3, 3, 0.080000000000000002
85, 11, 11, 390
86, 1, 1, 0.14000000000000001
86, 2, 2, 0.014999999999999999
86, 3, 3, 0.02
86, 11, 11, 410
87, 1, 1, 0.089999999999999997
87, 2, 2, 0.044999999999999998
87, 3, 3, 0.14999999999999999
87, 11, 11, 430
88, 1, 1, -0.040000000000000001
88, 2, 2, 0.11
88, 3, 3, 0.025000000000000001
88, 11, 11, 450
89, 1, 1, 0
89, 2, 2, 0
89, 3, 3, 0
89, 11, 11, 310
90, 1, 1, 0.12
90, 2, 2, 0.025000000000000001
90, 3, 3, 0.040000000000000001
90, 11, 11, 330
91, 1, 1, 0.059999999999999998
91, 2, 2, 0.10000000000000001
91, 3, 3, -0.035000000000000003
91, 11, 11, 350
92, 1, 1, -0.014999999999999999
92, 2, 2, 0.029999999999999999
92, 3, 3, 0.01
92, 11, 11, 372
93, 1, 1, 0.029999999999999999
93, 2, 2, -0.02
93, 3, 3, 0.080000000000000002
93, 11, 11, 390
94, 1, 1, 0.14000000000000001
94, 2, 2, 0.014999999999999999
94, 3, 3, 0.02
94, 11, 11, 410
95, 1, 1, 0.089999999999999997
95, 2, 2, 0.044999999999999998
95, 3, 3, 0.14999999999999999
95, 11, 11, 430
96, 1, 1, -0.040000000000000001
96, 2, 2, 0.11
96, 3, 3, 0.025000000000000001
96, 11, 11, 450
97, 1, 1, 0
97, 2, 2, 0
97, 3, 3, 0
97, 11, 11, 310
98, 1, 1, 0.12
98, 2, 2, 0.025000000000000001
98, 3, 3, 0.040000000000000001
98, 11, 11, 330
99, 1, 1, 0.059999999999999998
99, 2, 2, 0.10000000000000001
99, 3, 3, -0.035000000000000003
99, 11, 11, 350
100, 1, 1, -0.014999999999999999
100, 2, 2, 0.029999999999999999
100, 3, 3, 0.01
100, 11, 11, 370
101, 1, 1, 0.029999999999999999
101, 2, 2, -0.02
101, 3, 3, 0.080000000000000002
101, 11, 11, 392
102, 1, 1, 0.14000000000000001
102, 2, 2, 0.014999999999999999
102, 3, 3, 0.02
102, 11, 11, 410
103, 1, 1, 0.089999999999999997
103, 2, 2, 0.044999999999999998
103, 3, 3, 0.14999999999999999
103, 11, 11, 430
104, 1, 1, -0.040000000000000001
104, 2, 2, 0.11
104, 3, 3, 0.025000000000000001
104, 11, 11, 450
105, 1, 1, 0
105, 2, 2, 0
105, 3, 3, 0
105, 11, 11, 310
106, 1, 1, 0.12
106, 2, 2, 0.025000000000000001
106, 3, 3, 0.040000000000000001
106, 11, 11, 330
107, 1, 1, 0.059999999999999998
107, 2, 2, 0.10000000000000001
107, 3, 3, -0.035000000000000003
107, 11, 11, 350
108, 1, 1, -0.014999999999999999
108, 2, 2, 0.029999999999999999
108, 3, 3, 0.01
108, 11, 11, 370
109, 1, 1, 0.029999999999999999
109, 2, 2, -0.02
109, 3, 3, 0.080000000000000002
109, 11, 11, 390
110, 1, 1, 0.14000000000000001
110, 2, 2, 0.014999999999999999
110, 3, 3, 0.02
110, 11, 11, 412
111, 1, 1, 0.089999999999999997
111, 2, 2, 0.044999999999999998
111, 3, 3, 0.14999999999999999
111, 11, 11, 430
112, 1, 1, -0.040000000000000001
112, 2, 2, 0.11
112, 3, 3, 0.025000000000000001
112, 11, 11, 450
113, 1, 1, 0
113, 2, 2, 0
113, 3, 3, 0
113, 11, 11, 310
114, 1, 1, 0.12
114, 2, 2, 0.025000000000000001
114, 3, 3, 0.040000000000000001
114, 11, 11, 330
115, 1, 1, 0.059999999999999998
115, 2, 2, 0.10000000000000001
115, 3, 3, -0.035000000000000003
115, 11, 11, 350
116, 1, 1, -0.014999999999999999
116, 2, 2, 0.029999999999999999
116, 3, 3, 0.01
116, 11, 11, 370
117, 1, 1, 0.029999999999999999
117, 2, 2, -0.02
117, 3, 3, 0.080000000000000002
117, 11, 11, 390
118, 1, 1, 0.14000000000000001
118, 2, 2, 0.014999999999999999
118, 3, 3, 0.02
118, 11, 11, 410
119, 1, 1, 0.089999999999999997
119, 2, 2, 0.044999999999999998
119, 3, 3, 0.14999999999999999
119, 11, 11, 432
120, 1, 1, -0.040000000000000001
120, 2, 2, 0.11
120, 3, 3, 0.025000000000000001
120, 11, 11, 450
121, 1, 1, 0
121, 2, 2, 0
121, 3, 3, 0
121, 11, 11, 310
122, 1, 1, 0.12
122, 2, 2, 0.025000000000000001
122, 3, 3, 0.040000000000000001
122, 11, 11, 330
123, 1, 1, 0.059999999999999998
123, 2, 2, 0.10000000000000001
123, 3, 3, -0.035000000000000003
123, 11, 11, 350
124, 1, 1, -0.014999999999999999
124, 2, 2, 0.029999999999999999
124, 3, 3, 0.01
124, 11, 11, 370
125, 1, 1, 0.029999999999999999
125, 2, 2, -0.02
125, 3, 3, 0.080000000000000002
125, 11, 11, 390
126, 1, 1, 0.14000000000000001
126, 2, 2, 0.014999999999999999
126, 3, 3, 0.02
126, 11, 11, 410
127, 1, 1, 0.089999999999999997
127, 2, 2, 0.044999999999999998
127, 3, 3, 0.14999999999999999
127, 11, 11, 430
128, 1, 1, -0.040000000000000001
128, 2, 2, 0.11
128, 3, 3, 0.025000000000000001
128, 11, 11, 452
129, 1, 1, 0
129, 2, 2, 0
129, 3, 3, 0
129, 11, 11, 312
130, 1, 1, 0.12
130, 2, 2, 0.025000000000000001
130, 3, 3, 0.040000000000000001
130, 11, 11, 330
131, 1, 1, 0.059999999999999998
131, 2, 2, 0.10000000000000001
131, 3, 3, -0.035000000000000003
131, 11, 11, 350
132, 1, 1, -0.014999999999999999
132, 2, 2, 0.029999999999999999
132, 3, 3, 0.01
132, 11, 11, 370
133, 1, 1, 0.029999999999999999
133, 2, 2, -0.02
133, 3, 3, 0.080000000000000002
133, 11, 11, 390
134, 1, 1, 0.14000000000000001
134, 2, 2, 0.014999999999999999
134, 3, 3, 0.02
134, 11, 11, 410
135, 1, 1, 0.089999999999999997
135, 2, 2, 0.044999999999999998
135, 3, 3, 0.14999999999999999
135, 11, 11, 430
136, 1, 1, -0.040000000000000001
136, 2, 2, 0.11
136, 3, 3, 0.025000000000000001
136, 11, 11, 450
137, 1, 1, 0
137, 2, 2, 0
137, 3, 3, 0
137, 11, 11, 310
138, 1, 1, 0.12
138, 2, 2, 0.025000000000000001
138, 3, 3, 0.040000000000000001
138, 11, 11, 332
139, 1, 1, 0.059999999999999998
139, 2, 2, 0.10000000000000001
139, 3, 3, -0.035000000000000003
139, 11, 11, 350
140, 1, 1, -0.014999999999999999
140, 2, 2, 0.029999999999999999
140, 3, 3, 0.01
140, 11, 11, 370
141, 1, 1, 0.029999999999999999
141, 2, 2, -0.02
141, 3, 3, 0.080000000000000002
141, 11, 11, 390
142, 1, 1, 0.14000000000000001
142, 2, 2, 0.014999999999999999
142, 3, 3, 0.02
142, 11, 11, 410
143, 1, 1, 0.089999999999999997
143, 2, 2, 0.044999999999999998
143, 3, 3, 0.14999999999999999
143, 11, 11, 430
144, 1, 1, -0.040000000000000001
144, 2, 2, 0.11
144, 3, 3, 0.025000000000000001
144, 11, 11, 450
145, 1, 1, 0
145, 2, 2, 0
145, 3, 3, 0
145, 11, 11, 310
146, 1, 1, 0.12
146, 2, 2, 0.025000000000000001
146, 3, 3, 0.040000000000000001
146, 11, 11, 330
147, 1, 1, 0.059999999999999998
147, 2, 2, 0.10000000000000001
147, 3, 3, -0.035000000000000003
147, 11, 11, 352
148, 1, 1, -0.014999999999999999
148, 2, 2, 0.029999999999999999
148, 3, 3, 0.01
148, 11, 11, 370
149, 1, 1, 0.029999999999999999
149, 2, 2, -0.02
149, 3, 3, 0.080000000000000002
149, 11, 11, 390
150, 1, 1, 0.14000000000000001
150, 2, 2, 0.014999999999999999
150, 3, 3, 0.02
150, 11, 11, 410
151, 1, 1, 0.089999999999999997
151, 2, 2, 0.044999999999999998
151, 3, 3, 0.14999999999999999
151, 11, 11, 430
152, 1, 1, -0.040000000000000001
152, 2, 2, 0.11
152, 3, 3, 0.025000000000000001
152, 11, 11, 450
153, 1, 1, 0
153, 2, 2, 0
153, 3, 3, 0
153, 11, 11, 310
154, 1, 1, 0.12
154, 2, 2, 0.025000000000000001
154, 3, 3, 0.040000000000000001
154, 11, 11, 330
155, 1, 1, 0.059999999999999998
155, 2, 2, 0.10000000000000001
155, 3, 3, -0.035000000000000003
155, 11, 11, 350
156, 1, 1, -0.014999999999999999
156, 2, 2, 0.029999999999999999
156, 3, 3, 0.01
156, 11, 11, 372
157, 1, 1, 0.029999999999999999
157, 2, 2, -0.02
157, 3, 3, 0.080000000000000002
157, 11, 11, 390
158, 1, 1, 0.14000000000000001
158, 2, 2, 0.014999999999999999
158, 3, 3, 0.02
158, 11, 11, 410
159, 1, 1, 0.089999999999999997
159, 2, 2, 0.044999999999999998
159, 3, 3, 0.14999999999999999
159, 11, 11, 430
160, 1, 1, -0.040000000000000001
160, 2, 2, 0.11
160, 3, 3, 0.025000000000000001
160, 11, 11, 450
161, 1, 1, 0
161, 2, 2, 0
161, 3, 3, 0
161, 11, 11, 310
162, 1, 1, 0.12
162, 2, 2, 0.025000000000000001
162, 3, 3, 0.040000000000000001
162, 11, 11, 330
163, 1, 1, 0.059999999999999998
163, 2, 2, 0.10000000000000001
163, 3, 3, -0.035000000000000003
163, 11, 11, 350
164, 1, 1, -0.014999999999999999
164, 2, 2, 0.029999999999999999
164, 3, 3, 0.01
164, 11, 11, 370
165, 1, 1, 0.029999999999999999
165, 2, 2, -0.02
165, 3, 3, 0.080000000000000002
165, 11, 11, 392
166, 1, 1, 0.14000000000000001
166, 2, 2, 0.014999999999999999
166, 3, 3, 0.02
166, 11, 11, 410
167, 1, 1, 0.089999999999999997
167, 2, 2, 0.044999999999999998
167, 3, 3, 0.14999999999999999
167, 11, 11, 430
168, 1, 1, -0.040000000000000001
168, 2, 2, 0.11
168, 3, 3, 0.025000000000000001
168, 11, 11, 450
169, 1, 1, 0
169, 2, 2, 0
169, 3, 3, 0
169, 11, 11, 310
170, 1, 1, 0.12
170, 2, 2, 0.025000000000000001
170, 3, 3, 0.040000000000000001
170, 11, 11, 330
171, 1, 1, 0.059999999999999998
171, 2, 2, 0.10000000000000001
171, 3, 3, -0.035000000000000003
171, 11, 11, 350
172, 1, 1, -0.014999999999999999
172, 2, 2, 0.029999999999999999
172, 3, 3, 0.01
172, 11, 11, 370
173, 1, 1, 0.029999999999999999
173, 2, 2, -0.02
173, 3, 3, 0.080000000000000002
173, 11, 11, 390
174, 1, 1, 0.14000000000000001
174, 2, 2, 0.014999999999999999
174, 3, 3, 0.02
174, 11, 11, 412
175, 1, 1, 0.089999999999999997
175, 2, 2, 0.044999999999999998
175, 3, 3, 0.14999999999999999
175, 11, 11, 430
176, 1, 1, -0.040000000000000001
176, 2, 2, 0.11
176, 3, 3, 0.025000000000000001
176, 11, 11, 450
177, 1, 1, 0
177, 2, 2, 0
177, 3, 3, 0
177, 11, 11, 310
178, 1, 1, 0.12
178, 2, 2, 0.025000000000000001
178, 3, 3, 0.040000000000000001
178, 11, 11, 330
179, 1, 1, 0.059999999999999998
179, 2, 2, 0.10000000000000001
179, 3, 3, -0.035000000000000003
179, 11, 11, 350
180, 1, 1, -0.014999999999999999
180, 2, 2, 0.029999999999999999
180, 3, 3, 0.01
180, 11, 11, 370
181, 1, 1, 0.029999999999999999
181, 2, 2, -0.02
181, 3, 3, 0.080000000000000002
181, 11, 11, 390
182, 1, 1, 0.14000000000000001
182, 2, 2, 0.014999999999999999
182, 3, 3, 0.02
182, 11, 11, 410
183, 1, 1, 0.089999999999999997
183, 2, 2, 0.044999999999999998
183, 3, 3, 0.14999999999999999
183, 11, 11, 432
184, 1, 1, -0.040000000000000001
184, 2, 2, 0.11
184, 3, 3, 0.025000000000000001
184, 11, 11, 450
185, 1, 1, 0
185, 2, 2, 0
185, 3, 3, 0
185, 11, 11, 310
186, 1, 1, 0.12
186, 2, 2, 0.025000000000000001
186, 3, 3, 0.040000000000000001
186, 11, 11, 330
187, 1, 1, 0.059999999999999998
187, 2, 2, 0.10000000000000001
187, 3, 3, -0.035000000000000003
187, 11, 11, 350
188, 1, 1, -0.014999999999999999
188, 2, 2, 0.029999999999999999
188, 3, 3, 0.01
188, 11, 11, 370
189, 1, 1, 0.029999999999999999
189, 2, 2, -0.02
189, 3, 3, 0.080000000000000002
189, 11, 11, 390
190, 1, 1, 0.14000000000000001
190, 2, 2, 0.014999999999999999
190, 3, 3, 0.02
190, 11, 11, 410
191, 1, 1, 0.089999999999999997
191, 2, 2, 0.044999999999999998
191, 3, 3, 0.14999999999999999
191, 11, 11, 430
192, 1, 1, -0.040000000000000001
192, 2, 2, 0.11
192, 3, 3, 0.025000000000000001
192, 11, 11, 452
193, 1, 1, 0
193, 2, 2, 0
193, 3, 3, 0
193, 11, 11, 302
194, 1, 1, 0.12
194, 2, 2, 0.025000000000000001
194, 3, 3, 0.040000000000000001
194, 11, 11, 300
195, 1, 1, 0.059999999999999998
195, 2, 2, 0.10000000000000001
195, 3, 3, -0.035000000000000003
195, 11, 11, 300
196, 1, 1, -0.014999999999999999
196, 2, 2, 0.029999999999999999
196, 3, 3, 0.01
196, 11, 11, 300
197, 1, 1, 0.029999999999999999
197, 2, 2, -0.02
197, 3, 3, 0.080000000000000002
197, 11, 11, 300
198, 1, 1, 0.14000000000000001
198, 2, 2, 0.014999999999999999
198, 3, 3, 0.02
198, 11, 11, 300
199, 1, 1, 0.089999999999999997
199, 2, 2, 0.044999999999999998
199, 3, 3, 0.14999999999999999
199, 11, 11, 300
200, 1, 1, -0.040000000000000001
200, 2, 2, 0.11
200, 3, 3, 0.025000000000000001
200, 11, 11, 300
201, 1, 1, 0
201, 2, 2, 0
201, 3, 3, 0
201, 11, 11, 300
202, 1, 1, 0.12
202, 2, 2, 0.025000000000000001
202, 3, 3, 0.040000000000000001
202, 11, 11, 302
203, 1, 1, 0.059999999999999998
203, 2, 2, 0.10000000000000001
203, 3, 3, -0.035000000000000003
203, 11, 11, 300
204, 1, 1, -0.014999999999999999
204, 2, 2, 0.029999999999999999
204, 3, 3, 0.01
204, 11, 11, 300
205, 1, 1, 0.029999999999999999
205, 2, 2, -0.02
205, 3, 3, 0.080000000000000002
205, 11, 11, 300
206, 1, 1, 0.14000000000000001
206, 2, 2, 0.014999999999999999
206, 3, 3, 0.02
206, 11, 11, 300
207, 1, 1, 0.089999999999999997
207, 2, 2, 0.044999999999999998
207, 3, 3, 0.14999999999999999
207, 11, 11, 300
208, 1, 1, -0.040000000000000001
208, 2, 2, 0.11
208, 3, 3, 0.025000000000000001
208, 11, 11, 300
209, 1, 1, 0
209, 2, 2, 0
209, 3, 3, 0
209, 11, 11, 300
210, 1, 1, 0.12
210, 2, 2, 0.025000000000000001
210, 3, 3, 0.040000000000000001
210, 11, 11, 300
211, 1, 1, 0.059999999999999998
211, 2, 2, 0.10000000000000001
211, 3, 3, -0.035000000000000003
211, 11, 11, 302
212, 1, 1, -0.014999999999999999
212, 2, 2, 0.029999999999999999
212, 3, 3, 0.01
212, 11, 11, 300
213, 1, 1, 0.029999999999999999
213, 2, 2, -0.02
213, 3, 3, 0.080000000000000002
213, 11, 11, 300
214, 1, 1, 0.14000000000000001
214, 2, 2, 0.014999999999999999
214, 3, 3, 0.02
214, 11, 11, 300
215, 1, 1, 0.089999999999999997
215, 2, 2, 0.044999999999999998
215, 3, 3, 0.14999999999999999
215, 11, 11, 300
216, 1, 1, -0.040000000000000001
216, 2, 2, 0.11
216, 3, 3, 0.025000000000000001
216, 11, 11, 300
217, 1, 1, 0
217, 2, 2, 0
217, 3, 3, 0
217, 11, 11, 300
218, 1, 1, 0.12
218, 2, 2, 0.025000000000000001
218, 3, 3, 0.040000000000000001
218, 11, 11, 300
219, 1, 1, 0.059999999999999998
219, 2, 2, 0.10000000000000001
219, 3, 3, -0.035000000000000003
219, 11, 11, 300
220, 1, 1, -0.014999999999999999
220, 2, 2, 0.029999999999999999
220, 3, 3, 0.01
220, 11, 11, 302
221, 1, 1, 0.029999999999999999
221, 2, 2, -0.02
221, 3, 3, 0.080000000000000002
221, 11, 11, 300
222, 1, 1, 0.14000000000000001
222, 2, 2, 0.014999999999999999
222, 3, 3, 0.02
222, 11, 11, 300
223, 1, 1, 0.089999999999999997
223, 2, 2, 0.044999999999999998
223, 3, 3, 0.14999999999999999
223, 11, 11, 300
224, 1, 1, -0.040000000000000001
224, 2, 2, 0.11
224, 3, 3, 0.025000000000000001
224, 11, 11, 300
225, 1, 1, 0
225, 2, 2, 0
225, 3, 3, 0
225, 11, 11, 300
226, 1, 1, 0.12
226, 2, 2, 0.025000000000000001
226, 3, 3, 0.040000000000000001
226, 11, 11, 300
227, 1, 1, 0.059999999999999998
227, 2, 2, 0.10000000000000001
227, 3, 3, -0.035000000000000003
227, 11, 11, 300
228, 1, 1, -0.014999999999999999
228, 2, 2, 0.029999999999999999
228, 3, 3, 0.01
228, 11, 11, 300
229, 1, 1, 0.029999999999999999
229, 2, 2, -0.02
229, 3, 3, 0.080000000000000002
229, 11, 11, 302
230, 1, 1, 0.14000000000000001
230, 2, 2, 0.014999999999999999
230, 3, 3, 0.02
230, 11, 11, 300
231, 1, 1, 0.089999999999999997
231, 2, 2, 0.044999999999999998
231, 3, 3, 0.14999999999999999
231, 11, 11, 300
232, 1, 1, -0.040000000000000001
232, 2, 2, 0.11
232, 3, 3, 0.025000000000000001
232, 11, 11, 300
233, 1, 1, 0
233, 2, 2, 0
233, 3, 3, 0
233, 11, 11, 300
234, 1, 1, 0.12
234, 2, 2, 0.025000000000000001
234, 3, 3, 0.040000000000000001
234, 11, 11, 300
235, 1, 1, 0.059999999999999998
235, 2, 2, 0.10000000000000001
235, 3, 3, -0.035000000000000003
235, 11, 11, 300
236, 1, 1, -0.014999999999999999
236, 2, 2, 0.029999999999999999
236, 3, 3, 0.01
236, 11, 11, 300
237, 1, 1, 0.029999999999999999
237, 2, 2, -0.02
237, 3, 3, 0.080000000000000002
237, 11, 11, 300
238, 1, 1, 0.14000000000000001
238, 2, 2, 0.014999999999999999
238, 3, 3, 0.02
238, 11, 11, 302
239, 1, 1, 0.089999999999999997
239, 2, 2, 0.044999999999999998
239, 3, 3, 0.14999999999999999
239, 11, 11, 300
240, 1, 1, -0.040000000000000001
240, 2, 2, 0.11
240, 3, 3, 0.025000000000000001
240, 11, 11, 300
241, 1, 1, 0
241, 2, 2, 0
241, 3, 3, 0
241, 11, 11, 300
242, 1, 1, 0.12
242, 2, 2, 0.025000000000000001
242, 3, 3, 0.040000000000000001
242, 11, 11, 300
243, 1, 1, 0.059999999999999998
243, 2, 2, 0.10000000000000001
243, 3, 3, -0.035000000000000003
243, 11, 11, 300
244, 1, 1, -0.014999999999999999
244, 2, 2, 0.029999999999999999
244, 3, 3, 0.01
244, 11, 11, 300
245, 1, 1, 0.029999999999999999
245, 2, 2, -0.02
245, 3, 3, 0.080000000000000002
245, 11, 11, 300
246, 1, 1, 0.14000000000000001
246, 2, 2, 0.014999999999999999
246, 3, 3, 0.02
246, 11, 11, 300
247, 1, 1, 0.089999999999999997
247, 2, 2, 0.044999999999999998
247, 3, 3, 0.14999999999999999
247, 11, 11, 302
248, 1, 1, -0.040000000000000001
248, 2, 2, 0.11
248, 3, 3, 0.025000000000000001
248, 11, 11, 300
249, 1, 1, 0
249, 2, 2, 0
249, 3, 3, 0
249, 11, 11, 300
250, 1, 1, 0.12
250, 2, 2, 0.025000000000000001
250, 3, 3, 0.040000000000000001
250, 11, 11, 300
251, 1, 1, 0.059999999999999998
251, 2, 2, 0.10000000000000001
251, 3, 3, -0.035000000000000003
251, 11, 11, 300
252, 1, 1, -0.014999999999999999
252, 2, 2, 0.029999999999999999
252, 3, 3, 0.01
252, 11, 11, 300
253, 1, 1, 0.029999999999999999
253, 2, 2, -0.02
253, 3, 3, 0.080000000000000002
253, 11, 11, 300
254, 1, 1, 0.14000000000000001
254, 2, 2, 0.014999999999999999
254, 3, 3, 0.02
254, 11, 11, 300
255, 1, 1, 0.089999999999999997
255, 2, 2, 0.044999999999999998
255, 3, 3, 0.14999999999999999
255, 11, 11, 300
256, 1, 1, -0.040000000000000001
256, 2, 2, 0.11
256, 3, 3, 0.025000000000000001
256, 11, 11, 302
257, 1, 1, 0
257, 2, 2, 0
257, 3, 3, 0
257, 11, 11, 312
258, 1, 1, 0.12
258, 2, 2, 0.025000000000000001
258, 3, 3, 0.040000000000000001
258, 11, 11, 330
259, 1, 1, 0.059999999999999998
259, 2, 2, 0.10000000000000001
259, 3, 3, -0.035000000000000003
259, 11, 11, 350
260, 1, 1, -0.014999999999999999
260, 2, 2, 0.029999999999999999
260, 3, 3, 0.01
260, 11, 11, 370
261, 1, 1, 0.029999999999999999
261, 2, 2, -0.02
261, 3, 3, 0.080000000000000002
261, 11, 11, 390
262, 1, 1, 0.14000000000000001
262, 2, 2, 0.014999999999999999
262, 3, 3, 0.02
262, 11, 11, 410
263, 1, 1, 0.089999999999999997
263, 2, 2, 0.044999999999999998
263, 3, 3, 0.14999999999999999
263, 11, 11, 430
264, 1, 1, -0.040000000000000001
264, 2, 2, 0.11
264, 3, 3, 0.025000000000000001
264, 11, 11, 450
265, 1, 1, 0
265, 2, 2, 0
265, 3, 3, 0
265, 11, 11, 310
266, 1, 1, 0.12
266, 2, 2, 0.025000000000000001
266, 3, 3, 0.040000000000000001
266, 11, 11, 332
267, 1, 1, 0.059999999999999998
267, 2, 2, 0.10000000000000001
267, 3, 3, -0.035000000000000003
267, 11, 11, 350
268, 1, 1, -0.014999999999999999
268, 2, 2, 0.029999999999999999
268, 3, 3, 0.01
268, 11, 11, 370
269, 1, 1, 0.029999999999999999
269, 2, 2, -0.02
269, 3, 3, 0.080000000000000002
269, 11, 11, 390
270, 1, 1, 0.14000000000000001
270, 2, 2, 0.014999999999999999
270, 3, 3, 0.02
270, 11, 11, 410
271, 1, 1, 0.089999999999999997
271, 2, 2, 0.044999999999999998
271, 3, 3, 0.14999999999999999
271, 11, 11, 430
272, 1, 1, -0.040000000000000001
272, 2, 2, 0.11
272, 3, 3, 0.025000000000000001
272, 11, 11, 450
273, 1, 1, 0
273, 2, 2, 0
273, 3, 3, 0
273, 11, 11, 310
274, 1, 1, 0.12
274, 2, 2, 0.025000000000000001
274, 3, 3, 0.040000000000000001
274, 11, 11, 330
275, 1, 1, 0.059999999999999998
275, 2, 2, 0.10000000000000001
275, 3, 3, -0.035000000000000003
275, 11, 11, 352
276, 1, 1, -0.014999999999999999
276, 2, 2, 0.029999999999999999
276, 3, 3, 0.01
276, 11, 11, 370
277, 1, 1, 0.029999999999999999
277, 2, 2, -0.02
277, 3, 3, 0.080000000000000002
277, 11, 11, 390
278, 1, 1, 0.14000000000000001
278, 2, 2, 0.014999999999999999
278, 3, 3, 0.02
278, 11, 11, 410
279, 1, 1, 0.089999999999999997
279, 2, 2, 0.044999999999999998
279, 3, 3, 0.14999999999999999
279, 11, 11, 430
280, 1, 1, -0.040000000000000001
280, 2, 2, 0.11
280, 3, 3, 0.025000000000000001
280, 11, 11, 450
281, 1, 1, 0
281, 2, 2, 0
281, 3, 3, 0
281, 11, 11, 310
282, 1, 1, 0.12
282, 2, 2, 0.025000000000000001
282, 3, 3, 0.040000000000000001
282, 11, 11, 330
283, 1, 1, 0.059999999999999998
283, 2, 2, 0.10000000000000001
283, 3, 3, -0.035000000000000003
283, 11, 11, 350
284, 1, 1, -0.014999999999999999
284, 2, 2, 0.029999999999999999
284, 3, 3, 0.01
284, 11, 11, 372
285, 1, 1, 0.029999999999999999
285, 2, 2, -0.02
285, 3, 3, 0.080000000000000002
285, 11, 11, 390
286, 1, 1, 0.14000000000000001
286, 2, 2, 0.014999999999999999
286, 3, 3, 0.02
286, 11, 11, 410
287, 1, 1, 0.089999999999999997
287, 2, 2, 0.044999999999999998
287, 3, 3, 0.14999999999999999
287, 11, 11, 430
288, 1, 1, -0.040000000000000001
288, 2, 2, 0.11
288, 3, 3, 0.025000000000000001
288, 11, 11, 450
289, 1, 1, 0
289, 2, 2, 0
289, 3, 3, 0
289, 11, 11, 310
290, 1, 1, 0.12
290, 2, 2, 0.025000000000000001
290, 3, 3, 0.040000000000000001
290, 11, 11, 330
291, 1, 1, 0.059999999999999998
291, 2, 2, 0.10000000000000001
291, 3, 3, -0.035000000000000003
291, 11, 11, 350
292, 1, 1, -0.014999999999999999
292, 2, 2, 0.029999999999999999
292, 3, 3, 0.01
292, 11, 11, 370
293, 1, 1, 0.029999999999999999
293, 2, 2, -0.02
293, 3, 3, 0.080000000000000002
293, 11, 11, 392
294, 1, 1, 0.14000000000000001
294, 2, 2, 0.014999999999999999
294, 3, 3, 0.02
294, 11, 11, 410
295, 1, 1, 0.089999999999999997
295, 2, 2, 0.044999999999999998
295, 3, 3, 0.14999999999999999
295, 11, 11, 430
296, 1, 1, -0.040000000000000001
296, 2, 2, 0.11
296, 3, 3, 0.025000000000000001
296, 11, 11, 450
297, 1, 1, 0
297, 2, 2, 0
297, 3, 3, 0
297, 11, 11, 310
298, 1, 1, 0.12
298, 2, 2, 0.025000000000000001
298, 3, 3, 0.040000000000000001
298, 11, 11, 330
299, 1, 1, 0.059999999999999998
299, 2, 2, 0.10000000000000001
299, 3, 3, -0.035000000000000003
299, 11, 11, 350
300, 1, 1, -0.014999999999999999
300, 2, 2, 0.029999999999999999
300, 3, 3, 0.01
300, 11, 11, 370
301, 1, 1, 0.029999999999999999
301, 2, 2, -0.02
301, 3, 3, 0.080000000000000002
301, 11, 11, 390
302, 1, 1, 0.14000000000000001
302, 2, 2, 0.014999999999999999
302, 3, 3, 0.02
302, 11, 11, 412
303, 1, 1, 0.089999999999999997
303, 2, 2, 0.044999999999999998
303, 3, 3, 0.14999999999999999
303, 11, 11, 430
304, 1, 1, -0.040000000000000001
304, 2, 2, 0.11
304, 3, 3, 0.025000000000000001
304, 11, 11, 450
305, 1, 1, 0
305, 2, 2, 0
305, 3, 3, 0
305, 11, 11, 310
306, 1, 1, 0.12
306, 2, 2, 0.025000000000000001
306, 3, 3, 0.040000000000000001
306, 11, 11, 330
307, 1, 1, 0.059999999999999998
307, 2, 2, 0.10000000000000001
307, 3, 3, -0.035000000000000003
307, 11, 11, 350
308, 1, 1, -0.014999999999999999
308, 2, 2, 0.029999999999999999
308, 3, 3, 0.01
308, 11, 11, 370
309, 1, 1, 0.029999999999999999
309, 2, 2, -0.02
309, 3, 3, 0.080000000000000002
309, 11, 11, 390
310, 1, 1, 0.14000000000000001
310, 2, 2, 0.014999999999999999
310, 3, 3, 0.02
310, 11, 11, 410
311, 1, 1, 0.089999999999999997
311, 2, 2, 0.044999999999999998
311, 3, 3, 0.14999999999999999
311, 11, 11, 432
312, 1, 1, -0.040000000000000001
312, 2, 2, 0.11
312, 3, 3, 0.025000000000000001
312, 11, 11, 450
313, 1, 1, 0
313, 2, 2, 0
313, 3, 3, 0
313, 11, 11, 310
314, 1, 1, 0.12
314, 2, 2, 0.025000000000000001
314, 3, 3, 0.040000000000000001
314, 11, 11, 330
315, 1, 1, 0.059999999999999998
315, 2, 2, 0.10000000000000001
315, 3, 3, -0.035000000000000003
315, 11, 11, 350
316, 1, 1, -0.014999999999999999
316, 2, 2, 0.029999999999999999
316, 3, 3, 0.01
316, 11, 11, 370
317, 1, 1, 0.029999999999999999
317, 2, 2, -0.02
317, 3, 3, 0.080000000000000002
317, 11, 11, 390
318, 1, 1, 0.14000000000000001
318, 2, 2, 0.014999999999999999
318, 3, 3, 0.02
318, 11, 11, 410
319, 1, 1, 0.089999999999999997
319, 2, 2, 0.044999999999999998
319, 3, 3, 0.14999999999999999
319, 11, 11, 430
320, 1, 1, -0.040000000000000001
320, 2, 2, 0.11
320, 3, 3, 0.025000000000000001
320, 11, 11, 452
321, 1, 1, 0
321, 2, 2, 0
321, 3, 3, 0
321, 11, 11, 312
322, 1, 1, 0.12
322, 2, 2, 0.025000000000000001
322, 3, 3, 0.040000000000000001
322, 11, 11, 330
323, 1, 1, 0.059999999999999998
323, 2, 2, 0.10000000000000001
323, 3, 3, -0.035000000000000003
323, 11, 11, 350
324, 1, 1, -0.014999999999999999
324, 2, 2, 0.029999999999999999
324, 3, 3, 0.01
324, 11, 11, 370
325, 1, 1, 0.029999999999999999
325, 2, 2, -0.02
325, 3, 3, 0.080000000000000002
325, 11, 11, 390
326, 1, 1, 0.14000000000000001
326, 2, 2, 0.014999999999999999
326, 3, 3, 0.02
326, 11, 11, 410
327, 1, 1, 0.089999999999999997
327, 2, 2, 0.044999999999999998
327, 3, 3, 0.14999999999999999
327, 11, 11, 430
328, 1, 1, -0.040000000000000001
328, 2, 2, 0.11
328, 3, 3, 0.025000000000000001
328, 11, 11, 450
329, 1, 1, 0
329, 2, 2, 0
329, 3, 3, 0
329, 11, 11, 310
330, 1, 1, 0.12
330, 2, 2, 0.025000000000000001
330, 3, 3, 0.040000000000000001
330, 11, 11, 332
331, 1, 1, 0.059999999999999998
331, 2, 2, 0.10000000000000001
331, 3, 3, -0.035000000000000003
331, 11, 11, 350
332, 1, 1, -0.014999999999999999
332, 2, 2, 0.029999999999999999
332, 3, 3, 0.01
332, 11, 11, 370
333, 1, 1, 0.029999999999999999
333, 2, 2, -0.02
333, 3, 3, 0.080000000000000002
333, 11, 11, 390
334, 1, 1, 0.14000000000000001
334, 2, 2, 0.014999999999999999
334, 3, 3, 0.02
334, 11, 11, 410
335, 1, 1, 0.089999999999999997
335, 2, 2, 0.044999999999999998
335, 3, 3, 0.14999999999999999
335, 11, 11, 430
336, 1, 1, -0.040000000000000001
336, 2, 2, 0.11
336, 3, 3, 0.025000000000000001
336, 11, 11, 450
337, 1, 1, 0
337, 2, 2, 0
337, 3, 3, 0
337, 11, 11, 310
338, 1, 1, 0.12
338, 2, 2, 0.025000000000000001
338, 3, 3, 0.040000000000000001
338, 11, 11, 330
339, 1, 1, 0.059999999999999998
339, 2, 2, 0.10000000000000001
339, 3, 3, -0.035000000000000003
339, 11, 11, 352
340, 1, 1, -0.014999999999999999
340, 2, 2, 0.029999999999999999
340, 3, 3, 0.01
340, 11, 11, 370
341, 1, 1, 0.029999999999999999
341, 2, 2, -0.02
341, 3, 3, 0.080000000000000002
341, 11, 11, 390
342, 1, 1, 0.14000000000000001
342, 2, 2, 0.014999999999999999
342, 3, 3, 0.02
342, 11, 11, 410
343, 1, 1, 0.089999999999999997
343, 2, 2, 0.044999999999999998
343, 3, 3, 0.14999999999999999
343, 11, 11, 430
344, 1, 1, -0.040000000000000001
344, 2, 2, 0.11
344, 3, 3, 0.025000000000000001
344, 11, 11, 450
345, 1, 1, 0
345, 2, 2, 0
345, 3, 3, 0
345, 11, 11, 310
346, 1, 1, 0.12
346, 2, 2, 0.025000000000000001
346, 3, 3, 0.040000000000000001
346, 11, 11, 330
347, 1, 1, 0.059999999999999998
347, 2, 2, 0.10000000000000001
347, 3, 3, -0.035000000000000003
347, 11, 11, 350
348, 1, 1, -0.014999999999999999
348, 2, 2, 0.029999999999999999
348, 3, 3, 0.01
348, 11, 11, 372
349, 1, 1, 0.029999999999999999
349, 2, 2, -0.02
349, 3, 3, 0.080000000000000002
349, 11, 11, 390
350, 1, 1, 0.14000000000000001
350, 2, 2, 0.014999999999999999
350, 3, 3, 0.02
350, 11, 11, 410
351, 1, 1, 0.089999999999999997
351, 2, 2, 0.044999999999999998
351, 3, 3, 0.14999999999999999
351, 11, 11, 430
352, 1, 1, -0.040000000000000001
352, 2, 2, 0.11
352, 3, 3, 0.025000000000000001
352, 11, 11, 450
353, 1, 1, 0
353, 2, 2, 0
353, 3, 3, 0
353, 11, 11, 310
354, 1, 1, 0.12
354, 2, 2, 0.025000000000000001
354, 3, 3, 0.040000000000000001
354, 11, 11, 330
355, 1, 1, 0.059999999999999998
355, 2, 2, 0.10000000000000001
355, 3, 3, -0.035000000000000003
355, 11, 11, 350
356, 1, 1, -0.014999999999999999
356, 2, 2, 0.029999999999999999
356, 3, 3, 0.01
356, 11, 11, 370
357, 1, 1, 0.029999999999999999
357, 2, 2, -0.02
357, 3, 3, 0.080000000000000002
357, 11, 11, 392
358, 1, 1, 0.14000000000000001
358, 2, 2, 0.014999999999999999
358, 3, 3, 0.02
358, 11, 11, 410
359, 1, 1, 0.089999999999999997
359, 2, 2, 0.044999999999999998
359, 3, 3, 0.14999999999999999
359, 11, 11, 430
360, 1, 1, -0.040000000000000001
360, 2, 2, 0.11
360, 3, 3, 0.025000000000000001
360, 11, 11, 450
361, 1, 1, 0
361, 2, 2, 0
361, 3, 3, 0
361, 11, 11, 310
362, 1, 1, 0.12
362, 2, 2, 0.025000000000000001
362, 3, 3, 0.040000000000000001
362, 11, 11, 330
363, 1, 1, 0.059999999999999998
363, 2, 2, 0.10000000000000001
363, 3, 3, -0.035000000000000003
363, 11, 11, 350
364, 1, 1, -0.014999999999999999
364, 2, 2, 0.029999999999999999
364, 3, 3, 0.01
364, 11, 11, 370
365, 1, 1, 0.029999999999999999
365, 2, 2, -0.02
365, 3, 3, 0.080000000000000002
365, 11, 11, 390
366, 1, 1, 0.14000000000000001
366, 2, 2, 0.014999999999999999
366, 3, 3, 0.02
366, 11, 11, 412
367, 1, 1, 0.089999999999999997
367, 2, 2, 0.044999999999999998
367, 3, 3, 0.14999999999999999
367, 11, 11, 430
368, 1, 1, -0.040000000000000001
368, 2, 2, 0.11
368, 3, 3, 0.025000000000000001
368, 11, 11, 450
369, 1, 1, 0
369, 2, 2, 0
369, 3, 3, 0
369, 11, 11, 310
370, 1, 1, 0.12
370, 2, 2, 0.025000000000000001
370, 3, 3, 0.040000000000000001
370, 11, 11, 330
371, 1, 1, 0.059999999999999998
371, 2, 2, 0.10000000000000001
371, 3, 3, -0.035000000000000003
371, 11, 11, 350
372, 1, 1, -0.014999999999999999
372, 2, 2, 0.029999999999999999
372, 3, 3, 0.01
372, 11, 11, 370
373, 1, 1, 0.029999999999999999
373, 2, 2, -0.02
373, 3, 3, 0.080000000000000002
373, 11, 11, 390
374, 1, 1, 0.14000000000000001
374, 2, 2, 0.014999999999999999
374, 3, 3, 0.02
374, 11, 11, 410
375, 1, 1, 0.089999999999999997
375, 2, 2, 0.044999999999999998
375, 3, 3, 0.14999999999999999
375, 11, 11, 432
376, 1, 1, -0.040000000000000001
376, 2, 2, 0.11
376, 3, 3, 0.025000000000000001
376, 11, 11, 450
377, 1, 1, 0
377, 2, 2, 0
377, 3, 3, 0
377, 11, 11, 310
378, 1, 1, 0.12
378, 2, 2, 0.025000000000000001
378, 3, 3, 0.040000000000000001
378, 11, 11, 330
379, 1, 1, 0.059999999999999998
379, 2, 2, 0.10000000000000001
379, 3, 3, -0.035000000000000003
379, 11, 11, 350
380, 1, 1, -0.014999999999999999
380, 2, 2, 0.029999999999999999
380, 3, 3, 0.01
380, 11, 11, 370
381, 1, 1, 0.029999999999999999
381, 2, 2, -0.02
381, 3, 3, 0.080000000000000002
381, 11, 11, 390
382, 1, 1, 0.14000000000000001
382, 2, 2, 0.014999999999999999
382, 3, 3, 0.02
382, 11, 11, 410
383, 1, 1, 0.089999999999999997
383, 2, 2, 0.044999999999999998
383, 3, 3, 0.14999999999999999
383, 11, 11, 430
384, 1, 1, -0.040000000000000001
384, 2, 2, 0.11
384, 3, 3, 0.025000000000000001
384, 11, 11, 452
385, 1, 1, 0
385, 2, 2, 0
385, 3, 3, 0
385, 11, 11, 302
386, 1, 1, 0.12
386, 2, 2, 0.025000000000000001
386, 3, 3, 0.040000000000000001
386, 11, 11, 300
387, 1, 1, 0.059999999999999998
387, 2, 2, 0.10000000000000001
387, 3, 3, -0.035000000000000003
387, 11, 11, 300
388, 1, 1, -0.014999999999999999
388, 2, 2, 0.029999999999999999
388, 3, 3, 0.01
388, 11, 11, 300
389, 1, 1, 0.029999999999999999
389, 2, 2, -0.02
389, 3, 3, 0.080000000000000002
389, 11, 11, 300
390, 1, 1, 0.14000000000000001
390, 2, 2, 0.014999999999999999
390, 3, 3, 0.02
390, 11, 11, 300
391, 1, 1, 0.089999999999999997
391, 2, 2, 0.044999999999999998
391, 3, 3, 0.14999999999999999
391, 11, 11, 300
392, 1, 1, -0.040000000000000001
392, 2, 2, 0.11
392, 3, 3, 0.025000000000000001
392, 11, 11, 300
393, 1, 1, 0
393, 2, 2, 0
393, 3, 3, 0
393, 11, 11, 300
394, 1, 1, 0.12
394, 2, 2, 0.025000000000000001
394, 3, 3, 0.040000000000000001
394, 11, 11, 302
395, 1, 1, 0.059999999999999998
395, 2, 2, 0.10000000000000001
395, 3, 3, -0.035000000000000003
395, 11, 11, 300
396, 1, 1, -0.014999999999999999
396, 2, 2, 0.029999999999999999
396, 3, 3, 0.01
396, 11, 11, 300
397, 1, 1, 0.029999999999999999
397, 2, 2, -0.02
397, 3, 3, 0.080000000000000002
397, 11, 11, 300
398, 1, 1, 0.14000000000000001
398, 2, 2, 0.014999999999999999
398, 3, 3, 0.02
398, 11, 11, 300
399, 1, 1, 0.089999999999999997
399, 2, 2, 0.044999999999999998
399, 3, 3, 0.14999999999999999
399, 11, 11, 300
400, 1, 1, -0.040000000000000001
400, 2, 2, 0.11
400, 3, 3, 0.025000000000000001
400, 11, 11, 300
401, 1, 1, 0
401, 2, 2, 0
401, 3, 3, 0
401, 11, 11, 300
402, 1, 1, 0.12
402, 2, 2, 0.025000000000000001
402, 3, 3, 0.040000000000000001
402, 11, 11, 300
403, 1, 1, 0.059999999999999998
403, 2, 2, 0.10000000000000001
403, 3, 3, -0.035000000000000003
403, 11, 11, 302
404, 1, 1, -0.014999999999999999
404, 2, 2, 0.029999999999999999
404, 3, 3, 0.01
404, 11, 11, 300
405, 1, 1, 0.029999999999999999
405, 2, 2, -0.02
405, 3, 3, 0.080000000000000002
405, 11, 11, 300
406, 1, 1, 0.14000000000000001
406, 2, 2, 0.014999999999999999
406, 3, 3, 0.02
406, 11, 11, 300
407, 1, 1, 0.089999999999999997
407, 2, 2, 0.044999999999999998
407, 3, 3, 0.14999999999999999
407, 11, 11, 300
408, 1, 1, -0.040000000000000001
408, 2, 2, 0.11
408, 3, 3, 0.025000000000000001
408, 11, 11, 300
409, 1, 1, 0
409, 2, 2, 0
409, 3, 3, 0
409, 11, 11, 300
410, 1, 1, 0.12
410, 2, 2, 0.025000000000000001
410, 3, 3, 0.040000000000000001
410, 11, 11, 300
411, 1, 1, 0.059999999999999998
411, 2, 2, 0.10000000000000001
411, 3, 3, -0.035000000000000003
411, 11, 11, 300
412, 1, 1, -0.014999999999999999
412, 2, 2, 0.029999999999999999
412, 3, 3, 0.01
412, 11, 11, 302
413, 1, 1, 0.029999999999999999
413, 2, 2, -0.02
413, 3, 3, 0.080000000000000002
413, 11, 11, 300
414, 1, 1, 0.14000000000000001
414, 2, 2, 0.014999999999999999
414, 3, 3, 0.02
414, 11, 11, 300
415, 1, 1, 0.089999999999999997
415, 2, 2, 0.044999999999999998
415, 3, 3, 0.14999999999999999
415, 11, 11, 300
416, 1, 1, -0.040000000000000001
416, 2, 2, 0.11
416, 3, 3, 0.025000000000000001
416, 11, 11, 300
417, 1, 1, 0
417, 2, 2, 0
417, 3, 3, 0
417, 11, 11, 300
418, 1, 1, 0.12
418, 2, 2, 0.025000000000000001
418, 3, 3, 0.040000000000000001
418, 11, 11, 300
419, 1, 1, 0.059999999999999998
419, 2, 2, 0.10000000000000001
419, 3, 3, -0.035000000000000003
419, 11, 11, 300
420, 1, 1, -0.014999999999999999
420, 2, 2, 0.029999999999999999
420, 3, 3, 0.01
420, 11, 11, 300
421, 1, 1, 0.029999999999999999
421, 2, 2, -0.02
421, 3, 3, 0.080000000000000002
421, 11, 11, 302
422, 1, 1, 0.14000000000000001
422, 2, 2, 0.014999999999999999
422, 3, 3, 0.02
422, 11, 11, 300
423, 1, 1, 0.089999999999999997
423, 2, 2, 0.044999999999999998
423, 3, 3, 0.14999999999999999
423, 11, 11, 300
424, 1, 1, -0.040000000000000001
424, 2, 2, 0.11
424, 3, 3, 0.025000000000000001
424, 11, 11, 300
425, 1, 1, 0
425, 2, 2, 0
425, 3, 3, 0
425, 11, 11, 300
426, 1, 1, 0.12
426, 2, 2, 0.025000000000000001
426, 3, 3, 0.040000000000000001
426, 11, 11, 300
427, 1, 1, 0.059999999999999998
427, 2, 2, 0.10000000000000001
427, 3, 3, -0.035000000000000003
427, 11, 11, 300
428, 1, 1, -0.014999999999999999
428, 2, 2, 0.029999999999999999
428, 3, 3, 0.01
428, 11, 11, 300
429, 1, 1, 0.029999999999999999
429, 2, 2, -0.02
429, 3, 3, 0.080000000000000002
429, 11, 11, 300
430, 1, 1, 0.14000000000000001
430, 2, 2, 0.014999999999999999
430, 3, 3, 0.02
430, 11, 11, 302
431, 1, 1, 0.089999999999999997
431, 2, 2, 0.044999999999999998
431, 3, 3, 0.14999999999999999
431, 11, 11, 300
432, 1, 1, -0.040000000000000001
432, 2, 2, 0.11
432, 3, 3, 0.025000000000000001
432, 11, 11, 300
433, 1, 1, 0
433, 2, 2, 0
433, 3, 3, 0
433, 11, 11, 300
434, 1, 1, 0.12
434, 2, 2, 0.025000000000000001
434, 3, 3, 0.040000000000000001
434, 11, 11, 300
435, 1, 1, 0.059999999999999998
435, 2, 2, 0.10000000000000001
435, 3, 3, -0.035000000000000003
435, 11, 11, 300
436, 1, 1, -0.014999999999999999
436, 2, 2, 0.029999999999999999
436, 3, 3, 0.01
436, 11, 11, 300
437, 1, 1, 0.029999999999999999
437, 2, 2, -0.02
437, 3, 3, 0.080000000000000002
437, 11, 11, 300
438, 1, 1, 0.14000000000000001
438, 2, 2, 0.014999999999999999
438, 3, 3, 0.02
438, 11, 11, 300
439, 1, 1, 0.089999999999999997
439, 2, 2, 0.044999999999999998
439, 3, 3, 0.14999999999999999
439, 11, 11, 302
440, 1, 1, -0.040000000000000001
440, 2, 2, 0.11
440, 3, 3, 0.025000000000000001
440, 11, 11, 300
441, 1, 1, 0
441, 2, 2, 0
441, 3, 3, 0
441, 11, 11, 300
442, 1, 1, 0.12
442, 2, 2, 0.025000000000000001
442, 3, 3, 0.040000000000000001
442, 11, 11, 300
443, 1, 1, 0.059999999999999998
443, 2, 2, 0.10000000000000001
443, 3, 3, -0.035000000000000003
443, 11, 11, 300
444, 1, 1, -0.014999999999999999
444, 2, 2, 0.029999999999999999
444, 3, 3, 0.01
444, 11, 11, 300
445, 1, 1, 0.029999999999999999
445, 2, 2, -0.02
445, 3, 3, 0.080000000000000002
445, 11, 11, 300
446, 1, 1, 0.14000000000000001
446, 2, 2, 0.014999999999999999
446, 3, 3, 0.02
446, 11, 11, 300
447, 1, 1, 0.089999999999999997
447, 2, 2, 0.044999999999999998
447, 3, 3, 0.14999999999999999
447, 11, 11, 300
448, 1, 1, -0.040000000000000001
448, 2, 2, 0.11
448, 3, 3, 0.025000000000000001
448, 11, 11, 302
449, 1, 1, 0
449, 2, 2, 0
449, 3, 3, 0
449, 11, 11, 312
450, 1, 1, 0.12
450, 2, 2, 0.025000000000000001
450, 3, 3, 0.040000000000000001
450, 11, 11, 330
451, 1, 1, 0.059999999999999998
451, 2, 2, 0.10000000000000001
451, 3, 3, -0.035000000000000003
451, 11, 11, 350
452, 1, 1, -0.014999999999999999
452, 2, 2, 0.029999999999999999
452, 3, 3, 0.01
452, 11, 11, 370
453, 1, 1, 0.029999999999999999
453, 2, 2, -0.02
453, 3, 3, 0.080000000000000002
453, 11, 11, 390
454, 1, 1, 0.14000000000000001
454, 2, 2, 0.014999999999999999
454, 3, 3, 0.02
454, 11, 11, 410
455, 1, 1, 0.089999999999999997
455, 2, 2, 0.044999999999999998
455, 3, 3, 0.14999999999999999
455, 11, 11, 430
456, 1, 1, -0.040000000000000001
456, 2, 2, 0.11
456, 3, 3, 0.025000000000000001
456, 11, 11, 450
457, 1, 1, 0
457, 2, 2, 0
457, 3, 3, 0
457, 11, 11, 310
458, 1, 1, 0.12
458, 2, 2, 0.025000000000000001
458, 3, 3, 0.040000000000000001
458, 11, 11, 332
459, 1, 1, 0.059999999999999998
459, 2, 2, 0.10000000000000001
459, 3, 3, -0.035000000000000003
459, 11, 11, 350
460, 1, 1, -0.014999999999999999
460, 2, 2, 0.029999999999999999
460, 3, 3, 0.01
460, 11, 11, 370
461, 1, 1, 0.029999999999999999
461, 2, 2, -0.02
461, 3, 3, 0.080000000000000002
461, 11, 11, 390
462, 1, 1, 0.14000000000000001
462, 2, 2, 0.014999999999999999
462, 3, 3, 0.02
462, 11, 11, 410
463, 1, 1, 0.089999999999999997
463, 2, 2, 0.044999999999999998
463, 3, 3, 0.14999999999999999
463, 11, 11, 430
464, 1, 1, -0.040000000000000001
464, 2, 2, 0.11
464, 3, 3, 0.025000000000000001
464, 11, 11, 450
465, 1, 1, 0
465, 2, 2, 0
465, 3, 3, 0
465, 11, 11, 310
466, 1, 1, 0.12
466, 2, 2, 0.025000000000000001
466, 3, 3, 0.040000000000000001
466, 11, 11, 330
467, 1, 1, 0.059999999999999998
467, 2, 2, 0.10000000000000001
467, 3, 3, -0.035000000000000003
467, 11, 11, 352
468, 1, 1, -0.014999999999999999
468, 2, 2, 0.029999999999999999
468, 3, 3, 0.01
468, 11, 11, 370
469, 1, 1, 0.029999999999999999
469, 2, 2, -0.02
469, 3, 3, 0.080000000000000002
469, 11, 11, 390
470, 1, 1, 0.14000000000000001
470, 2, 2, 0.014999999999999999
470, 3, 3, 0.02
470, 11, 11, 410
471, 1, 1, 0.089999999999999997
471, 2, 2, 0.044999999999999998
471, 3, 3, 0.14999999999999999
471, 11, 11, 430
472, 1, 1, -0.040000000000000001
472, 2, 2, 0.11
472, 3, 3, 0.025000000000000001
472, 11, 11, 450
473, 1, 1, 0
473, 2, 2, 0
473, 3, 3, 0
473, 11, 11, 310
474, 1, 1, 0.12
474, 2, 2, 0.025000000000000001
474, 3, 3, 0.040000000000000001
474, 11, 11, 330
475, 1, 1, 0.059999999999999998
475, 2, 2, 0.10000000000000001
475, 3, 3, -0.035000000000000003
475, 11, 11, 350
476, 1, 1, -0.014999999999999999
476, 2, 2, 0.029999999999999999
476, 3, 3, 0.01
476, 11, 11, 372
477, 1, 1, 0.029999999999999999
477, 2, 2, -0.02
477, 3, 3, 0.080000000000000002
477, 11, 11, 390
478, 1, 1, 0.14000000000000001
478, 2, 2, 0.014999999999999999
478, 3, 3, 0.02
478, 11, 11, 410
479, 1, 1, 0.089999999999999997
479, 2, 2, 0.044999999999999998
479, 3, 3, 0.14999999999999999
479, 11, 11, 430
480, 1, 1, -0.040000000000000001
480, 2, 2, 0.11
480, 3, 3, 0.025000000000000001
480, 11, 11, 450
481, 1, 1, 0
481, 2, 2, 0
481, 3, 3, 0
481, 11, 11, 310
482, 1, 1, 0.12
482, 2, 2, 0.025000000000000001
482, 3, 3, 0.040000000000000001
482, 11, 11, 330
483, 1, 1, 0.059999999999999998
483, 2, 2, 0.10000000000000001
483, 3, 3, -0.035000000000000003
483, 11, 11, 350
484, 1, 1, -0.014999999999999999
484, 2, 2, 0.029999999999999999
484, 3, 3, 0.01
484, 11, 11, 370
485, 1, 1, 0.029999999999999999
485, 2, 2, -0.02
485, 3, 3, 0.080000000000000002
485, 11, 11, 392
486, 1, 1, 0.14000000000000001
486, 2, 2, 0.014999999999999999
486, 3, 3, 0.02
486, 11, 11, 410
487, 1, 1, 0.089999999999999997
487, 2, 2, 0.044999999999999998
487, 3, 3, 0.14999999999999999
487, 11, 11, 430
488, 1, 1, -0.040000000000000001
488, 2, 2, 0.11
488, 3, 3, 0.025000000000000001
488, 11, 11, 450
489, 1, 1, 0
489, 2, 2, 0
489, 3, 3, 0
489, 11, 11, 310
490, 1, 1, 0.12
490, 2, 2, 0.025000000000000001
490, 3, 3, 0.040000000000000001
490, 11, 11, 330
491, 1, 1, 0.059999999999999998
491, 2, 2, 0.10000000000000001
491, 3, 3, -0.035000000000000003
491, 11, 11, 350
492, 1, 1, -0.014999999999999999
492, 2, 2, 0.029999999999999999
492, 3, 3, 0.01
492, 11, 11, 370
493, 1, 1, 0.029999999999999999
493, 2, 2, -0.02
493, 3, 3, 0.080000000000000002
493, 11, 11, 390
494, 1, 1, 0.14000000000000001
494, 2, 2, 0.014999999999999999
494, 3, 3, 0.02
494, 11, 11, 412
495, 1, 1, 0.089999999999999997
495, 2, 2, 0.044999999999999998
495, 3, 3, 0.14999999999999999
495, 11, 11, 430
496, 1, 1, -0.040000000000000001
496, 2, 2, 0.11
496, 3, 3, 0.025000000000000001
496, 11, 11, 450
497, 1, 1, 0
497, 2, 2, 0
497, 3, 3, 0
497, 11, 11, 310
498, 1, 1, 0.12
498, 2, 2, 0.025000000000000001
498, 3, 3, 0.040000000000000001
498, 11, 11, 330
499, 1, 1, 0.059999999999999998
499, 2, 2, 0.10000000000000001
499, 3, 3, -0.035000000000000003
499, 11, 11, 350
500, 1, 1, -0.014999999999999999
500, 2, 2, 0.029999999999999999
500, 3, 3, 0.01
500, 11, 11, 370
501, 1, 1, 0.029999999999999999
501, 2, 2, -0.02
501, 3, 3, 0.080000000000000002
501, 11, 11, 390
502, 1, 1, 0.14000000000000001
502, 2, 2, 0.014999999999999999
502, 3, 3, 0.02
502, 11, 11, 410
503, 1, 1, 0.089999999999999997
503, 2, 2, 0.044999999999999998
503, 3, 3, 0.14999999999999999
503, 11, 11, 432
504, 1, 1, -0.040000000000000001
504, 2, 2, 0.11
504, 3, 3, 0.025000000000000001
504, 11, 11, 450
505, 1, 1, 0
505, 2, 2, 0
505, 3, 3, 0
505, 11, 11, 310
506, 1, 1, 0.12
506, 2, 2, 0.025000000000000001
506, 3, 3, 0.040000000000000001
506, 11, 11, 330
507, 1, 1, 0.059999999999999998
507, 2, 2, 0.10000000000000001
507, 3, 3, -0.035000000000000003
507, 11, 11, 350
508, 1, 1, -0.014999999999999999
508, 2, 2, 0.029999999999999999
508, 3, 3, 0.01
508, 11, 11, 370
509, 1, 1, 0.029999999999999999
509, 2, 2, -0.02
509, 3, 3, 0.080000000000000002
509, 11, 11, 390
510, 1, 1, 0.14000000000000001
510, 2, 2, 0.014999999999999999
510, 3, 3, 0.02
510, 11, 11, 410
511, 1, 1, 0.089999999999999997
511, 2, 2, 0.044999999999999998
511, 3, 3, 0.14999999999999999
511, 11, 11, 430
512, 1, 1, -0.040000000000000001
512, 2, 2, 0.11
512, 3, 3, 0.025000000000000001
512, 11, 11, 452
513, 1, 1, 0
513, 2, 2, 0
513, 3, 3, 0
513, 11, 11, 312
514, 1, 1, 0.12
514, 2, 2, 0.025000000000000001
514, 3, 3, 0.040000000000000001
514, 11, 11, 330
515, 1, 1, 0.059999999999999998
515, 2, 2, 0.10000000000000001
515, 3, 3, -0.035000000000000003
515, 11, 11, 350
516, 1, 1, -0.014999999999999999
516, 2, 2, 0.029999999999999999
516, 3, 3, 0.01
516, 11, 11, 370
517, 1, 1, 0.029999999999999999
517, 2, 2, -0.02
517, 3, 3, 0.080000000000000002
517, 11, 11, 390
518, 1, 1, 0.14000000000000001
518, 2, 2, 0.014999999999999999
518, 3, 3, 0.02
518, 11, 11, 410
519, 1, 1, 0.089999999999999997
519, 2, 2, 0.044999999999999998
519, 3, 3, 0.14999999999999999
519, 11, 11, 430
520, 1, 1, -0.040000000000000001
520, 2, 2, 0.11
520, 3, 3, 0.025000000000000001
520, 11, 11, 450
521, 1, 1, 0
521, 2, 2, 0
521, 3, 3, 0
521, 11, 11, 310
522, 1, 1, 0.12
522, 2, 2, 0.025000000000000001
522, 3, 3, 0.040000000000000001
522, 11, 11, 332
523, 1, 1, 0.059999999999999998
523, 2, 2, 0.10000000000000001
523, 3, 3, -0.035000000000000003
523, 11, 11, 350
524, 1, 1, -0.014999999999999999
524, 2, 2, 0.029999999999999999
524, 3, 3, 0.01
524, 11, 11, 370
525, 1, 1, 0.029999999999999999
525, 2, 2, -0.02
525, 3, 3, 0.080000000000000002
525, 11, 11, 390
526, 1, 1, 0.14000000000000001
526, 2, 2, 0.014999999999999999
526, 3, 3, 0.02
526, 11, 11, 410
527, 1, 1, 0.089999999999999997
527, 2, 2, 0.044999999999999998
527, 3, 3, 0.14999999999999999
527, 11, 11, 430
528, 1, 1, -0.040000000000000001
528, 2, 2, 0.11
528, 3, 3, 0.025000000000000001
528, 11, 11, 450
529, 1, 1, 0
529, 2, 2, 0
529, 3, 3, 0
529, 11, 11, 310
530, 1, 1, 0.12
530, 2, 2, 0.025000000000000001
530, 3, 3, 0.040000000000000001
530, 11, 11, 330
531, 1, 1, 0.059999999999999998
531, 2, 2, 0.10000000000000001
531, 3, 3, -0.035000000000000003
531, 11, 11, 352
532, 1, 1, -0.014999999999999999
532, 2, 2, 0.029999999999999999
532, 3, 3, 0.01
532, 11, 11, 370
533, 1, 1, 0.029999999999999999
533, 2, 2, -0.02
533, 3, 3, 0.080000000000000002
533, 11, 11, 390
534, 1, 1, 0.14000000000000001
534, 2, 2, 0.014999999999999999
534, 3, 3, 0.02
534, 11, 11, 410
535, 1, 1, 0.089999999999999997
535, 2, 2, 0.044999999999999998
535, 3, 3, 0.14999999999999999
535, 11, 11, 430
536, 1, 1, -0.040000000000000001
536, 2, 2, 0.11
536, 3, 3, 0.025000000000000001
536, 11, 11, 450
537, 1, 1, 0
537, 2, 2, 0
537, 3, 3, 0
537, 11, 11, 310
538, 1, 1, 0.12
538, 2, 2, 0.025000000000000001
538, 3, 3, 0.040000000000000001
538, 11, 11, 330
539, 1, 1, 0.059999999999999998
539, 2, 2, 0.10000000000000001
539, 3, 3, -0.035000000000000003
539, 11, 11, 350
540, 1, 1, -0.014999999999999999
540, 2, 2, 0.029999999999999999
540, 3, 3, 0.01
540, 11, 11, 372
541, 1, 1, 0.029999999999999999
541, 2, 2, -0.02
541, 3, 3, 0.080000000000000002
541, 11, 11, 390
542, 1, 1, 0.14000000000000001
542, 2, 2, 0.014999999999999999
542, 3, 3, 0.02
542, 11, 11, 410
543, 1, 1, 0.089999999999999997
543, 2, 2, 0.044999999999999998
543, 3, 3, 0.14999999999999999
543, 11, 11, 430
544, 1, 1, -0.040000000000000001
544, 2, 2, 0.11
544, 3, 3, 0.025000000000000001
544, 11, 11, 450
545, 1, 1, 0
545, 2, 2, 0
545, 3, 3, 0
545, 11, 11, 310
546, 1, 1, 0.12
546, 2, 2, 0.025000000000000001
546, 3, 3, 0.040000000000000001
546, 11, 11, 330
547, 1, 1, 0.059999999999999998
547, 2, 2, 0.10000000000000001
547, 3, 3, -0.035000000000000003
547, 11, 11, 350
548, 1, 1, -0.014999999999999999
548, 2, 2, 0.029999999999999999
548, 3, 3, 0.01
548, 11, 11, 370
549, 1, 1, 0.029999999999999999
549, 2, 2, -0.02
549, 3, 3, 0.080000000000000002
549, 11, 11, 392
550, 1, 1, 0.14000000000000001
550, 2, 2, 0.014999999999999999
550, 3, 3, 0.02
550, 11, 11, 410
551, 1, 1, 0.089999999999999997
551, 2, 2, 0.044999999999999998
551, 3, 3, 0.14999999999999999
551, 11, 11, 430
552, 1, 1, -0.040000000000000001
552, 2, 2, 0.11
552, 3, 3, 0.025000000000000001
552, 11, 11, 450
553, 1, 1, 0
553, 2, 2, 0
553, 3, 3, 0
553, 11, 11, 310
554, 1, 1, 0.12
554, 2, 2, 0.025000000000000001
554, 3, 3, 0.040000000000000001
554, 11, 11, 330
555, 1, 1, 0.059999999999999998
555, 2, 2, 0.10000000000000001
555, 3, 3, -0.035000000000000003
555, 11, 11, 350
556, 1, 1, -0.014999999999999999
556, 2, 2, 0.029999999999999999
556, 3, 3, 0.01
556, 11, 11, 370
557, 1, 1, 0.029999999999999999
557, 2, 2, -0.02
557, 3, 3, 0.080000000000000002
557, 11, 11, 390
558, 1, 1, 0.14000000000000001
558, 2, 2, 0.014999999999999999
558, 3, 3, 0.02
558, 11, 11, 412
559, 1, 1, 0.089999999999999997
559, 2, 2, 0.044999999999999998
559, 3, 3, 0.14999999999999999
559, 11, 11, 430
560, 1, 1, -0.040000000000000001
560, 2, 2, 0.11
560, 3, 3, 0.025000000000000001
560, 11, 11, 450
561, 1, 1, 0
561, 2, 2, 0
561, 3, 3, 0
561, 11, 11, 310
562, 1, 1, 0.12
562, 2, 2, 0.025000000000000001
562, 3, 3, 0.040000000000000001
562, 11, 11, 330
563, 1, 1, 0.059999999999999998
563, 2, 2, 0.10000000000000001
563, 3, 3, -0.035000000000000003
563, 11, 11, 350
564, 1, 1, -0.014999999999999999
564, 2, 2, 0.029999999999999999
564, 3, 3, 0.01
564, 11, 11, 370
565, 1, 1, 0.029999999999999999
565, 2, 2, -0.02
565, 3, 3, 0.080000000000000002
565, 11, 11, 390
566, 1, 1, 0.14000000000000001
566, 2, 2, 0.014999999999999999
566, 3, 3, 0.02
566, 11, 11, 410
567, 1, 1, 0.089999999999999997
567, 2, 2, 0.044999999999999998
567, 3, 3, 0.14999999999999999
567, 11, 11, 432
568, 1, 1, -0.040000000000000001
568, 2, 2, 0.11
568, 3, 3, 0.025000000000000001
568, 11, 11, 450
569, 1, 1, 0
569, 2, 2, 0
569, 3, 3, 0
569, 11, 11, 310
570, 1, 1, 0.12
570, 2, 2, 0.025000000000000001
570, 3, 3, 0.040000000000000001
570, 11, 11, 330
571, 1, 1, 0.059999999999999998
571, 2, 2, 0.10000000000000001
571, 3, 3, -0.035000000000000003
571, 11, 11, 350
572, 1, 1, -0.014999999999999999
572, 2, 2, 0.029999999999999999
572, 3, 3, 0.01
572, 11, 11, 370
573, 1, 1, 0.029999999999999999
573, 2, 2, -0.02
573, 3, 3, 0.080000000000000002
573, 11, 11, 390
574, 1, 1, 0.14000000000000001
574, 2, 2, 0.014999999999999999
574, 3, 3, 0.02
574, 11, 11, 410
575, 1, 1, 0.089999999999999997
575, 2, 2, 0.044999999999999998
575, 3, 3, 0.14999999999999999
575, 11, 11, 430
576, 1, 1, -0.040000000000000001
576, 2, 2, 0.11
576, 3, 3, 0.025000000000000001
576, 11, 11, 452
577, 1, 1, 0
577, 2, 2, 0
577, 3, 3, 0
577, 11, 11, 302
578, 1, 1, 0.12
578, 2, 2, 0.025000000000000001
578, 3, 3, 0.040000000000000001
578, 11, 11, 300
579, 1, 1, 0.059999999999999998
579, 2, 2, 0.10000000000000001
579, 3, 3, -0.035000000000000003
579, 11, 11, 300
580, 1, 1, -0.014999999999999999
580, 2, 2, 0.029999999999999999
580, 3, 3, 0.01
580, 11, 11, 300
581, 1, 1, 0.029999999999999999
581, 2, 2, -0.02
581, 3, 3, 0.080000000000000002
581, 11, 11, 300
582, 1, 1, 0.14000000000000001
582, 2, 2, 0.014999999999999999
582, 3, 3, 0.02
582, 11, 11, 300
583, 1, 1, 0.089999999999999997
583, 2, 2, 0.044999999999999998
583, 3, 3, 0.14999999999999999
583, 11, 11, 300
584, 1, 1, -0.040000000000000001
584, 2, 2, 0.11
584, 3, 3, 0.025000000000000001
584, 11, 11, 300
585, 1, 1, 0
585, 2, 2, 0
585, 3, 3, 0
585, 11, 11, 300
586, 1, 1, 0.12
586, 2, 2, 0.025000000000000001
586, 3, 3, 0.040000000000000001
586, 11, 11, 302
587, 1, 1, 0.059999999999999998
587, 2, 2, 0.10000000000000001
587, 3, 3, -0.035000000000000003
587, 11, 11, 300
588, 1, 1, -0.014999999999999999
588, 2, 2, 0.029999999999999999
588, 3, 3, 0.01
588, 11, 11, 300
589, 1, 1, 0.029999999999999999
589, 2, 2, -0.02
589, 3, 3, 0.080000000000000002
589, 11, 11, 300
590, 1, 1, 0.14000000000000001
590, 2, 2, 0.014999999999999999
590, 3, 3, 0.02
590, 11, 11, 300
591, 1, 1, 0.089999999999999997
591, 2, 2, 0.044999999999999998
591, 3, 3, 0.14999999999999999
591, 11, 11, 300
592, 1, 1, -0.040000000000000001
592, 2, 2, 0.11
592, 3, 3, 0.025000000000000001
592, 11, 11, 300
593, 1, 1, 0
593, 2, 2, 0
593, 3, 3, 0
593, 11, 11, 300
594, 1, 1, 0.12
594, 2, 2, 0.025000000000000001
594, 3, 3, 0.040000000000000001
594, 11, 11, 300
595, 1, 1, 0.059999999999999998
595, 2, 2, 0.10000000000000001
595, 3, 3, -0.035000000000000003
595, 11, 11, 302
596, 1, 1, -0.014999999999999999
596, 2, 2, 0.029999999999999999
596, 3, 3, 0.01
596, 11, 11, 300
597, 1, 1, 0.029999999999999999
597, 2, 2, -0.02
597, 3, 3, 0.080000000000000002
597, 11, 11, 300
598, 1, 1, 0.14000000000000001
598, 2, 2, 0.014999999999999999
598, 3, 3, 0.02
598, 11, 11, 300
599, 1, 1, 0.089999999999999997
599, 2, 2, 0.044999999999999998
599, 3, 3, 0.14999999999999999
599, 11, 11, 300
600, 1, 1, -0.040000000000000001
600, 2, 2, 0.11
600, 3, 3, 0.025000000000000001
600, 11, 11, 300
601, 1, 1, 0
601, 2, 2, 0
601, 3, 3, 0
601, 11, 11, 300
602, 1, 1, 0.12
602, 2, 2, 0.025000000000000001
602, 3, 3, 0.040000000000000001
602, 11, 11, 300
603, 1, 1, 0.059999999999999998
603, 2, 2, 0.10000000000000001
603, 3, 3, -0.035000000000000003
603, 11, 11, 300
604, 1, 1, -0.014999999999999999
604, 2, 2, 0.029999999999999999
604, 3, 3, 0.01
604, 11, 11, 302
605, 1, 1, 0.029999999999999999
605, 2, 2, -0.02
605, 3, 3, 0.080000000000000002
605, 11, 11, 300
606, 1, 1, 0.14000000000000001
606, 2, 2, 0.014999999999999999
606, 3, 3, 0.02
606, 11, 11, 300
607, 1, 1, 0.089999999999999997
607, 2, 2, 0.044999999999999998
607, 3, 3, 0.14999999999999999
607, 11, 11, 300
608, 1, 1, -0.040000000000000001
608, 2, 2, 0.11
608, 3, 3, 0.025000000000000001
608, 11, 11, 300
609, 1, 1, 0
609, 2, 2, 0
609, 3, 3, 0
609, 11, 11, 300
610, 1, 1, 0.12
610, 2, 2, 0.025000000000000001
610, 3, 3, 0.040000000000000001
610, 11, 11, 300
611, 1, 1, 0.059999999999999998
611, 2, 2, 0.10000000000000001
611, 3, 3, -0.035000000000000003
611, 11, 11, 300
612, 1, 1, -0.014999999999999999
612, 2, 2, 0.029999999999999999
612, 3, 3, 0.01
612, 11, 11, 300
613, 1, 1, 0.029999999999999999
613, 2, 2, -0.02
613, 3, 3, 0.080000000000000002
613, 11, 11, 302
614, 1, 1, 0.14000000000000001
614, 2, 2, 0.014999999999999999
614, 3, 3, 0.02
614, 11, 11, 300
615, 1, 1, 0.089999999999999997
615, 2, 2, 0.044999999999999998
615, 3, 3, 0.14999999999999999
615, 11, 11, 300
616, 1, 1, -0.040000000000000001
616, 2, 2, 0.11
616, 3, 3, 0.025000000000000001
616, 11, 11, 300
617, 1, 1, 0
617, 2, 2, 0
617, 3, 3, 0
617, 11, 11, 300
618, 1, 1, 0.12
618, 2, 2, 0.025000000000000001
618, 3, 3, 0.040000000000000001
618, 11, 11, 300
619, 1, 1, 0.059999999999999998
619, 2, 2, 0.10000000000000001
619, 3, 3, -0.035000000000000003
619, 11, 11, 300
620, 1, 1, -0.014999999999999999
620, 2, 2, 0.029999999999999999
620, 3, 3, 0.01
620, 11, 11, 300
621, 1, 1, 0.029999999999999999
621, 2, 2, -0.02
621, 3, 3, 0.080000000000000002
621, 11, 11, 300
622, 1, 1, 0.14000000000000001
622, 2, 2, 0.014999999999999999
622, 3, 3, 0.02
622, 11, 11, 302
623, 1, 1, 0.089999999999999997
623, 2, 2, 0.044999999999999998
623, 3, 3, 0.14999999999999999
623, 11, 11, 300
624, 1, 1, -0.040000000000000001
624, 2, 2, 0.11
624, 3, 3, 0.025000000000000001
624, 11, 11, 300
625, 1, 1, 0
625, 2, 2, 0
625, 3, 3, 0
625, 11, 11, 300
626, 1, 1, 0.12
626, 2, 2, 0.025000000000000001
626, 3, 3, 0.040000000000000001
626, 11, 11, 300
627, 1, 1, 0.059999999999999998
627, 2, 2, 0.10000000000000001
627, 3, 3, -0.035000000000000003
627, 11, 11, 300
628, 1, 1, -0.014999999999999999
628, 2, 2, 0.029999999999999999
628, 3, 3, 0.01
628, 11, 11, 300
629, 1, 1, 0.029999999999999999
629, 2, 2, -0.02
629, 3, 3, 0.080000000000000002
629, 11, 11, 300
630, 1, 1, 0.14000000000000001
630, 2, 2, 0.014999999999999999
630, 3, 3, 0.02
630, 11, 11, 300
631, 1, 1, 0.089999999999999997
631, 2, 2, 0.044999999999999998
631, 3, 3, 0.14999999999999999
631, 11, 11, 302
632, 1, 1, -0.040000000000000001
632, 2, 2, 0.11
632, 3, 3, 0.025000000000000001
632, 11, 11, 300
633, 1, 1, 0
633, 2, 2, 0
633, 3, 3, 0
633, 11, 11, 300
634, 1, 1, 0.12
634, 2, 2, 0.025000000000000001
634, 3, 3, 0.040000000000000001
634, 11, 11, 300
635, 1, 1, 0.059999999999999998
635, 2, 2, 0.10000000000000001
635, 3, 3, -0.035000000000000003
635, 11, 11, 300
636, 1, 1, -0.014999999999999999
636, 2, 2, 0.029999999999999999
636, 3, 3, 0.01
636, 11, 11, 300
637, 1, 1, 0.029999999999999999
637, 2, 2, -0.02
637, 3, 3, 0.080000000000000002
637, 11, 11, 300
638, 1, 1, 0.14000000000000001
638, 2, 2, 0.014999999999999999
638, 3, 3, 0.02
638, 11, 11, 300
639, 1, 1, 0.089999999999999997
639, 2, 2, 0.044999999999999998
639, 3, 3, 0.14999999999999999
639, 11, 11, 300
640, 1, 1, -0.040000000000000001
640, 2, 2, 0.11
640, 3, 3, 0.025000000000000001
640, 11, 11, 302
641, 1, 1, 0
641, 2, 2, 0
641, 3, 3, 0
641, 11, 11, 312
642, 1, 1, 0.12
642, 2, 2, 0.025000000000000001
642, 3, 3, 0.040000000000000001
642, 11, 11, 330
643, 1, 1, 0.059999999999999998
643, 2, 2, 0.10000000000000001
643, 3, 3, -0.035000000000000003
643, 11, 11, 350
644, 1, 1, -0.014999999999999999
644, 2, 2, 0.029999999999999999
644, 3, 3, 0.01
644, 11, 11, 370
645, 1, 1, 0.029999999999999999
645, 2, 2, -0.02
645, 3, 3, 0.080000000000000002
645, 11, 11, 390
646, 1, 1, 0.14000000000000001
646, 2, 2, 0.014999999999999999
646, 3, 3, 0.02
646, 11, 11, 410
647, 1, 1, 0.089999999999999997
647, 2, 2, 0.044999999999999998
647, 3, 3, 0.14999999999999999
647, 11, 11, 430
648, 1, 1, -0.040000000000000001
648, 2, 2, 0.11
648, 3, 3, 0.025000000000000001
648, 11, 11, 450
649, 1, 1, 0
649, 2, 2, 0
649, 3, 3, 0
649, 11, 11, 310
650, 1, 1, 0.12
650, 2, 2, 0.025000000000000001
650, 3, 3, 0.040000000000000001
650, 11, 11, 332
651, 1, 1, 0.059999999999999998
651, 2, 2, 0.10000000000000001
651, 3, 3, -0.035000000000000003
651, 11, 11, 350
652, 1, 1, -0.014999999999999999
652, 2, 2, 0.029999999999999999
652, 3, 3, 0.01
652, 11, 11, 370
653, 1, 1, 0.029999999999999999
653, 2, 2, -0.02
653, 3, 3, 0.080000000000000002
653, 11, 11, 390
654, 1, 1, 0.14000000000000001
654, 2, 2, 0.014999999999999999
654, 3, 3, 0.02
654, 11, 11, 410
655, 1, 1, 0.089999999999999997
655, 2, 2, 0.044999999999999998
655, 3, 3, 0.14999999999999999
655, 11, 11, 430
656, 1, 1, -0.040000000000000001
656, 2, 2, 0.11
656, 3, 3, 0.025000000000000001
656, 11, 11, 450
657, 1, 1, 0
657, 2, 2, 0
657, 3, 3, 0
657, 11, 11, 310
658, 1, 1, 0.12
658, 2, 2, 0.025000000000000001
658, 3, 3, 0.040000000000000001
658, 11, 11, 330
659, 1, 1, 0.059999999999999998
659, 2, 2, 0.10000000000000001
659, 3, 3, -0.035000000000000003
659, 11, 11, 352
660, 1, 1, -0.014999999999999999
660, 2, 2, 0.029999999999999999
660, 3, 3, 0.01
660, 11, 11, 370
661, 1, 1, 0.029999999999999999
661, 2, 2, -0.02
661, 3, 3, 0.080000000000000002
661, 11, 11, 390
662, 1, 1, 0.14000000000000001
662, 2, 2, 0.014999999999999999
662, 3, 3, 0.02
662, 11, 11, 410
663, 1, 1, 0.089999999999999997
663, 2, 2, 0.044999999999999998
663, 3, 3, 0.14999999999999999
663, 11, 11, 430
664, 1, 1, -0.040000000000000001
664, 2, 2, 0.11
664, 3, 3, 0.025000000000000001
664, 11, 11, 450
665, 1, 1, 0
665, 2, 2, 0
665, 3, 3, 0
665, 11, 11, 310
666, 1, 1, 0.12
666, 2, 2, 0.025000000000000001
666, 3, 3, 0.040000000000000001
666, 11, 11, 330
667, 1, 1, 0.059999999999999998
667, 2, 2, 0.10000000000000001
667, 3, 3, -0.035000000000000003
667, 11, 11, 350
668, 1, 1, -0.014999999999999999
668, 2, 2, 0.029999999999999999
668, 3, 3, 0.01
668, 11, 11, 372
669, 1, 1, 0.029999999999999999
669, 2, 2, -0.02
669, 3, 3, 0.080000000000000002
669, 11, 11, 390
670, 1, 1, 0.14000000000000001
670, 2, 2, 0.014999999999999999
670, 3, 3, 0.02
670, 11, 11, 410
671, 1, 1, 0.089999999999999997
671, 2, 2, 0.044999999999999998
671, 3, 3, 0.14999999999999999
671, 11, 11, 430
672, 1, 1, -0.040000000000000001
672, 2, 2, 0.11
672, 3, 3, 0.025000000000000001
672, 11, 11, 450
673, 1, 1, 0
673, 2, 2, 0
673, 3, 3, 0
673, 11, 11, 310
674, 1, 1, 0.12
674, 2, 2, 0.025000000000000001
674, 3, 3, 0.040000000000000001
674, 11, 11, 330
675, 1, 1, 0.059999999999999998
675, 2, 2, 0.10000000000000001
675, 3, 3, -0.035000000000000003
675, 11, 11, 350
676, 1, 1, -0.014999999999999999
676, 2, 2, 0.029999999999999999
676, 3, 3, 0.01
676, 11, 11, 370
677, 1, 1, 0.029999999999999999
677, 2, 2, -0.02
677, 3, 3, 0.080000000000000002
677, 11, 11, 392
678, 1, 1, 0.14000000000000001
678, 2, 2, 0.014999999999999999
678, 3, 3, 0.02
678, 11, 11, 410
679, 1, 1, 0.089999999999999997
679, 2, 2, 0.044999999999999998
679, 3, 3, 0.14999999999999999
679, 11, 11, 430
680, 1, 1, -0.040000000000000001
680, 2, 2, 0.11
680, 3, 3, 0.025000000000000001
680, 11, 11, 450
681, 1, 1, 0
681, 2, 2, 0
681, 3, 3, 0
681, 11, 11, 310
682, 1, 1, 0.12
682, 2, 2, 0.025000000000000001
682, 3, 3, 0.040000000000000001
682, 11, 11, 330
683, 1, 1, 0.059999999999999998
683, 2, 2, 0.10000000000000001
683, 3, 3, -0.035000000000000003
683, 11, 11, 350
684, 1, 1, -0.014999999999999999
684, 2, 2, 0.029999999999999999
684, 3, 3, 0.01
684, 11, 11, 370
685, 1, 1, 0.029999999999999999
685, 2, 2, -0.02
685, 3, 3, 0.080000000000000002
685, 11, 11, 390
686, 1, 1, 0.14000000000000001
686, 2, 2, 0.014999999999999999
686, 3, 3, 0.02
686, 11, 11, 412
687, 1, 1, 0.089999999999999997
687, 2, 2, 0.044999999999999998
687, 3, 3, 0.14999999999999999
687, 11, 11, 430
688, 1, 1, -0.040000000000000001
688, 2, 2, 0.11
688, 3, 3, 0.025000000000000001
688, 11, 11, 450
689, 1, 1, 0
689, 2, 2, 0
689, 3, 3, 0
689, 11, 11, 310
690, 1, 1, 0.12
690, 2, 2, 0.025000000000000001
690, 3, 3, 0.040000000000000001
690, 11, 11, 330
691, 1, 1, 0.059999999999999998
691, 2, 2, 0.10000000000000001
691, 3, 3, -0.035000000000000003
691, 11, 11, 350
692, 1, 1, -0.014999999999999999
692, 2, 2, 0.029999999999999999
692, 3, 3, 0.01
692, 11, 11, 370
693, 1, 1, 0.029999999999999999
693, 2, 2, -0.02
693, 3, 3, 0.080000000000000002
693, 11, 11, 390
694, 1, 1, 0.14000000000000001
694, 2, 2, 0.014999999999999999
694, 3, 3, 0.02
694, 11, 11, 410
695, 1, 1, 0.089999999999999997
695, 2, 2, 0.044999999999999998
695, 3, 3, 0.14999999999999999
695, 11, 11, 432
696, 1, 1, -0.040000000000000001
696, 2, 2, 0.11
696, 3, 3, 0.025000000000000001
696, 11, 11, 450
697, 1, 1, 0
697, 2, 2, 0
697, 3, 3, 0
697, 11, 11, 310
698, 1, 1, 0.12
698, 2, 2, 0.025000000000000001
698, 3, 3, 0.040000000000000001
698, 11, 11, 330
699, 1, 1, 0.059999999999999998
699, 2, 2, 0.10000000000000001
699, 3, 3, -0.035000000000000003
699, 11, 11, 350
700, 1, 1, -0.014999999999999999
700, 2, 2, 0.029999999999999999
700, 3, 3, 0.01
700, 11, 11, 370
701, 1, 1, 0.029999999999999999
701, 2, 2, -0.02
701, 3, 3, 0.080000000000000002
701, 11, 11, 390
702, 1, 1, 0.14000000000000001
702, 2, 2, 0.014999999999999999
702, 3, 3, 0.02
702, 11, 11, 410
703, 1, 1, 0.089999999999999997
703, 2, 2, 0.044999999999999998
703, 3, 3, 0.14999999999999999
703, 11, 11, 430
704, 1, 1, -0.040000000000000001
704, 2, 2, 0.11
704, 3, 3, 0.025000000000000001
704, 11, 11, 452
705, 1, 1, 0
705, 2, 2, 0
705, 3, 3, 0
705, 11, 11, 312
706, 1, 1, 0.12
706, 2, 2, 0.025000000000000001
706, 3, 3, 0.040000000000000001
706, 11, 11, 330
707, 1, 1, 0.059999999999999998
707, 2, 2, 0.10000000000000001
707, 3, 3, -0.035000000000000003
707, 11, 11, 350
708, 1, 1, -0.014999999999999999
708, 2, 2, 0.029999999999999999
708, 3, 3, 0.01
708, 11, 11, 370
709, 1, 1, 0.029999999999999999
709, 2, 2, -0.02
709, 3, 3, 0.080000000000000002
709, 11, 11, 390
710, 1, 1, 0.14000000000000001
710, 2, 2, 0.014999999999999999
710, 3, 3, 0.02
710, 11, 11, 410
711, 1, 1, 0.089999999999999997
711, 2, 2, 0.044999999999999998
711, 3, 3, 0.14999999999999999
711, 11, 11, 430
712, 1, 1, -0.040000000000000001
712, 2, 2, 0.11
712, 3, 3, 0.025000000000000001
712, 11, 11, 450
713, 1, 1, 0
713, 2, 2, 0
713, 3, 3, 0
713, 11, 11, 310
714, 1, 1, 0.12
714, 2, 2, 0.025000000000000001
714, 3, 3, 0.040000000000000001
714, 11, 11, 332
715, 1, 1, 0.059999999999999998
715, 2, 2, 0.10000000000000001
715, 3, 3, -0.035000000000000003
715, 11, 11, 350
716, 1, 1, -0.014999999999999999
716, 2, 2, 0.029999999999999999
716, 3, 3, 0.01
716, 11, 11, 370
717, 1, 1, 0.029999999999999999
717, 2, 2, -0.02
717, 3, 3, 0.080000000000000002
717, 11, 11, 390
718, 1, 1, 0.14000000000000001
718, 2, 2, 0.014999999999999999
718, 3, 3, 0.02
718, 11, 11, 410
719, 1, 1, 0.089999999999999997
719, 2, 2, 0.044999999999999998
719, 3, 3, 0.14999999999999999
719, 11, 11, 430
720, 1, 1, -0.040000000000000001
720, 2, 2, 0.11
720, 3, 3, 0.025000000000000001
720, 11, 11, 450
721, 1, 1, 0
721, 2, 2, 0
721, 3, 3, 0
721, 11, 11, 310
722, 1, 1, 0.12
722, 2, 2, 0.025000000000000001
722, 3, 3, 0.040000000000000001
722, 11, 11, 330
723, 1, 1, 0.059999999999999998
723, 2, 2, 0.10000000000000001
723, 3, 3, -0.035000000000000003
723, 11, 11, 352
724, 1, 1, -0.014999999999999999
724, 2, 2, 0.029999999999999999
724, 3, 3, 0.01
724, 11, 11, 370
725, 1, 1, 0.029999999999999999
725, 2, 2, -0.02
725, 3, 3, 0.080000000000000002
725, 11, 11, 390
726, 1, 1, 0.14000000000000001
726, 2, 2, 0.014999999999999999
726, 3, 3, 0.02
726, 11, 11, 410
727, 1, 1, 0.089999999999999997
727, 2, 2, 0.044999999999999998
727, 3, 3, 0.14999999999999999
727, 11, 11, 430
728, 1, 1, -0.040000000000000001
728, 2, 2, 0.11
728, 3, 3, 0.025000000000000001
728, 11, 11, 450
729, 1, 1, 0
729, 2, 2, 0
729, 3, 3, 0
729, 11, 11, 310
730, 1, 1, 0.12
730, 2, 2, 0.025000000000000001
730, 3, 3, 0.040000000000000001
730, 11, 11, 330
731, 1, 1, 0.059999999999999998
731, 2, 2, 0.10000000000000001
731, 3, 3, -0.035000000000000003
731, 11, 11, 350
732, 1, 1, -0.014999999999999999
732, 2, 2, 0.029999999999999999
732, 3, 3, 0.01
732, 11, 11, 372
733, 1, 1, 0.029999999999999999
733, 2, 2, -0.02
733, 3, 3, 0.080000000000000002
733, 11, 11, 390
734, 1, 1, 0.14000000000000001
734, 2, 2, 0.014999999999999999
734, 3, 3, 0.02
734, 11, 11, 410
735, 1, 1, 0.089999999999999997
735, 2, 2, 0.044999999999999998
735, 3, 3, 0.14999999999999999
735, 11, 11, 430
736, 1, 1, -0.040000000000000001
736, 2, 2, 0.11
736, 3, 3, 0.025000000000000001
736, 11, 11, 450
737, 1, 1, 0
737, 2, 2, 0
737, 3, 3, 0
737, 11, 11, 310
738, 1, 1, 0.12
738, 2, 2, 0.025000000000000001
738, 3, 3, 0.040000000000000001
738, 11, 11, 330
739, 1, 1, 0.059999999999999998
739, 2, 2, 0.10000000000000001
739, 3, 3, -0.035000000000000003
739, 11, 11, 350
740, 1, 1, -0.014999999999999999
740, 2, 2, 0.029999999999999999
740, 3, 3, 0.01
740, 11, 11, 370
741, 1, 1, 0.029999999999999999
741, 2, 2, -0.02
741, 3, 3, 0.080000000000000002
741, 11, 11, 392
742, 1, 1, 0.14000000000000001
742, 2, 2, 0.014999999999999999
742, 3, 3, 0.02
742, 11, 11, 410
743, 1, 1, 0.089999999999999997
743, 2, 2, 0.044999999999999998
743, 3, 3, 0.14999999999999999
743, 11, 11, 430
744, 1, 1, -0.040000000000000001
744, 2, 2, 0.11
744, 3, 3, 0.025000000000000001
744, 11, 11, 450
745, 1, 1, 0
745, 2, 2, 0
745, 3, 3, 0
745, 11, 11, 310
746, 1, 1, 0.12
746, 2, 2, 0.025000000000000001
746, 3, 3, 0.040000000000000001
746, 11, 11, 330
747, 1, 1, 0.059999999999999998
747, 2, 2, 0.10000000000000001
747, 3, 3, -0.035000000000000003
747, 11, 11, 350
748, 1, 1, -0.014999999999999999
748, 2, 2, 0.029999999999999999
748, 3, 3, 0.01
748, 11, 11, 370
749, 1, 1, 0.029999999999999999
749, 2, 2, -0.02
749, 3, 3, 0.080000000000000002
749, 11, 11, 390
750, 1, 1, 0.14000000000000001
750, 2, 2, 0.014999999999999999
750, 3, 3, 0.02
750, 11, 11, 412
751, 1, 1, 0.089999999999999997
751, 2, 2, 0.044999999999999998
751, 3, 3, 0.14999999999999999
751, 11, 11, 430
752, 1, 1, -0.040000000000000001
752, 2, 2, 0.11
752, 3, 3, 0.025000000000000001
752, 11, 11, 450
753, 1, 1, 0
753, 2, 2, 0
753, 3, 3, 0
753, 11, 11, 310
754, 1, 1, 0.12
754, 2, 2, 0.025000000000000001
754, 3, 3, 0.040000000000000001
754, 11, 11, 330
755, 1, 1, 0.059999999999999998
755, 2, 2, 0.10000000000000001
755, 3, 3, -0.035000000000000003
755, 11, 11, 350
756, 1, 1, -0.014999999999999999
756, 2, 2, 0.029999999999999999
756, 3, 3, 0.01
756, 11, 11, 370
757, 1, 1, 0.029999999999999999
757, 2, 2, -0.02
757, 3, 3, 0.080000000000000002
757, 11, 11, 390
758, 1, 1, 0.14000000000000001
758, 2, 2, 0.014999999999999999
758, 3, 3, 0.02
758, 11, 11, 410
759, 1, 1, 0.089999999999999997
759, 2, 2, 0.044999999999999998
759, 3, 3, 0.14999999999999999
759, 11, 11, 432
760, 1, 1, -0.040000000000000001
760, 2, 2, 0.11
760, 3, 3, 0.025000000000000001
760, 11, 11, 450
761, 1, 1, 0
761, 2, 2, 0
761, 3, 3, 0
761, 11, 11, 310
762, 1, 1, 0.12
762, 2, 2, 0.025000000000000001
762, 3, 3, 0.040000000000000001
762, 11, 11, 330
763, 1, 1, 0.059999999999999998
763, 2, 2, 0.10000000000000001
763, 3, 3, -0.035000000000000003
763, 11, 11, 350
764, 1, 1, -0.014999999999999999
764, 2, 2, 0.029999999999999999
764, 3, 3, 0.01
764, 11, 11, 370
765, 1, 1, 0.029999999999999999
765, 2, 2, -0.02
765, 3, 3, 0.080000000000000002
765, 11, 11, 390
766, 1, 1, 0.14000000000000001
766, 2, 2, 0.014999999999999999
766, 3, 3, 0.02
766, 11, 11, 410
767, 1, 1, 0.089999999999999997
767, 2, 2, 0.044999999999999998
767, 3, 3, 0.14999999999999999
767, 11, 11, 430
768, 1, 1, -0.040000000000000001
768, 2, 2, 0.11
768, 3, 3, 0.025000000000000001
768, 11, 11, 452
769, 1, 1, 0.029999999999999999
769, 2, 2, 0
769, 11, 11, 302
770, 1, 1, 0.20000000000000001
770, 2, 2, 0.040000000000000001
770, 11, 11, 300
771, 1, 1, 0.11
771, 2, 2, 0.20000000000000001
771, 11, 11, 300
772, 1, 1, -0.02
772, 2, 2, 0.070000000000000007
772, 11, 11, 300
773, 1, 1, 0.029999999999999999
773, 2, 2, 0
773, 11, 11, 300
774, 1, 1, 0.20000000000000001
774, 2, 2, 0.040000000000000001
774, 11, 11, 302
775, 1, 1, 0.11
775, 2, 2, 0.20000000000000001
775, 11, 11, 300
776, 1, 1, -0.02
776, 2, 2, 0.070000000000000007
776, 11, 11, 300
777, 1, 1, 0.029999999999999999
777, 2, 2, 0
777, 11, 11, 300
778, 1, 1, 0.20000000000000001
778, 2, 2, 0.040000000000000001
778, 11, 11, 300
779, 1, 1, 0.11
779, 2, 2, 0.20000000000000001
779, 11, 11, 302
780, 1, 1, -0.02
780, 2, 2, 0.070000000000000007
780, 11, 11, 300
781, 1, 1, 0.029999999999999999
781, 2, 2, 0
781, 11, 11, 300
782, 1, 1, 0.20000000000000001
782, 2, 2, 0.040000000000000001
782, 11, 11, 300
783, 1, 1, 0.11
783, 2, 2, 0.20000000000000001
783, 11, 11, 300
784, 1, 1, -0.02
784, 2, 2, 0.070000000000000007
784, 11, 11, 302
785, 1, 1, 0.029999999999999999
785, 2, 2, 0
785, 11, 11, 312
786, 1, 1, 0.20000000000000001
786, 2, 2, 0.040000000000000001
786, 11, 11, 330
787, 1, 1, 0.11
787, 2, 2, 0.20000000000000001
787, 11, 11, 390
788, 1, 1, -0.02
788, 2, 2, 0.070000000000000007
788, 11, 11, 450
789, 1, 1, 0.029999999999999999
789, 2, 2, 0
789, 11, 11, 310
790, 1, 1, 0.20000000000000001
790, 2, 2, 0.040000000000000001
790, 11, 11, 332
791, 1, 1, 0.11
791, 2, 2, 0.20000000000000001
791, 11, 11, 390
792, 1, 1, -0.02
792, 2, 2, 0.070000000000000007
792, 11, 11, 450
793, 1, 1, 0.029999999999999999
793, 2, 2, 0
793, 11, 11, 310
794, 1, 1, 0.20000000000000001
794, 2, 2, 0.040000000000000001
794, 11, 11, 330
795, 1, 1, 0.11
795, 2, 2, 0.20000000000000001
795, 11, 11, 392
796, 1, 1, -0.02
796, 2, 2, 0.070000000000000007
796, 11, 11, 450
797, 1, 1, 0.029999999999999999
797, 2, 2, 0
797, 11, 11, 310
798, 1, 1, 0.20000000000000001
798, 2, 2, 0.040000000000000001
798, 11, 11, 330
799, 1, 1, 0.11
799, 2, 2, 0.20000000000000001
799, 11, 11, 390
800, 1, 1, -0.02
800, 2, 2, 0.070000000000000007
800, 11, 11, 452
801, 1, 1, 0.029999999999999999
801, 2, 2, 0
801, 11, 11, 312
802, 1, 1, 0.20000000000000001
802, 2, 2, 0.040000000000000001
802, 11, 11, 330
803, 1, 1, 0.11
803, 2, 2, 0.20000000000000001
803, 11, 11, 390
804, 1, 1, -0.02
804, 2, 2, 0.070000000000000007
804, 11, 11, 450
805, 1, 1, 0.029999999999999999
805, 2, 2, 0
805, 11, 11, 310
806, 1, 1, 0.20000000000000001
806, 2, 2, 0.040000000000000001
806, 11, 11, 332
807, 1, 1, 0.11
807, 2, 2, 0.20000000000000001
807, 11, 11, 390
808, 1, 1, -0.02
808, 2, 2, 0.070000000000000007
808, 11, 11, 450
809, 1, 1, 0.029999999999999999
809, 2, 2, 0
809, 11, 11, 310
810, 1, 1, 0.20000000000000001
810, 2, 2, 0.040000000000000001
810, 11, 11, 330
811, 1, 1, 0.11
811, 2, 2, 0.20000000000000001
811, 11, 11, 392
812, 1, 1, -0.02
812, 2, 2, 0.070000000000000007
812, 11, 11, 450
813, 1, 1, 0.029999999999999999
813, 2, 2, 0
813, 11, 11, 310
814, 1, 1, 0.20000000000000001
814, 2, 2, 0.040000000000000001
814, 11, 11, 330
815, 1, 1, 0.11
815, 2, 2, 0.20000000000000001
815, 11, 11, 390
816, 1, 1, -0.02
816, 2, 2, 0.070000000000000007
816, 11, 11, 452
817, 1, 1, 0.029999999999999999
817, 2, 2, 0
817, 11, 11, 302
818, 1, 1, 0.20000000000000001
818, 2, 2, 0.040000000000000001
818, 11, 11, 300
819, 1, 1, 0.11
819, 2, 2, 0.20000000000000001
819, 11, 11, 300
820, 1, 1, -0.02
820, 2, 2, 0.070000000000000007
820, 11, 11, 300
821, 1, 1, 0.029999999999999999
821, 2, 2, 0
821, 11, 11, 300
822, 1, 1, 0.20000000000000001
822, 2, 2, 0.040000000000000001
822, 11, 11, 302
823, 1, 1, 0.11
823, 2, 2, 0.20000000000000001
823, 11, 11, 300
824, 1, 1, -0.02
824, 2, 2, 0.070000000000000007
824, 11, 11, 300
825, 1, 1, 0.029999999999999999
825, 2, 2, 0
825, 11, 11, 300
826, 1, 1, 0.20000000000000001
826, 2, 2, 0.040000000000000001
826, 11, 11, 300
827, 1, 1, 0.11
827, 2, 2, 0.20000000000000001
827, 11, 11, 302
828, 1, 1, -0.02
828, 2, 2, 0.070000000000000007
828, 11, 11, 300
829, 1, 1, 0.029999999999999999
829, 2, 2, 0
829, 11, 11, 300
830, 1, 1, 0.20000000000000001
830, 2, 2, 0.040000000000000001
830, 11, 11, 300
831, 1, 1, 0.11
831, 2, 2, 0.20000000000000001
831, 11, 11, 300
832, 1, 1, -0.02
832, 2, 2, 0.070000000000000007
832, 11, 11, 302
833, 1, 1, 0.029999999999999999
833, 2, 2, 0
833, 11, 11, 312
834, 1, 1, 0.20000000000000001
834, 2, 2, 0.040000000000000001
834, 11, 11, 330
835, 1, 1, 0.11
835, 2, 2, 0.20000000000000001
835, 11, 11, 390
836, 1, 1, -0.02
836, 2, 2, 0.070000000000000007
836, 11, 11, 450
837, 1, 1, 0.029999999999999999
837, 2, 2, 0
837, 11, 11, 310
838, 1, 1, 0.20000000000000001
838, 2, 2, 0.040000000000000001
838, 11, 11, 332
839, 1, 1, 0.11
839, 2, 2, 0.20000000000000001
839, 11, 11, 390
840, 1, 1, -0.02
840, 2, 2, 0.070000000000000007
840, 11, 11, 450
841, 1, 1, 0.029999999999999999
841, 2, 2, 0
841, 11, 11, 310
842, 1, 1, 0.20000000000000001
842, 2, 2, 0.040000000000000001
842, 11, 11, 330
843, 1, 1, 0.11
843, 2, 2, 0.20000000000000001
843, 11, 11, 392
844, 1, 1, -0.02
844, 2, 2, 0.070000000000000007
844, 11, 11, 450
845, 1, 1, 0.029999999999999999
845, 2, 2, 0
845, 11, 11, 310
846, 1, 1, 0.20000000000000001
846, 2, 2, 0.040000000000000001
846, 11, 11, 330
847, 1, 1, 0.11
847, 2, 2, 0.20000000000000001
847, 11, 11, 390
848, 1, 1, -0.02
848, 2, 2, 0.070000000000000007
848, 11, 11, 452
849, 1, 1, 0.029999999999999999
849, 2, 2, 0
849, 11, 11, 312
850, 1, 1, 0.20000000000000001
850, 2, 2, 0.040000000000000001
850, 11, 11, 330
851, 1, 1, 0.11
851, 2, 2, 0.20000000000000001
851, 11, 11, 390
852, 1, 1, -0.02
852, 2, 2, 0.070000000000000007
852, 11, 11, 450
853, 1, 1, 0.029999999999999999
853, 2, 2, 0
853, 11, 11, 310
854, 1, 1, 0.20000000000000001
854, 2, 2, 0.040000000000000001
854, 11, 11, 332
855, 1, 1, 0.11
855, 2, 2, 0.20000000000000001
855, 11, 11, 390
856, 1, 1, -0.02
856, 2, 2, 0.070000000000000007
856, 11, 11, 450
857, 1, 1, 0.029999999999999999
857, 2, 2, 0
857, 11, 11, 310
858, 1, 1, 0.20000000000000001
858, 2, 2, 0.040000000000000001
858, 11, 11, 330
859, 1, 1, 0.11
859, 2, 2, 0.20000000000000001
859, 11, 11, 392
860, 1, 1, -0.02
860, 2, 2, 0.070000000000000007
860, 11, 11, 450
861, 1, 1, 0.029999999999999999
861, 2, 2, 0
861, 11, 11, 310
862, 1, 1, 0.20000000000000001
862, 2, 2, 0.040000000000000001
862, 11, 11, 330
863, 1, 1, 0.11
863, 2, 2, 0.20000000000000001
863, 11, 11, 390
864, 1, 1, -0.02
864, 2, 2, 0.070000000000000007
864, 11, 11, 452
865, 1, 1, 0.029999999999999999
865, 2, 2, 0
865, 11, 11, 302
866, 1, 1, 0.20000000000000001
866, 2, 2, 0.040000000000000001
866, 11, 11, 300
867, 1, 1, 0.11
867, 2, 2, 0.20000000000000001
867, 11, 11, 300
868, 1, 1, -0.02
868, 2, 2, 0.070000000000000007
868, 11, 11, 300
869, 1, 1, 0.029999999999999999
869, 2, 2, 0
869, 11, 11, 300
870, 1, 1, 0.20000000000000001
870, 2, 2, 0.040000000000000001
870, 11, 11, 302
871, 1, 1, 0.11
871, 2, 2, 0.20000000000000001
871, 11, 11, 300
872, 1, 1, -0.02
872, 2, 2, 0.070000000000000007
872, 11, 11, 300
873, 1, 1, 0.029999999999999999
873, 2, 2, 0
873, 11, 11, 300
874, 1, 1, 0.20000000000000001
874, 2, 2, 0.040000000000000001
874, 11, 11, 300
875, 1, 1, 0.11
875, 2, 2, 0.20000000000000001
875, 11, 11, 302
876, 1, 1, -0.02
876, 2, 2, 0.070000000000000007
876, 11, 11, 300
877, 1, 1, 0.029999999999999999
877, 2, 2, 0
877, 11, 11, 300
878, 1, 1, 0.20000000000000001
878, 2, 2, 0.040000000000000001
878, 11, 11, 300
879, 1, 1, 0.11
879, 2, 2, 0.20000000000000001
879, 11, 11, 300
880, 1, 1, -0.02
880, 2, 2, 0.070000000000000007
880, 11, 11, 302
881, 1, 1, 0.029999999999999999
881, 2, 2, 0
881, 11, 11, 312
882, 1, 1, 0.20000000000000001
882, 2, 2, 0.040000000000000001
882, 11, 11, 330
883, 1, 1, 0.11
883, 2, 2, 0.20000000000000001
883, 11, 11, 390
884, 1, 1, -0.02
884, 2, 2, 0.070000000000000007
884, 11, 11, 450
885, 1, 1, 0.029999999999999999
885, 2, 2, 0
885, 11, 11, 310
886, 1, 1, 0.20000000000000001
886, 2, 2, 0.040000000000000001
886, 11, 11, 332
887, 1, 1, 0.11
887, 2, 2, 0.20000000000000001
887, 11, 11, 390
888, 1, 1, -0.02
888, 2, 2, 0.070000000000000007
888, 11, 11, 450
889, 1, 1, 0.029999999999999999
889, 2, 2, 0
889, 11, 11, 310
890, 1, 1, 0.20000000000000001
890, 2, 2, 0.040000000000000001
890, 11, 11, 330
891, 1, 1, 0.11
891, 2, 2, 0.20000000000000001
891, 11, 11, 392
892, 1, 1, -0.02
892, 2, 2, 0.070000000000000007
892, 11, 11, 450
893, 1, 1, 0.029999999999999999
893, 2, 2, 0
893, 11, 11, 310
894, 1, 1, 0.20000000000000001
894, 2, 2, 0.040000000000000001
894, 11, 11, 330
895, 1, 1, 0.11
895, 2, 2, 0.20000000000000001
895, 11, 11, 390
896, 1, 1, -0.02
896, 2, 2, 0.070000000000000007
896, 11, 11, 452
897, 1, 1, 0.029999999999999999
897, 2, 2, 0
897, 11, 11, 312
898, 1, 1, 0.20000000000000001
898, 2, 2, 0.040000000000000001
898, 11, 11, 330
899, 1, 1, 0.11
899, 2, 2, 0.20000000000000001
899, 11, 11, 390
900, 1, 1, -0.02
900, 2, 2, 0.070000000000000007
900, 11, 11, 450
901, 1, 1, 0.029999999999999999
901, 2, 2, 0
901, 11, 11, 310
902, 1, 1, 0.20000000000000001
902, 2, 2, 0.040000000000000001
902, 11, 11, 332
903, 1, 1, 0.11
903, 2, 2, 0.20000000000000001
903, 11, 11, 390
904, 1, 1, -0.02
904, 2, 2, 0.070000000000000007
904, 11, 11, 450
905, 1, 1, 0.029999999999999999
905, 2, 2, 0
905, 11, 11, 310
906, 1, 1, 0.20000000000000001
906, 2, 2, 0.040000000000000001
906, 11, 11, 330
907, 1, 1, 0.11
907, 2, 2, 0.20000000000000001
907, 11, 11, 392
908, 1, 1, -0.02
908, 2, 2, 0.070000000000000007
908, 11, 11, 450
909, 1, 1, 0.029999999999999999
909, 2, 2, 0
909, 11, 11, 310
910, 1, 1, 0.20000000000000001
910, 2, 2, 0.040000000000000001
910, 11, 11, 330
911, 1, 1, 0.11
911, 2, 2, 0.20000000000000001
911, 11, 11, 390
912, 1, 1, -0.02
912, 2, 2, 0.070000000000000007
912, 11, 11, 452
913, 1, 1, 0.029999999999999999
913, 2, 2, 0
913, 11, 11, 302
914, 1, 1, 0.20000000000000001
914, 2, 2, 0.040000000000000001
914, 11, 11, 300
915, 1, 1, 0.11
915, 2, 2, 0.20000000000000001
915, 11, 11, 300
916, 1, 1, -0.02
916, 2, 2, 0.070000000000000007
916, 11, 11, 300
917, 1, 1, 0.029999999999999999
917, 2, 2, 0
917, 11, 11, 300
918, 1, 1, 0.20000000000000001
918, 2, 2, 0.040000000000000001
918, 11, 11, 302
919, 1, 1, 0.11
919, 2, 2, 0.20000000000000001
919, 11, 11, 300
920, 1, 1, -0.02
920, 2, 2, 0.070000000000000007
920, 11, 11, 300
921, 1, 1, 0.029999999999999999
921, 2, 2, 0
921, 11, 11, 300
922, 1, 1, 0.20000000000000001
922, 2, 2, 0.040000000000000001
922, 11, 11, 300
923, 1, 1, 0.11
923, 2, 2, 0.20000000000000001
923, 11, 11, 302
924, 1, 1, -0.02
924, 2, 2, 0.070000000000000007
924, 11, 11, 300
925, 1, 1, 0.029999999999999999
925, 2, 2, 0
925, 11, 11, 300
926, 1, 1, 0.20000000000000001
926, 2, 2, 0.040000000000000001
926, 11, 11, 300
927, 1, 1, 0.11
927, 2, 2, 0.20000000000000001
927, 11, 11, 300
928, 1, 1, -0.02
928, 2, 2, 0.070000000000000007
928, 11, 11, 302
929, 1, 1, 0.029999999999999999
929, 2, 2, 0
929, 11, 11, 312
930, 1, 1, 0.20000000000000001
930, 2, 2, 0.040000000000000001
930, 11, 11, 330
931, 1, 1, 0.11
931, 2, 2, 0.20000000000000001
931, 11, 11, 390
932, 1, 1, -0.02
932, 2, 2, 0.070000000000000007
932, 11, 11, 450
933, 1, 1, 0.029999999999999999
933, 2, 2, 0
933, 11, 11, 310
934, 1, 1, 0.20000000000000001
934, 2, 2, 0.040000000000000001
934, 11, 11, 332
935, 1, 1, 0.11
935, 2, 2, 0.20000000000000001
935, 11, 11, 390
936, 1, 1, -0.02
936, 2, 2, 0.070000000000000007
936, 11, 11, 450
937, 1, 1, 0.029999999999999999
937, 2, 2, 0
937, 11, 11, 310
938, 1, 1, 0.20000000000000001
938, 2, 2, 0.040000000000000001
938, 11, 11, 330
939, 1, 1, 0.11
939, 2, 2, 0.20000000000000001
939, 11, 11, 392
940, 1, 1, -0.02
940, 2, 2, 0.070000000000000007
940, 11, 11, 450
941, 1, 1, 0.029999999999999999
941, 2, 2, 0
941, 11, 11, 310
942, 1, 1, 0.20000000000000001
942, 2, 2, 0.040000000000000001
942, 11, 11, 330
943, 1, 1, 0.11
943, 2, 2, 0.20000000000000001
943, 11, 11, 390
944, 1, 1, -0.02
944, 2, 2, 0.070000000000000007
944, 11, 11, 452
945, 1, 1, 0.029999999999999999
945, 2, 2, 0
945, 11, 11, 312
946, 1, 1, 0.20000000000000001
946, 2, 2, 0.040000000000000001
946, 11, 11, 330
947, 1, 1, 0.11
947, 2, 2, 0.20000000000000001
947, 11, 11, 390
948, 1, 1, -0.02
948, 2, 2, 0.070000000000000007
948, 11, 11, 450
949, 1, 1, 0.029999999999999999
949, 2, 2, 0
949, 11, 11, 310
950, 1, 1, 0.20000000000000001
950, 2, 2, 0.040000000000000001
950, 11, 11, 332
951, 1, 1, 0.11
951, 2, 2, 0.20000000000000001
951, 11, 11, 390
952, 1, 1, -0.02
952, 2, 2, 0.070000000000000007
952, 11, 11, 450
953, 1, 1, 0.029999999999999999
953, 2, 2, 0
953, 11, 11, 310
954, 1, 1, 0.20000000000000001
954, 2, 2, 0.040000000000000001
954, 11, 11, 330
955, 1, 1, 0.11
955, 2, 2, 0.20000000000000001
955, 11, 11, 392
956, 1, 1, -0.02
956, 2, 2, 0.070000000000000007
956, 11, 11, 450
957, 1, 1, 0.029999999999999999
957, 2, 2, 0
957, 11, 11, 310
958, 1, 1, 0.20000000000000001
958, 2, 2, 0.040000000000000001
958, 11, 11, 330
959, 1, 1, 0.11
959, 2, 2, 0.20000000000000001
959, 11, 11, 390
960, 1, 1, -0.02
960, 2, 2, 0.070000000000000007
960, 11, 11, 452
*Output, field, frequency=1
*Node Output
NT, RFL, U
*Element Output, position=INTEGRATION POINTS
IVOL, TEMP
*End Step
*Step, name=HOLD_A, nlgeom=YES, inc=1
*Coupled Temperature-Displacement
1, 1, 1, 1
*Boundary, op=NEW
1, 1, 1, 0
1, 2, 2, 0
1, 3, 3, 0
1, 11, 11, 303
2, 1, 1, 0.12
2, 2, 2, 0.025000000000000001
2, 3, 3, 0.040000000000000001
2, 11, 11, 300
3, 1, 1, 0.059999999999999998
3, 2, 2, 0.10000000000000001
3, 3, 3, -0.035000000000000003
3, 11, 11, 300
4, 1, 1, -0.014999999999999999
4, 2, 2, 0.029999999999999999
4, 3, 3, 0.01
4, 11, 11, 300
5, 1, 1, 0.029999999999999999
5, 2, 2, -0.02
5, 3, 3, 0.080000000000000002
5, 11, 11, 300
6, 1, 1, 0.14000000000000001
6, 2, 2, 0.014999999999999999
6, 3, 3, 0.02
6, 11, 11, 300
7, 1, 1, 0.089999999999999997
7, 2, 2, 0.044999999999999998
7, 3, 3, 0.14999999999999999
7, 11, 11, 300
8, 1, 1, -0.040000000000000001
8, 2, 2, 0.11
8, 3, 3, 0.025000000000000001
8, 11, 11, 300
9, 1, 1, 0
9, 2, 2, 0
9, 3, 3, 0
9, 11, 11, 300
10, 1, 1, 0.12
10, 2, 2, 0.025000000000000001
10, 3, 3, 0.040000000000000001
10, 11, 11, 303
11, 1, 1, 0.059999999999999998
11, 2, 2, 0.10000000000000001
11, 3, 3, -0.035000000000000003
11, 11, 11, 300
12, 1, 1, -0.014999999999999999
12, 2, 2, 0.029999999999999999
12, 3, 3, 0.01
12, 11, 11, 300
13, 1, 1, 0.029999999999999999
13, 2, 2, -0.02
13, 3, 3, 0.080000000000000002
13, 11, 11, 300
14, 1, 1, 0.14000000000000001
14, 2, 2, 0.014999999999999999
14, 3, 3, 0.02
14, 11, 11, 300
15, 1, 1, 0.089999999999999997
15, 2, 2, 0.044999999999999998
15, 3, 3, 0.14999999999999999
15, 11, 11, 300
16, 1, 1, -0.040000000000000001
16, 2, 2, 0.11
16, 3, 3, 0.025000000000000001
16, 11, 11, 300
17, 1, 1, 0
17, 2, 2, 0
17, 3, 3, 0
17, 11, 11, 300
18, 1, 1, 0.12
18, 2, 2, 0.025000000000000001
18, 3, 3, 0.040000000000000001
18, 11, 11, 300
19, 1, 1, 0.059999999999999998
19, 2, 2, 0.10000000000000001
19, 3, 3, -0.035000000000000003
19, 11, 11, 303
20, 1, 1, -0.014999999999999999
20, 2, 2, 0.029999999999999999
20, 3, 3, 0.01
20, 11, 11, 300
21, 1, 1, 0.029999999999999999
21, 2, 2, -0.02
21, 3, 3, 0.080000000000000002
21, 11, 11, 300
22, 1, 1, 0.14000000000000001
22, 2, 2, 0.014999999999999999
22, 3, 3, 0.02
22, 11, 11, 300
23, 1, 1, 0.089999999999999997
23, 2, 2, 0.044999999999999998
23, 3, 3, 0.14999999999999999
23, 11, 11, 300
24, 1, 1, -0.040000000000000001
24, 2, 2, 0.11
24, 3, 3, 0.025000000000000001
24, 11, 11, 300
25, 1, 1, 0
25, 2, 2, 0
25, 3, 3, 0
25, 11, 11, 300
26, 1, 1, 0.12
26, 2, 2, 0.025000000000000001
26, 3, 3, 0.040000000000000001
26, 11, 11, 300
27, 1, 1, 0.059999999999999998
27, 2, 2, 0.10000000000000001
27, 3, 3, -0.035000000000000003
27, 11, 11, 300
28, 1, 1, -0.014999999999999999
28, 2, 2, 0.029999999999999999
28, 3, 3, 0.01
28, 11, 11, 303
29, 1, 1, 0.029999999999999999
29, 2, 2, -0.02
29, 3, 3, 0.080000000000000002
29, 11, 11, 300
30, 1, 1, 0.14000000000000001
30, 2, 2, 0.014999999999999999
30, 3, 3, 0.02
30, 11, 11, 300
31, 1, 1, 0.089999999999999997
31, 2, 2, 0.044999999999999998
31, 3, 3, 0.14999999999999999
31, 11, 11, 300
32, 1, 1, -0.040000000000000001
32, 2, 2, 0.11
32, 3, 3, 0.025000000000000001
32, 11, 11, 300
33, 1, 1, 0
33, 2, 2, 0
33, 3, 3, 0
33, 11, 11, 300
34, 1, 1, 0.12
34, 2, 2, 0.025000000000000001
34, 3, 3, 0.040000000000000001
34, 11, 11, 300
35, 1, 1, 0.059999999999999998
35, 2, 2, 0.10000000000000001
35, 3, 3, -0.035000000000000003
35, 11, 11, 300
36, 1, 1, -0.014999999999999999
36, 2, 2, 0.029999999999999999
36, 3, 3, 0.01
36, 11, 11, 300
37, 1, 1, 0.029999999999999999
37, 2, 2, -0.02
37, 3, 3, 0.080000000000000002
37, 11, 11, 303
38, 1, 1, 0.14000000000000001
38, 2, 2, 0.014999999999999999
38, 3, 3, 0.02
38, 11, 11, 300
39, 1, 1, 0.089999999999999997
39, 2, 2, 0.044999999999999998
39, 3, 3, 0.14999999999999999
39, 11, 11, 300
40, 1, 1, -0.040000000000000001
40, 2, 2, 0.11
40, 3, 3, 0.025000000000000001
40, 11, 11, 300
41, 1, 1, 0
41, 2, 2, 0
41, 3, 3, 0
41, 11, 11, 300
42, 1, 1, 0.12
42, 2, 2, 0.025000000000000001
42, 3, 3, 0.040000000000000001
42, 11, 11, 300
43, 1, 1, 0.059999999999999998
43, 2, 2, 0.10000000000000001
43, 3, 3, -0.035000000000000003
43, 11, 11, 300
44, 1, 1, -0.014999999999999999
44, 2, 2, 0.029999999999999999
44, 3, 3, 0.01
44, 11, 11, 300
45, 1, 1, 0.029999999999999999
45, 2, 2, -0.02
45, 3, 3, 0.080000000000000002
45, 11, 11, 300
46, 1, 1, 0.14000000000000001
46, 2, 2, 0.014999999999999999
46, 3, 3, 0.02
46, 11, 11, 303
47, 1, 1, 0.089999999999999997
47, 2, 2, 0.044999999999999998
47, 3, 3, 0.14999999999999999
47, 11, 11, 300
48, 1, 1, -0.040000000000000001
48, 2, 2, 0.11
48, 3, 3, 0.025000000000000001
48, 11, 11, 300
49, 1, 1, 0
49, 2, 2, 0
49, 3, 3, 0
49, 11, 11, 300
50, 1, 1, 0.12
50, 2, 2, 0.025000000000000001
50, 3, 3, 0.040000000000000001
50, 11, 11, 300
51, 1, 1, 0.059999999999999998
51, 2, 2, 0.10000000000000001
51, 3, 3, -0.035000000000000003
51, 11, 11, 300
52, 1, 1, -0.014999999999999999
52, 2, 2, 0.029999999999999999
52, 3, 3, 0.01
52, 11, 11, 300
53, 1, 1, 0.029999999999999999
53, 2, 2, -0.02
53, 3, 3, 0.080000000000000002
53, 11, 11, 300
54, 1, 1, 0.14000000000000001
54, 2, 2, 0.014999999999999999
54, 3, 3, 0.02
54, 11, 11, 300
55, 1, 1, 0.089999999999999997
55, 2, 2, 0.044999999999999998
55, 3, 3, 0.14999999999999999
55, 11, 11, 303
56, 1, 1, -0.040000000000000001
56, 2, 2, 0.11
56, 3, 3, 0.025000000000000001
56, 11, 11, 300
57, 1, 1, 0
57, 2, 2, 0
57, 3, 3, 0
57, 11, 11, 300
58, 1, 1, 0.12
58, 2, 2, 0.025000000000000001
58, 3, 3, 0.040000000000000001
58, 11, 11, 300
59, 1, 1, 0.059999999999999998
59, 2, 2, 0.10000000000000001
59, 3, 3, -0.035000000000000003
59, 11, 11, 300
60, 1, 1, -0.014999999999999999
60, 2, 2, 0.029999999999999999
60, 3, 3, 0.01
60, 11, 11, 300
61, 1, 1, 0.029999999999999999
61, 2, 2, -0.02
61, 3, 3, 0.080000000000000002
61, 11, 11, 300
62, 1, 1, 0.14000000000000001
62, 2, 2, 0.014999999999999999
62, 3, 3, 0.02
62, 11, 11, 300
63, 1, 1, 0.089999999999999997
63, 2, 2, 0.044999999999999998
63, 3, 3, 0.14999999999999999
63, 11, 11, 300
64, 1, 1, -0.040000000000000001
64, 2, 2, 0.11
64, 3, 3, 0.025000000000000001
64, 11, 11, 303
65, 1, 1, 0
65, 2, 2, 0
65, 3, 3, 0
65, 11, 11, 313
66, 1, 1, 0.12
66, 2, 2, 0.025000000000000001
66, 3, 3, 0.040000000000000001
66, 11, 11, 330
67, 1, 1, 0.059999999999999998
67, 2, 2, 0.10000000000000001
67, 3, 3, -0.035000000000000003
67, 11, 11, 350
68, 1, 1, -0.014999999999999999
68, 2, 2, 0.029999999999999999
68, 3, 3, 0.01
68, 11, 11, 370
69, 1, 1, 0.029999999999999999
69, 2, 2, -0.02
69, 3, 3, 0.080000000000000002
69, 11, 11, 390
70, 1, 1, 0.14000000000000001
70, 2, 2, 0.014999999999999999
70, 3, 3, 0.02
70, 11, 11, 410
71, 1, 1, 0.089999999999999997
71, 2, 2, 0.044999999999999998
71, 3, 3, 0.14999999999999999
71, 11, 11, 430
72, 1, 1, -0.040000000000000001
72, 2, 2, 0.11
72, 3, 3, 0.025000000000000001
72, 11, 11, 450
73, 1, 1, 0
73, 2, 2, 0
73, 3, 3, 0
73, 11, 11, 310
74, 1, 1, 0.12
74, 2, 2, 0.025000000000000001
74, 3, 3, 0.040000000000000001
74, 11, 11, 333
75, 1, 1, 0.059999999999999998
75, 2, 2, 0.10000000000000001
75, 3, 3, -0.035000000000000003
75, 11, 11, 350
76, 1, 1, -0.014999999999999999
76, 2, 2, 0.029999999999999999
76, 3, 3, 0.01
76, 11, 11, 370
77, 1, 1, 0.029999999999999999
77, 2, 2, -0.02
77, 3, 3, 0.080000000000000002
77, 11, 11, 390
78, 1, 1, 0.14000000000000001
78, 2, 2, 0.014999999999999999
78, 3, 3, 0.02
78, 11, 11, 410
79, 1, 1, 0.089999999999999997
79, 2, 2, 0.044999999999999998
79, 3, 3, 0.14999999999999999
79, 11, 11, 430
80, 1, 1, -0.040000000000000001
80, 2, 2, 0.11
80, 3, 3, 0.025000000000000001
80, 11, 11, 450
81, 1, 1, 0
81, 2, 2, 0
81, 3, 3, 0
81, 11, 11, 310
82, 1, 1, 0.12
82, 2, 2, 0.025000000000000001
82, 3, 3, 0.040000000000000001
82, 11, 11, 330
83, 1, 1, 0.059999999999999998
83, 2, 2, 0.10000000000000001
83, 3, 3, -0.035000000000000003
83, 11, 11, 353
84, 1, 1, -0.014999999999999999
84, 2, 2, 0.029999999999999999
84, 3, 3, 0.01
84, 11, 11, 370
85, 1, 1, 0.029999999999999999
85, 2, 2, -0.02
85, 3, 3, 0.080000000000000002
85, 11, 11, 390
86, 1, 1, 0.14000000000000001
86, 2, 2, 0.014999999999999999
86, 3, 3, 0.02
86, 11, 11, 410
87, 1, 1, 0.089999999999999997
87, 2, 2, 0.044999999999999998
87, 3, 3, 0.14999999999999999
87, 11, 11, 430
88, 1, 1, -0.040000000000000001
88, 2, 2, 0.11
88, 3, 3, 0.025000000000000001
88, 11, 11, 450
89, 1, 1, 0
89, 2, 2, 0
89, 3, 3, 0
89, 11, 11, 310
90, 1, 1, 0.12
90, 2, 2, 0.025000000000000001
90, 3, 3, 0.040000000000000001
90, 11, 11, 330
91, 1, 1, 0.059999999999999998
91, 2, 2, 0.10000000000000001
91, 3, 3, -0.035000000000000003
91, 11, 11, 350
92, 1, 1, -0.014999999999999999
92, 2, 2, 0.029999999999999999
92, 3, 3, 0.01
92, 11, 11, 373
93, 1, 1, 0.029999999999999999
93, 2, 2, -0.02
93, 3, 3, 0.080000000000000002
93, 11, 11, 390
94, 1, 1, 0.14000000000000001
94, 2, 2, 0.014999999999999999
94, 3, 3, 0.02
94, 11, 11, 410
95, 1, 1, 0.089999999999999997
95, 2, 2, 0.044999999999999998
95, 3, 3, 0.14999999999999999
95, 11, 11, 430
96, 1, 1, -0.040000000000000001
96, 2, 2, 0.11
96, 3, 3, 0.025000000000000001
96, 11, 11, 450
97, 1, 1, 0
97, 2, 2, 0
97, 3, 3, 0
97, 11, 11, 310
98, 1, 1, 0.12
98, 2, 2, 0.025000000000000001
98, 3, 3, 0.040000000000000001
98, 11, 11, 330
99, 1, 1, 0.059999999999999998
99, 2, 2, 0.10000000000000001
99, 3, 3, -0.035000000000000003
99, 11, 11, 350
100, 1, 1, -0.014999999999999999
100, 2, 2, 0.029999999999999999
100, 3, 3, 0.01
100, 11, 11, 370
101, 1, 1, 0.029999999999999999
101, 2, 2, -0.02
101, 3, 3, 0.080000000000000002
101, 11, 11, 393
102, 1, 1, 0.14000000000000001
102, 2, 2, 0.014999999999999999
102, 3, 3, 0.02
102, 11, 11, 410
103, 1, 1, 0.089999999999999997
103, 2, 2, 0.044999999999999998
103, 3, 3, 0.14999999999999999
103, 11, 11, 430
104, 1, 1, -0.040000000000000001
104, 2, 2, 0.11
104, 3, 3, 0.025000000000000001
104, 11, 11, 450
105, 1, 1, 0
105, 2, 2, 0
105, 3, 3, 0
105, 11, 11, 310
106, 1, 1, 0.12
106, 2, 2, 0.025000000000000001
106, 3, 3, 0.040000000000000001
106, 11, 11, 330
107, 1, 1, 0.059999999999999998
107, 2, 2, 0.10000000000000001
107, 3, 3, -0.035000000000000003
107, 11, 11, 350
108, 1, 1, -0.014999999999999999
108, 2, 2, 0.029999999999999999
108, 3, 3, 0.01
108, 11, 11, 370
109, 1, 1, 0.029999999999999999
109, 2, 2, -0.02
109, 3, 3, 0.080000000000000002
109, 11, 11, 390
110, 1, 1, 0.14000000000000001
110, 2, 2, 0.014999999999999999
110, 3, 3, 0.02
110, 11, 11, 413
111, 1, 1, 0.089999999999999997
111, 2, 2, 0.044999999999999998
111, 3, 3, 0.14999999999999999
111, 11, 11, 430
112, 1, 1, -0.040000000000000001
112, 2, 2, 0.11
112, 3, 3, 0.025000000000000001
112, 11, 11, 450
113, 1, 1, 0
113, 2, 2, 0
113, 3, 3, 0
113, 11, 11, 310
114, 1, 1, 0.12
114, 2, 2, 0.025000000000000001
114, 3, 3, 0.040000000000000001
114, 11, 11, 330
115, 1, 1, 0.059999999999999998
115, 2, 2, 0.10000000000000001
115, 3, 3, -0.035000000000000003
115, 11, 11, 350
116, 1, 1, -0.014999999999999999
116, 2, 2, 0.029999999999999999
116, 3, 3, 0.01
116, 11, 11, 370
117, 1, 1, 0.029999999999999999
117, 2, 2, -0.02
117, 3, 3, 0.080000000000000002
117, 11, 11, 390
118, 1, 1, 0.14000000000000001
118, 2, 2, 0.014999999999999999
118, 3, 3, 0.02
118, 11, 11, 410
119, 1, 1, 0.089999999999999997
119, 2, 2, 0.044999999999999998
119, 3, 3, 0.14999999999999999
119, 11, 11, 433
120, 1, 1, -0.040000000000000001
120, 2, 2, 0.11
120, 3, 3, 0.025000000000000001
120, 11, 11, 450
121, 1, 1, 0
121, 2, 2, 0
121, 3, 3, 0
121, 11, 11, 310
122, 1, 1, 0.12
122, 2, 2, 0.025000000000000001
122, 3, 3, 0.040000000000000001
122, 11, 11, 330
123, 1, 1, 0.059999999999999998
123, 2, 2, 0.10000000000000001
123, 3, 3, -0.035000000000000003
123, 11, 11, 350
124, 1, 1, -0.014999999999999999
124, 2, 2, 0.029999999999999999
124, 3, 3, 0.01
124, 11, 11, 370
125, 1, 1, 0.029999999999999999
125, 2, 2, -0.02
125, 3, 3, 0.080000000000000002
125, 11, 11, 390
126, 1, 1, 0.14000000000000001
126, 2, 2, 0.014999999999999999
126, 3, 3, 0.02
126, 11, 11, 410
127, 1, 1, 0.089999999999999997
127, 2, 2, 0.044999999999999998
127, 3, 3, 0.14999999999999999
127, 11, 11, 430
128, 1, 1, -0.040000000000000001
128, 2, 2, 0.11
128, 3, 3, 0.025000000000000001
128, 11, 11, 453
129, 1, 1, 0
129, 2, 2, 0
129, 3, 3, 0
129, 11, 11, 313
130, 1, 1, 0.12
130, 2, 2, 0.025000000000000001
130, 3, 3, 0.040000000000000001
130, 11, 11, 330
131, 1, 1, 0.059999999999999998
131, 2, 2, 0.10000000000000001
131, 3, 3, -0.035000000000000003
131, 11, 11, 350
132, 1, 1, -0.014999999999999999
132, 2, 2, 0.029999999999999999
132, 3, 3, 0.01
132, 11, 11, 370
133, 1, 1, 0.029999999999999999
133, 2, 2, -0.02
133, 3, 3, 0.080000000000000002
133, 11, 11, 390
134, 1, 1, 0.14000000000000001
134, 2, 2, 0.014999999999999999
134, 3, 3, 0.02
134, 11, 11, 410
135, 1, 1, 0.089999999999999997
135, 2, 2, 0.044999999999999998
135, 3, 3, 0.14999999999999999
135, 11, 11, 430
136, 1, 1, -0.040000000000000001
136, 2, 2, 0.11
136, 3, 3, 0.025000000000000001
136, 11, 11, 450
137, 1, 1, 0
137, 2, 2, 0
137, 3, 3, 0
137, 11, 11, 310
138, 1, 1, 0.12
138, 2, 2, 0.025000000000000001
138, 3, 3, 0.040000000000000001
138, 11, 11, 333
139, 1, 1, 0.059999999999999998
139, 2, 2, 0.10000000000000001
139, 3, 3, -0.035000000000000003
139, 11, 11, 350
140, 1, 1, -0.014999999999999999
140, 2, 2, 0.029999999999999999
140, 3, 3, 0.01
140, 11, 11, 370
141, 1, 1, 0.029999999999999999
141, 2, 2, -0.02
141, 3, 3, 0.080000000000000002
141, 11, 11, 390
142, 1, 1, 0.14000000000000001
142, 2, 2, 0.014999999999999999
142, 3, 3, 0.02
142, 11, 11, 410
143, 1, 1, 0.089999999999999997
143, 2, 2, 0.044999999999999998
143, 3, 3, 0.14999999999999999
143, 11, 11, 430
144, 1, 1, -0.040000000000000001
144, 2, 2, 0.11
144, 3, 3, 0.025000000000000001
144, 11, 11, 450
145, 1, 1, 0
145, 2, 2, 0
145, 3, 3, 0
145, 11, 11, 310
146, 1, 1, 0.12
146, 2, 2, 0.025000000000000001
146, 3, 3, 0.040000000000000001
146, 11, 11, 330
147, 1, 1, 0.059999999999999998
147, 2, 2, 0.10000000000000001
147, 3, 3, -0.035000000000000003
147, 11, 11, 353
148, 1, 1, -0.014999999999999999
148, 2, 2, 0.029999999999999999
148, 3, 3, 0.01
148, 11, 11, 370
149, 1, 1, 0.029999999999999999
149, 2, 2, -0.02
149, 3, 3, 0.080000000000000002
149, 11, 11, 390
150, 1, 1, 0.14000000000000001
150, 2, 2, 0.014999999999999999
150, 3, 3, 0.02
150, 11, 11, 410
151, 1, 1, 0.089999999999999997
151, 2, 2, 0.044999999999999998
151, 3, 3, 0.14999999999999999
151, 11, 11, 430
152, 1, 1, -0.040000000000000001
152, 2, 2, 0.11
152, 3, 3, 0.025000000000000001
152, 11, 11, 450
153, 1, 1, 0
153, 2, 2, 0
153, 3, 3, 0
153, 11, 11, 310
154, 1, 1, 0.12
154, 2, 2, 0.025000000000000001
154, 3, 3, 0.040000000000000001
154, 11, 11, 330
155, 1, 1, 0.059999999999999998
155, 2, 2, 0.10000000000000001
155, 3, 3, -0.035000000000000003
155, 11, 11, 350
156, 1, 1, -0.014999999999999999
156, 2, 2, 0.029999999999999999
156, 3, 3, 0.01
156, 11, 11, 373
157, 1, 1, 0.029999999999999999
157, 2, 2, -0.02
157, 3, 3, 0.080000000000000002
157, 11, 11, 390
158, 1, 1, 0.14000000000000001
158, 2, 2, 0.014999999999999999
158, 3, 3, 0.02
158, 11, 11, 410
159, 1, 1, 0.089999999999999997
159, 2, 2, 0.044999999999999998
159, 3, 3, 0.14999999999999999
159, 11, 11, 430
160, 1, 1, -0.040000000000000001
160, 2, 2, 0.11
160, 3, 3, 0.025000000000000001
160, 11, 11, 450
161, 1, 1, 0
161, 2, 2, 0
161, 3, 3, 0
161, 11, 11, 310
162, 1, 1, 0.12
162, 2, 2, 0.025000000000000001
162, 3, 3, 0.040000000000000001
162, 11, 11, 330
163, 1, 1, 0.059999999999999998
163, 2, 2, 0.10000000000000001
163, 3, 3, -0.035000000000000003
163, 11, 11, 350
164, 1, 1, -0.014999999999999999
164, 2, 2, 0.029999999999999999
164, 3, 3, 0.01
164, 11, 11, 370
165, 1, 1, 0.029999999999999999
165, 2, 2, -0.02
165, 3, 3, 0.080000000000000002
165, 11, 11, 393
166, 1, 1, 0.14000000000000001
166, 2, 2, 0.014999999999999999
166, 3, 3, 0.02
166, 11, 11, 410
167, 1, 1, 0.089999999999999997
167, 2, 2, 0.044999999999999998
167, 3, 3, 0.14999999999999999
167, 11, 11, 430
168, 1, 1, -0.040000000000000001
168, 2, 2, 0.11
168, 3, 3, 0.025000000000000001
168, 11, 11, 450
169, 1, 1, 0
169, 2, 2, 0
169, 3, 3, 0
169, 11, 11, 310
170, 1, 1, 0.12
170, 2, 2, 0.025000000000000001
170, 3, 3, 0.040000000000000001
170, 11, 11, 330
171, 1, 1, 0.059999999999999998
171, 2, 2, 0.10000000000000001
171, 3, 3, -0.035000000000000003
171, 11, 11, 350
172, 1, 1, -0.014999999999999999
172, 2, 2, 0.029999999999999999
172, 3, 3, 0.01
172, 11, 11, 370
173, 1, 1, 0.029999999999999999
173, 2, 2, -0.02
173, 3, 3, 0.080000000000000002
173, 11, 11, 390
174, 1, 1, 0.14000000000000001
174, 2, 2, 0.014999999999999999
174, 3, 3, 0.02
174, 11, 11, 413
175, 1, 1, 0.089999999999999997
175, 2, 2, 0.044999999999999998
175, 3, 3, 0.14999999999999999
175, 11, 11, 430
176, 1, 1, -0.040000000000000001
176, 2, 2, 0.11
176, 3, 3, 0.025000000000000001
176, 11, 11, 450
177, 1, 1, 0
177, 2, 2, 0
177, 3, 3, 0
177, 11, 11, 310
178, 1, 1, 0.12
178, 2, 2, 0.025000000000000001
178, 3, 3, 0.040000000000000001
178, 11, 11, 330
179, 1, 1, 0.059999999999999998
179, 2, 2, 0.10000000000000001
179, 3, 3, -0.035000000000000003
179, 11, 11, 350
180, 1, 1, -0.014999999999999999
180, 2, 2, 0.029999999999999999
180, 3, 3, 0.01
180, 11, 11, 370
181, 1, 1, 0.029999999999999999
181, 2, 2, -0.02
181, 3, 3, 0.080000000000000002
181, 11, 11, 390
182, 1, 1, 0.14000000000000001
182, 2, 2, 0.014999999999999999
182, 3, 3, 0.02
182, 11, 11, 410
183, 1, 1, 0.089999999999999997
183, 2, 2, 0.044999999999999998
183, 3, 3, 0.14999999999999999
183, 11, 11, 433
184, 1, 1, -0.040000000000000001
184, 2, 2, 0.11
184, 3, 3, 0.025000000000000001
184, 11, 11, 450
185, 1, 1, 0
185, 2, 2, 0
185, 3, 3, 0
185, 11, 11, 310
186, 1, 1, 0.12
186, 2, 2, 0.025000000000000001
186, 3, 3, 0.040000000000000001
186, 11, 11, 330
187, 1, 1, 0.059999999999999998
187, 2, 2, 0.10000000000000001
187, 3, 3, -0.035000000000000003
187, 11, 11, 350
188, 1, 1, -0.014999999999999999
188, 2, 2, 0.029999999999999999
188, 3, 3, 0.01
188, 11, 11, 370
189, 1, 1, 0.029999999999999999
189, 2, 2, -0.02
189, 3, 3, 0.080000000000000002
189, 11, 11, 390
190, 1, 1, 0.14000000000000001
190, 2, 2, 0.014999999999999999
190, 3, 3, 0.02
190, 11, 11, 410
191, 1, 1, 0.089999999999999997
191, 2, 2, 0.044999999999999998
191, 3, 3, 0.14999999999999999
191, 11, 11, 430
192, 1, 1, -0.040000000000000001
192, 2, 2, 0.11
192, 3, 3, 0.025000000000000001
192, 11, 11, 453
193, 1, 1, 0
193, 2, 2, 0
193, 3, 3, 0
193, 11, 11, 303
194, 1, 1, 0.12
194, 2, 2, 0.025000000000000001
194, 3, 3, 0.040000000000000001
194, 11, 11, 300
195, 1, 1, 0.059999999999999998
195, 2, 2, 0.10000000000000001
195, 3, 3, -0.035000000000000003
195, 11, 11, 300
196, 1, 1, -0.014999999999999999
196, 2, 2, 0.029999999999999999
196, 3, 3, 0.01
196, 11, 11, 300
197, 1, 1, 0.029999999999999999
197, 2, 2, -0.02
197, 3, 3, 0.080000000000000002
197, 11, 11, 300
198, 1, 1, 0.14000000000000001
198, 2, 2, 0.014999999999999999
198, 3, 3, 0.02
198, 11, 11, 300
199, 1, 1, 0.089999999999999997
199, 2, 2, 0.044999999999999998
199, 3, 3, 0.14999999999999999
199, 11, 11, 300
200, 1, 1, -0.040000000000000001
200, 2, 2, 0.11
200, 3, 3, 0.025000000000000001
200, 11, 11, 300
201, 1, 1, 0
201, 2, 2, 0
201, 3, 3, 0
201, 11, 11, 300
202, 1, 1, 0.12
202, 2, 2, 0.025000000000000001
202, 3, 3, 0.040000000000000001
202, 11, 11, 303
203, 1, 1, 0.059999999999999998
203, 2, 2, 0.10000000000000001
203, 3, 3, -0.035000000000000003
203, 11, 11, 300
204, 1, 1, -0.014999999999999999
204, 2, 2, 0.029999999999999999
204, 3, 3, 0.01
204, 11, 11, 300
205, 1, 1, 0.029999999999999999
205, 2, 2, -0.02
205, 3, 3, 0.080000000000000002
205, 11, 11, 300
206, 1, 1, 0.14000000000000001
206, 2, 2, 0.014999999999999999
206, 3, 3, 0.02
206, 11, 11, 300
207, 1, 1, 0.089999999999999997
207, 2, 2, 0.044999999999999998
207, 3, 3, 0.14999999999999999
207, 11, 11, 300
208, 1, 1, -0.040000000000000001
208, 2, 2, 0.11
208, 3, 3, 0.025000000000000001
208, 11, 11, 300
209, 1, 1, 0
209, 2, 2, 0
209, 3, 3, 0
209, 11, 11, 300
210, 1, 1, 0.12
210, 2, 2, 0.025000000000000001
210, 3, 3, 0.040000000000000001
210, 11, 11, 300
211, 1, 1, 0.059999999999999998
211, 2, 2, 0.10000000000000001
211, 3, 3, -0.035000000000000003
211, 11, 11, 303
212, 1, 1, -0.014999999999999999
212, 2, 2, 0.029999999999999999
212, 3, 3, 0.01
212, 11, 11, 300
213, 1, 1, 0.029999999999999999
213, 2, 2, -0.02
213, 3, 3, 0.080000000000000002
213, 11, 11, 300
214, 1, 1, 0.14000000000000001
214, 2, 2, 0.014999999999999999
214, 3, 3, 0.02
214, 11, 11, 300
215, 1, 1, 0.089999999999999997
215, 2, 2, 0.044999999999999998
215, 3, 3, 0.14999999999999999
215, 11, 11, 300
216, 1, 1, -0.040000000000000001
216, 2, 2, 0.11
216, 3, 3, 0.025000000000000001
216, 11, 11, 300
217, 1, 1, 0
217, 2, 2, 0
217, 3, 3, 0
217, 11, 11, 300
218, 1, 1, 0.12
218, 2, 2, 0.025000000000000001
218, 3, 3, 0.040000000000000001
218, 11, 11, 300
219, 1, 1, 0.059999999999999998
219, 2, 2, 0.10000000000000001
219, 3, 3, -0.035000000000000003
219, 11, 11, 300
220, 1, 1, -0.014999999999999999
220, 2, 2, 0.029999999999999999
220, 3, 3, 0.01
220, 11, 11, 303
221, 1, 1, 0.029999999999999999
221, 2, 2, -0.02
221, 3, 3, 0.080000000000000002
221, 11, 11, 300
222, 1, 1, 0.14000000000000001
222, 2, 2, 0.014999999999999999
222, 3, 3, 0.02
222, 11, 11, 300
223, 1, 1, 0.089999999999999997
223, 2, 2, 0.044999999999999998
223, 3, 3, 0.14999999999999999
223, 11, 11, 300
224, 1, 1, -0.040000000000000001
224, 2, 2, 0.11
224, 3, 3, 0.025000000000000001
224, 11, 11, 300
225, 1, 1, 0
225, 2, 2, 0
225, 3, 3, 0
225, 11, 11, 300
226, 1, 1, 0.12
226, 2, 2, 0.025000000000000001
226, 3, 3, 0.040000000000000001
226, 11, 11, 300
227, 1, 1, 0.059999999999999998
227, 2, 2, 0.10000000000000001
227, 3, 3, -0.035000000000000003
227, 11, 11, 300
228, 1, 1, -0.014999999999999999
228, 2, 2, 0.029999999999999999
228, 3, 3, 0.01
228, 11, 11, 300
229, 1, 1, 0.029999999999999999
229, 2, 2, -0.02
229, 3, 3, 0.080000000000000002
229, 11, 11, 303
230, 1, 1, 0.14000000000000001
230, 2, 2, 0.014999999999999999
230, 3, 3, 0.02
230, 11, 11, 300
231, 1, 1, 0.089999999999999997
231, 2, 2, 0.044999999999999998
231, 3, 3, 0.14999999999999999
231, 11, 11, 300
232, 1, 1, -0.040000000000000001
232, 2, 2, 0.11
232, 3, 3, 0.025000000000000001
232, 11, 11, 300
233, 1, 1, 0
233, 2, 2, 0
233, 3, 3, 0
233, 11, 11, 300
234, 1, 1, 0.12
234, 2, 2, 0.025000000000000001
234, 3, 3, 0.040000000000000001
234, 11, 11, 300
235, 1, 1, 0.059999999999999998
235, 2, 2, 0.10000000000000001
235, 3, 3, -0.035000000000000003
235, 11, 11, 300
236, 1, 1, -0.014999999999999999
236, 2, 2, 0.029999999999999999
236, 3, 3, 0.01
236, 11, 11, 300
237, 1, 1, 0.029999999999999999
237, 2, 2, -0.02
237, 3, 3, 0.080000000000000002
237, 11, 11, 300
238, 1, 1, 0.14000000000000001
238, 2, 2, 0.014999999999999999
238, 3, 3, 0.02
238, 11, 11, 303
239, 1, 1, 0.089999999999999997
239, 2, 2, 0.044999999999999998
239, 3, 3, 0.14999999999999999
239, 11, 11, 300
240, 1, 1, -0.040000000000000001
240, 2, 2, 0.11
240, 3, 3, 0.025000000000000001
240, 11, 11, 300
241, 1, 1, 0
241, 2, 2, 0
241, 3, 3, 0
241, 11, 11, 300
242, 1, 1, 0.12
242, 2, 2, 0.025000000000000001
242, 3, 3, 0.040000000000000001
242, 11, 11, 300
243, 1, 1, 0.059999999999999998
243, 2, 2, 0.10000000000000001
243, 3, 3, -0.035000000000000003
243, 11, 11, 300
244, 1, 1, -0.014999999999999999
244, 2, 2, 0.029999999999999999
244, 3, 3, 0.01
244, 11, 11, 300
245, 1, 1, 0.029999999999999999
245, 2, 2, -0.02
245, 3, 3, 0.080000000000000002
245, 11, 11, 300
246, 1, 1, 0.14000000000000001
246, 2, 2, 0.014999999999999999
246, 3, 3, 0.02
246, 11, 11, 300
247, 1, 1, 0.089999999999999997
247, 2, 2, 0.044999999999999998
247, 3, 3, 0.14999999999999999
247, 11, 11, 303
248, 1, 1, -0.040000000000000001
248, 2, 2, 0.11
248, 3, 3, 0.025000000000000001
248, 11, 11, 300
249, 1, 1, 0
249, 2, 2, 0
249, 3, 3, 0
249, 11, 11, 300
250, 1, 1, 0.12
250, 2, 2, 0.025000000000000001
250, 3, 3, 0.040000000000000001
250, 11, 11, 300
251, 1, 1, 0.059999999999999998
251, 2, 2, 0.10000000000000001
251, 3, 3, -0.035000000000000003
251, 11, 11, 300
252, 1, 1, -0.014999999999999999
252, 2, 2, 0.029999999999999999
252, 3, 3, 0.01
252, 11, 11, 300
253, 1, 1, 0.029999999999999999
253, 2, 2, -0.02
253, 3, 3, 0.080000000000000002
253, 11, 11, 300
254, 1, 1, 0.14000000000000001
254, 2, 2, 0.014999999999999999
254, 3, 3, 0.02
254, 11, 11, 300
255, 1, 1, 0.089999999999999997
255, 2, 2, 0.044999999999999998
255, 3, 3, 0.14999999999999999
255, 11, 11, 300
256, 1, 1, -0.040000000000000001
256, 2, 2, 0.11
256, 3, 3, 0.025000000000000001
256, 11, 11, 303
257, 1, 1, 0
257, 2, 2, 0
257, 3, 3, 0
257, 11, 11, 313
258, 1, 1, 0.12
258, 2, 2, 0.025000000000000001
258, 3, 3, 0.040000000000000001
258, 11, 11, 330
259, 1, 1, 0.059999999999999998
259, 2, 2, 0.10000000000000001
259, 3, 3, -0.035000000000000003
259, 11, 11, 350
260, 1, 1, -0.014999999999999999
260, 2, 2, 0.029999999999999999
260, 3, 3, 0.01
260, 11, 11, 370
261, 1, 1, 0.029999999999999999
261, 2, 2, -0.02
261, 3, 3, 0.080000000000000002
261, 11, 11, 390
262, 1, 1, 0.14000000000000001
262, 2, 2, 0.014999999999999999
262, 3, 3, 0.02
262, 11, 11, 410
263, 1, 1, 0.089999999999999997
263, 2, 2, 0.044999999999999998
263, 3, 3, 0.14999999999999999
263, 11, 11, 430
264, 1, 1, -0.040000000000000001
264, 2, 2, 0.11
264, 3, 3, 0.025000000000000001
264, 11, 11, 450
265, 1, 1, 0
265, 2, 2, 0
265, 3, 3, 0
265, 11, 11, 310
266, 1, 1, 0.12
266, 2, 2, 0.025000000000000001
266, 3, 3, 0.040000000000000001
266, 11, 11, 333
267, 1, 1, 0.059999999999999998
267, 2, 2, 0.10000000000000001
267, 3, 3, -0.035000000000000003
267, 11, 11, 350
268, 1, 1, -0.014999999999999999
268, 2, 2, 0.029999999999999999
268, 3, 3, 0.01
268, 11, 11, 370
269, 1, 1, 0.029999999999999999
269, 2, 2, -0.02
269, 3, 3, 0.080000000000000002
269, 11, 11, 390
270, 1, 1, 0.14000000000000001
270, 2, 2, 0.014999999999999999
270, 3, 3, 0.02
270, 11, 11, 410
271, 1, 1, 0.089999999999999997
271, 2, 2, 0.044999999999999998
271, 3, 3, 0.14999999999999999
271, 11, 11, 430
272, 1, 1, -0.040000000000000001
272, 2, 2, 0.11
272, 3, 3, 0.025000000000000001
272, 11, 11, 450
273, 1, 1, 0
273, 2, 2, 0
273, 3, 3, 0
273, 11, 11, 310
274, 1, 1, 0.12
274, 2, 2, 0.025000000000000001
274, 3, 3, 0.040000000000000001
274, 11, 11, 330
275, 1, 1, 0.059999999999999998
275, 2, 2, 0.10000000000000001
275, 3, 3, -0.035000000000000003
275, 11, 11, 353
276, 1, 1, -0.014999999999999999
276, 2, 2, 0.029999999999999999
276, 3, 3, 0.01
276, 11, 11, 370
277, 1, 1, 0.029999999999999999
277, 2, 2, -0.02
277, 3, 3, 0.080000000000000002
277, 11, 11, 390
278, 1, 1, 0.14000000000000001
278, 2, 2, 0.014999999999999999
278, 3, 3, 0.02
278, 11, 11, 410
279, 1, 1, 0.089999999999999997
279, 2, 2, 0.044999999999999998
279, 3, 3, 0.14999999999999999
279, 11, 11, 430
280, 1, 1, -0.040000000000000001
280, 2, 2, 0.11
280, 3, 3, 0.025000000000000001
280, 11, 11, 450
281, 1, 1, 0
281, 2, 2, 0
281, 3, 3, 0
281, 11, 11, 310
282, 1, 1, 0.12
282, 2, 2, 0.025000000000000001
282, 3, 3, 0.040000000000000001
282, 11, 11, 330
283, 1, 1, 0.059999999999999998
283, 2, 2, 0.10000000000000001
283, 3, 3, -0.035000000000000003
283, 11, 11, 350
284, 1, 1, -0.014999999999999999
284, 2, 2, 0.029999999999999999
284, 3, 3, 0.01
284, 11, 11, 373
285, 1, 1, 0.029999999999999999
285, 2, 2, -0.02
285, 3, 3, 0.080000000000000002
285, 11, 11, 390
286, 1, 1, 0.14000000000000001
286, 2, 2, 0.014999999999999999
286, 3, 3, 0.02
286, 11, 11, 410
287, 1, 1, 0.089999999999999997
287, 2, 2, 0.044999999999999998
287, 3, 3, 0.14999999999999999
287, 11, 11, 430
288, 1, 1, -0.040000000000000001
288, 2, 2, 0.11
288, 3, 3, 0.025000000000000001
288, 11, 11, 450
289, 1, 1, 0
289, 2, 2, 0
289, 3, 3, 0
289, 11, 11, 310
290, 1, 1, 0.12
290, 2, 2, 0.025000000000000001
290, 3, 3, 0.040000000000000001
290, 11, 11, 330
291, 1, 1, 0.059999999999999998
291, 2, 2, 0.10000000000000001
291, 3, 3, -0.035000000000000003
291, 11, 11, 350
292, 1, 1, -0.014999999999999999
292, 2, 2, 0.029999999999999999
292, 3, 3, 0.01
292, 11, 11, 370
293, 1, 1, 0.029999999999999999
293, 2, 2, -0.02
293, 3, 3, 0.080000000000000002
293, 11, 11, 393
294, 1, 1, 0.14000000000000001
294, 2, 2, 0.014999999999999999
294, 3, 3, 0.02
294, 11, 11, 410
295, 1, 1, 0.089999999999999997
295, 2, 2, 0.044999999999999998
295, 3, 3, 0.14999999999999999
295, 11, 11, 430
296, 1, 1, -0.040000000000000001
296, 2, 2, 0.11
296, 3, 3, 0.025000000000000001
296, 11, 11, 450
297, 1, 1, 0
297, 2, 2, 0
297, 3, 3, 0
297, 11, 11, 310
298, 1, 1, 0.12
298, 2, 2, 0.025000000000000001
298, 3, 3, 0.040000000000000001
298, 11, 11, 330
299, 1, 1, 0.059999999999999998
299, 2, 2, 0.10000000000000001
299, 3, 3, -0.035000000000000003
299, 11, 11, 350
300, 1, 1, -0.014999999999999999
300, 2, 2, 0.029999999999999999
300, 3, 3, 0.01
300, 11, 11, 370
301, 1, 1, 0.029999999999999999
301, 2, 2, -0.02
301, 3, 3, 0.080000000000000002
301, 11, 11, 390
302, 1, 1, 0.14000000000000001
302, 2, 2, 0.014999999999999999
302, 3, 3, 0.02
302, 11, 11, 413
303, 1, 1, 0.089999999999999997
303, 2, 2, 0.044999999999999998
303, 3, 3, 0.14999999999999999
303, 11, 11, 430
304, 1, 1, -0.040000000000000001
304, 2, 2, 0.11
304, 3, 3, 0.025000000000000001
304, 11, 11, 450
305, 1, 1, 0
305, 2, 2, 0
305, 3, 3, 0
305, 11, 11, 310
306, 1, 1, 0.12
306, 2, 2, 0.025000000000000001
306, 3, 3, 0.040000000000000001
306, 11, 11, 330
307, 1, 1, 0.059999999999999998
307, 2, 2, 0.10000000000000001
307, 3, 3, -0.035000000000000003
307, 11, 11, 350
308, 1, 1, -0.014999999999999999
308, 2, 2, 0.029999999999999999
308, 3, 3, 0.01
308, 11, 11, 370
309, 1, 1, 0.029999999999999999
309, 2, 2, -0.02
309, 3, 3, 0.080000000000000002
309, 11, 11, 390
310, 1, 1, 0.14000000000000001
310, 2, 2, 0.014999999999999999
310, 3, 3, 0.02
310, 11, 11, 410
311, 1, 1, 0.089999999999999997
311, 2, 2, 0.044999999999999998
311, 3, 3, 0.14999999999999999
311, 11, 11, 433
312, 1, 1, -0.040000000000000001
312, 2, 2, 0.11
312, 3, 3, 0.025000000000000001
312, 11, 11, 450
313, 1, 1, 0
313, 2, 2, 0
313, 3, 3, 0
313, 11, 11, 310
314, 1, 1, 0.12
314, 2, 2, 0.025000000000000001
314, 3, 3, 0.040000000000000001
314, 11, 11, 330
315, 1, 1, 0.059999999999999998
315, 2, 2, 0.10000000000000001
315, 3, 3, -0.035000000000000003
315, 11, 11, 350
316, 1, 1, -0.014999999999999999
316, 2, 2, 0.029999999999999999
316, 3, 3, 0.01
316, 11, 11, 370
317, 1, 1, 0.029999999999999999
317, 2, 2, -0.02
317, 3, 3, 0.080000000000000002
317, 11, 11, 390
318, 1, 1, 0.14000000000000001
318, 2, 2, 0.014999999999999999
318, 3, 3, 0.02
318, 11, 11, 410
319, 1, 1, 0.089999999999999997
319, 2, 2, 0.044999999999999998
319, 3, 3, 0.14999999999999999
319, 11, 11, 430
320, 1, 1, -0.040000000000000001
320, 2, 2, 0.11
320, 3, 3, 0.025000000000000001
320, 11, 11, 453
321, 1, 1, 0
321, 2, 2, 0
321, 3, 3, 0
321, 11, 11, 313
322, 1, 1, 0.12
322, 2, 2, 0.025000000000000001
322, 3, 3, 0.040000000000000001
322, 11, 11, 330
323, 1, 1, 0.059999999999999998
323, 2, 2, 0.10000000000000001
323, 3, 3, -0.035000000000000003
323, 11, 11, 350
324, 1, 1, -0.014999999999999999
324, 2, 2, 0.029999999999999999
324, 3, 3, 0.01
324, 11, 11, 370
325, 1, 1, 0.029999999999999999
325, 2, 2, -0.02
325, 3, 3, 0.080000000000000002
325, 11, 11, 390
326, 1, 1, 0.14000000000000001
326, 2, 2, 0.014999999999999999
326, 3, 3, 0.02
326, 11, 11, 410
327, 1, 1, 0.089999999999999997
327, 2, 2, 0.044999999999999998
327, 3, 3, 0.14999999999999999
327, 11, 11, 430
328, 1, 1, -0.040000000000000001
328, 2, 2, 0.11
328, 3, 3, 0.025000000000000001
328, 11, 11, 450
329, 1, 1, 0
329, 2, 2, 0
329, 3, 3, 0
329, 11, 11, 310
330, 1, 1, 0.12
330, 2, 2, 0.025000000000000001
330, 3, 3, 0.040000000000000001
330, 11, 11, 333
331, 1, 1, 0.059999999999999998
331, 2, 2, 0.10000000000000001
331, 3, 3, -0.035000000000000003
331, 11, 11, 350
332, 1, 1, -0.014999999999999999
332, 2, 2, 0.029999999999999999
332, 3, 3, 0.01
332, 11, 11, 370
333, 1, 1, 0.029999999999999999
333, 2, 2, -0.02
333, 3, 3, 0.080000000000000002
333, 11, 11, 390
334, 1, 1, 0.14000000000000001
334, 2, 2, 0.014999999999999999
334, 3, 3, 0.02
334, 11, 11, 410
335, 1, 1, 0.089999999999999997
335, 2, 2, 0.044999999999999998
335, 3, 3, 0.14999999999999999
335, 11, 11, 430
336, 1, 1, -0.040000000000000001
336, 2, 2, 0.11
336, 3, 3, 0.025000000000000001
336, 11, 11, 450
337, 1, 1, 0
337, 2, 2, 0
337, 3, 3, 0
337, 11, 11, 310
338, 1, 1, 0.12
338, 2, 2, 0.025000000000000001
338, 3, 3, 0.040000000000000001
338, 11, 11, 330
339, 1, 1, 0.059999999999999998
339, 2, 2, 0.10000000000000001
339, 3, 3, -0.035000000000000003
339, 11, 11, 353
340, 1, 1, -0.014999999999999999
340, 2, 2, 0.029999999999999999
340, 3, 3, 0.01
340, 11, 11, 370
341, 1, 1, 0.029999999999999999
341, 2, 2, -0.02
341, 3, 3, 0.080000000000000002
341, 11, 11, 390
342, 1, 1, 0.14000000000000001
342, 2, 2, 0.014999999999999999
342, 3, 3, 0.02
342, 11, 11, 410
343, 1, 1, 0.089999999999999997
343, 2, 2, 0.044999999999999998
343, 3, 3, 0.14999999999999999
343, 11, 11, 430
344, 1, 1, -0.040000000000000001
344, 2, 2, 0.11
344, 3, 3, 0.025000000000000001
344, 11, 11, 450
345, 1, 1, 0
345, 2, 2, 0
345, 3, 3, 0
345, 11, 11, 310
346, 1, 1, 0.12
346, 2, 2, 0.025000000000000001
346, 3, 3, 0.040000000000000001
346, 11, 11, 330
347, 1, 1, 0.059999999999999998
347, 2, 2, 0.10000000000000001
347, 3, 3, -0.035000000000000003
347, 11, 11, 350
348, 1, 1, -0.014999999999999999
348, 2, 2, 0.029999999999999999
348, 3, 3, 0.01
348, 11, 11, 373
349, 1, 1, 0.029999999999999999
349, 2, 2, -0.02
349, 3, 3, 0.080000000000000002
349, 11, 11, 390
350, 1, 1, 0.14000000000000001
350, 2, 2, 0.014999999999999999
350, 3, 3, 0.02
350, 11, 11, 410
351, 1, 1, 0.089999999999999997
351, 2, 2, 0.044999999999999998
351, 3, 3, 0.14999999999999999
351, 11, 11, 430
352, 1, 1, -0.040000000000000001
352, 2, 2, 0.11
352, 3, 3, 0.025000000000000001
352, 11, 11, 450
353, 1, 1, 0
353, 2, 2, 0
353, 3, 3, 0
353, 11, 11, 310
354, 1, 1, 0.12
354, 2, 2, 0.025000000000000001
354, 3, 3, 0.040000000000000001
354, 11, 11, 330
355, 1, 1, 0.059999999999999998
355, 2, 2, 0.10000000000000001
355, 3, 3, -0.035000000000000003
355, 11, 11, 350
356, 1, 1, -0.014999999999999999
356, 2, 2, 0.029999999999999999
356, 3, 3, 0.01
356, 11, 11, 370
357, 1, 1, 0.029999999999999999
357, 2, 2, -0.02
357, 3, 3, 0.080000000000000002
357, 11, 11, 393
358, 1, 1, 0.14000000000000001
358, 2, 2, 0.014999999999999999
358, 3, 3, 0.02
358, 11, 11, 410
359, 1, 1, 0.089999999999999997
359, 2, 2, 0.044999999999999998
359, 3, 3, 0.14999999999999999
359, 11, 11, 430
360, 1, 1, -0.040000000000000001
360, 2, 2, 0.11
360, 3, 3, 0.025000000000000001
360, 11, 11, 450
361, 1, 1, 0
361, 2, 2, 0
361, 3, 3, 0
361, 11, 11, 310
362, 1, 1, 0.12
362, 2, 2, 0.025000000000000001
362, 3, 3, 0.040000000000000001
362, 11, 11, 330
363, 1, 1, 0.059999999999999998
363, 2, 2, 0.10000000000000001
363, 3, 3, -0.035000000000000003
363, 11, 11, 350
364, 1, 1, -0.014999999999999999
364, 2, 2, 0.029999999999999999
364, 3, 3, 0.01
364, 11, 11, 370
365, 1, 1, 0.029999999999999999
365, 2, 2, -0.02
365, 3, 3, 0.080000000000000002
365, 11, 11, 390
366, 1, 1, 0.14000000000000001
366, 2, 2, 0.014999999999999999
366, 3, 3, 0.02
366, 11, 11, 413
367, 1, 1, 0.089999999999999997
367, 2, 2, 0.044999999999999998
367, 3, 3, 0.14999999999999999
367, 11, 11, 430
368, 1, 1, -0.040000000000000001
368, 2, 2, 0.11
368, 3, 3, 0.025000000000000001
368, 11, 11, 450
369, 1, 1, 0
369, 2, 2, 0
369, 3, 3, 0
369, 11, 11, 310
370, 1, 1, 0.12
370, 2, 2, 0.025000000000000001
370, 3, 3, 0.040000000000000001
370, 11, 11, 330
371, 1, 1, 0.059999999999999998
371, 2, 2, 0.10000000000000001
371, 3, 3, -0.035000000000000003
371, 11, 11, 350
372, 1, 1, -0.014999999999999999
372, 2, 2, 0.029999999999999999
372, 3, 3, 0.01
372, 11, 11, 370
373, 1, 1, 0.029999999999999999
373, 2, 2, -0.02
373, 3, 3, 0.080000000000000002
373, 11, 11, 390
374, 1, 1, 0.14000000000000001
374, 2, 2, 0.014999999999999999
374, 3, 3, 0.02
374, 11, 11, 410
375, 1, 1, 0.089999999999999997
375, 2, 2, 0.044999999999999998
375, 3, 3, 0.14999999999999999
375, 11, 11, 433
376, 1, 1, -0.040000000000000001
376, 2, 2, 0.11
376, 3, 3, 0.025000000000000001
376, 11, 11, 450
377, 1, 1, 0
377, 2, 2, 0
377, 3, 3, 0
377, 11, 11, 310
378, 1, 1, 0.12
378, 2, 2, 0.025000000000000001
378, 3, 3, 0.040000000000000001
378, 11, 11, 330
379, 1, 1, 0.059999999999999998
379, 2, 2, 0.10000000000000001
379, 3, 3, -0.035000000000000003
379, 11, 11, 350
380, 1, 1, -0.014999999999999999
380, 2, 2, 0.029999999999999999
380, 3, 3, 0.01
380, 11, 11, 370
381, 1, 1, 0.029999999999999999
381, 2, 2, -0.02
381, 3, 3, 0.080000000000000002
381, 11, 11, 390
382, 1, 1, 0.14000000000000001
382, 2, 2, 0.014999999999999999
382, 3, 3, 0.02
382, 11, 11, 410
383, 1, 1, 0.089999999999999997
383, 2, 2, 0.044999999999999998
383, 3, 3, 0.14999999999999999
383, 11, 11, 430
384, 1, 1, -0.040000000000000001
384, 2, 2, 0.11
384, 3, 3, 0.025000000000000001
384, 11, 11, 453
385, 1, 1, 0
385, 2, 2, 0
385, 3, 3, 0
385, 11, 11, 303
386, 1, 1, 0.12
386, 2, 2, 0.025000000000000001
386, 3, 3, 0.040000000000000001
386, 11, 11, 300
387, 1, 1, 0.059999999999999998
387, 2, 2, 0.10000000000000001
387, 3, 3, -0.035000000000000003
387, 11, 11, 300
388, 1, 1, -0.014999999999999999
388, 2, 2, 0.029999999999999999
388, 3, 3, 0.01
388, 11, 11, 300
389, 1, 1, 0.029999999999999999
389, 2, 2, -0.02
389, 3, 3, 0.080000000000000002
389, 11, 11, 300
390, 1, 1, 0.14000000000000001
390, 2, 2, 0.014999999999999999
390, 3, 3, 0.02
390, 11, 11, 300
391, 1, 1, 0.089999999999999997
391, 2, 2, 0.044999999999999998
391, 3, 3, 0.14999999999999999
391, 11, 11, 300
392, 1, 1, -0.040000000000000001
392, 2, 2, 0.11
392, 3, 3, 0.025000000000000001
392, 11, 11, 300
393, 1, 1, 0
393, 2, 2, 0
393, 3, 3, 0
393, 11, 11, 300
394, 1, 1, 0.12
394, 2, 2, 0.025000000000000001
394, 3, 3, 0.040000000000000001
394, 11, 11, 303
395, 1, 1, 0.059999999999999998
395, 2, 2, 0.10000000000000001
395, 3, 3, -0.035000000000000003
395, 11, 11, 300
396, 1, 1, -0.014999999999999999
396, 2, 2, 0.029999999999999999
396, 3, 3, 0.01
396, 11, 11, 300
397, 1, 1, 0.029999999999999999
397, 2, 2, -0.02
397, 3, 3, 0.080000000000000002
397, 11, 11, 300
398, 1, 1, 0.14000000000000001
398, 2, 2, 0.014999999999999999
398, 3, 3, 0.02
398, 11, 11, 300
399, 1, 1, 0.089999999999999997
399, 2, 2, 0.044999999999999998
399, 3, 3, 0.14999999999999999
399, 11, 11, 300
400, 1, 1, -0.040000000000000001
400, 2, 2, 0.11
400, 3, 3, 0.025000000000000001
400, 11, 11, 300
401, 1, 1, 0
401, 2, 2, 0
401, 3, 3, 0
401, 11, 11, 300
402, 1, 1, 0.12
402, 2, 2, 0.025000000000000001
402, 3, 3, 0.040000000000000001
402, 11, 11, 300
403, 1, 1, 0.059999999999999998
403, 2, 2, 0.10000000000000001
403, 3, 3, -0.035000000000000003
403, 11, 11, 303
404, 1, 1, -0.014999999999999999
404, 2, 2, 0.029999999999999999
404, 3, 3, 0.01
404, 11, 11, 300
405, 1, 1, 0.029999999999999999
405, 2, 2, -0.02
405, 3, 3, 0.080000000000000002
405, 11, 11, 300
406, 1, 1, 0.14000000000000001
406, 2, 2, 0.014999999999999999
406, 3, 3, 0.02
406, 11, 11, 300
407, 1, 1, 0.089999999999999997
407, 2, 2, 0.044999999999999998
407, 3, 3, 0.14999999999999999
407, 11, 11, 300
408, 1, 1, -0.040000000000000001
408, 2, 2, 0.11
408, 3, 3, 0.025000000000000001
408, 11, 11, 300
409, 1, 1, 0
409, 2, 2, 0
409, 3, 3, 0
409, 11, 11, 300
410, 1, 1, 0.12
410, 2, 2, 0.025000000000000001
410, 3, 3, 0.040000000000000001
410, 11, 11, 300
411, 1, 1, 0.059999999999999998
411, 2, 2, 0.10000000000000001
411, 3, 3, -0.035000000000000003
411, 11, 11, 300
412, 1, 1, -0.014999999999999999
412, 2, 2, 0.029999999999999999
412, 3, 3, 0.01
412, 11, 11, 303
413, 1, 1, 0.029999999999999999
413, 2, 2, -0.02
413, 3, 3, 0.080000000000000002
413, 11, 11, 300
414, 1, 1, 0.14000000000000001
414, 2, 2, 0.014999999999999999
414, 3, 3, 0.02
414, 11, 11, 300
415, 1, 1, 0.089999999999999997
415, 2, 2, 0.044999999999999998
415, 3, 3, 0.14999999999999999
415, 11, 11, 300
416, 1, 1, -0.040000000000000001
416, 2, 2, 0.11
416, 3, 3, 0.025000000000000001
416, 11, 11, 300
417, 1, 1, 0
417, 2, 2, 0
417, 3, 3, 0
417, 11, 11, 300
418, 1, 1, 0.12
418, 2, 2, 0.025000000000000001
418, 3, 3, 0.040000000000000001
418, 11, 11, 300
419, 1, 1, 0.059999999999999998
419, 2, 2, 0.10000000000000001
419, 3, 3, -0.035000000000000003
419, 11, 11, 300
420, 1, 1, -0.014999999999999999
420, 2, 2, 0.029999999999999999
420, 3, 3, 0.01
420, 11, 11, 300
421, 1, 1, 0.029999999999999999
421, 2, 2, -0.02
421, 3, 3, 0.080000000000000002
421, 11, 11, 303
422, 1, 1, 0.14000000000000001
422, 2, 2, 0.014999999999999999
422, 3, 3, 0.02
422, 11, 11, 300
423, 1, 1, 0.089999999999999997
423, 2, 2, 0.044999999999999998
423, 3, 3, 0.14999999999999999
423, 11, 11, 300
424, 1, 1, -0.040000000000000001
424, 2, 2, 0.11
424, 3, 3, 0.025000000000000001
424, 11, 11, 300
425, 1, 1, 0
425, 2, 2, 0
425, 3, 3, 0
425, 11, 11, 300
426, 1, 1, 0.12
426, 2, 2, 0.025000000000000001
426, 3, 3, 0.040000000000000001
426, 11, 11, 300
427, 1, 1, 0.059999999999999998
427, 2, 2, 0.10000000000000001
427, 3, 3, -0.035000000000000003
427, 11, 11, 300
428, 1, 1, -0.014999999999999999
428, 2, 2, 0.029999999999999999
428, 3, 3, 0.01
428, 11, 11, 300
429, 1, 1, 0.029999999999999999
429, 2, 2, -0.02
429, 3, 3, 0.080000000000000002
429, 11, 11, 300
430, 1, 1, 0.14000000000000001
430, 2, 2, 0.014999999999999999
430, 3, 3, 0.02
430, 11, 11, 303
431, 1, 1, 0.089999999999999997
431, 2, 2, 0.044999999999999998
431, 3, 3, 0.14999999999999999
431, 11, 11, 300
432, 1, 1, -0.040000000000000001
432, 2, 2, 0.11
432, 3, 3, 0.025000000000000001
432, 11, 11, 300
433, 1, 1, 0
433, 2, 2, 0
433, 3, 3, 0
433, 11, 11, 300
434, 1, 1, 0.12
434, 2, 2, 0.025000000000000001
434, 3, 3, 0.040000000000000001
434, 11, 11, 300
435, 1, 1, 0.059999999999999998
435, 2, 2, 0.10000000000000001
435, 3, 3, -0.035000000000000003
435, 11, 11, 300
436, 1, 1, -0.014999999999999999
436, 2, 2, 0.029999999999999999
436, 3, 3, 0.01
436, 11, 11, 300
437, 1, 1, 0.029999999999999999
437, 2, 2, -0.02
437, 3, 3, 0.080000000000000002
437, 11, 11, 300
438, 1, 1, 0.14000000000000001
438, 2, 2, 0.014999999999999999
438, 3, 3, 0.02
438, 11, 11, 300
439, 1, 1, 0.089999999999999997
439, 2, 2, 0.044999999999999998
439, 3, 3, 0.14999999999999999
439, 11, 11, 303
440, 1, 1, -0.040000000000000001
440, 2, 2, 0.11
440, 3, 3, 0.025000000000000001
440, 11, 11, 300
441, 1, 1, 0
441, 2, 2, 0
441, 3, 3, 0
441, 11, 11, 300
442, 1, 1, 0.12
442, 2, 2, 0.025000000000000001
442, 3, 3, 0.040000000000000001
442, 11, 11, 300
443, 1, 1, 0.059999999999999998
443, 2, 2, 0.10000000000000001
443, 3, 3, -0.035000000000000003
443, 11, 11, 300
444, 1, 1, -0.014999999999999999
444, 2, 2, 0.029999999999999999
444, 3, 3, 0.01
444, 11, 11, 300
445, 1, 1, 0.029999999999999999
445, 2, 2, -0.02
445, 3, 3, 0.080000000000000002
445, 11, 11, 300
446, 1, 1, 0.14000000000000001
446, 2, 2, 0.014999999999999999
446, 3, 3, 0.02
446, 11, 11, 300
447, 1, 1, 0.089999999999999997
447, 2, 2, 0.044999999999999998
447, 3, 3, 0.14999999999999999
447, 11, 11, 300
448, 1, 1, -0.040000000000000001
448, 2, 2, 0.11
448, 3, 3, 0.025000000000000001
448, 11, 11, 303
449, 1, 1, 0
449, 2, 2, 0
449, 3, 3, 0
449, 11, 11, 313
450, 1, 1, 0.12
450, 2, 2, 0.025000000000000001
450, 3, 3, 0.040000000000000001
450, 11, 11, 330
451, 1, 1, 0.059999999999999998
451, 2, 2, 0.10000000000000001
451, 3, 3, -0.035000000000000003
451, 11, 11, 350
452, 1, 1, -0.014999999999999999
452, 2, 2, 0.029999999999999999
452, 3, 3, 0.01
452, 11, 11, 370
453, 1, 1, 0.029999999999999999
453, 2, 2, -0.02
453, 3, 3, 0.080000000000000002
453, 11, 11, 390
454, 1, 1, 0.14000000000000001
454, 2, 2, 0.014999999999999999
454, 3, 3, 0.02
454, 11, 11, 410
455, 1, 1, 0.089999999999999997
455, 2, 2, 0.044999999999999998
455, 3, 3, 0.14999999999999999
455, 11, 11, 430
456, 1, 1, -0.040000000000000001
456, 2, 2, 0.11
456, 3, 3, 0.025000000000000001
456, 11, 11, 450
457, 1, 1, 0
457, 2, 2, 0
457, 3, 3, 0
457, 11, 11, 310
458, 1, 1, 0.12
458, 2, 2, 0.025000000000000001
458, 3, 3, 0.040000000000000001
458, 11, 11, 333
459, 1, 1, 0.059999999999999998
459, 2, 2, 0.10000000000000001
459, 3, 3, -0.035000000000000003
459, 11, 11, 350
460, 1, 1, -0.014999999999999999
460, 2, 2, 0.029999999999999999
460, 3, 3, 0.01
460, 11, 11, 370
461, 1, 1, 0.029999999999999999
461, 2, 2, -0.02
461, 3, 3, 0.080000000000000002
461, 11, 11, 390
462, 1, 1, 0.14000000000000001
462, 2, 2, 0.014999999999999999
462, 3, 3, 0.02
462, 11, 11, 410
463, 1, 1, 0.089999999999999997
463, 2, 2, 0.044999999999999998
463, 3, 3, 0.14999999999999999
463, 11, 11, 430
464, 1, 1, -0.040000000000000001
464, 2, 2, 0.11
464, 3, 3, 0.025000000000000001
464, 11, 11, 450
465, 1, 1, 0
465, 2, 2, 0
465, 3, 3, 0
465, 11, 11, 310
466, 1, 1, 0.12
466, 2, 2, 0.025000000000000001
466, 3, 3, 0.040000000000000001
466, 11, 11, 330
467, 1, 1, 0.059999999999999998
467, 2, 2, 0.10000000000000001
467, 3, 3, -0.035000000000000003
467, 11, 11, 353
468, 1, 1, -0.014999999999999999
468, 2, 2, 0.029999999999999999
468, 3, 3, 0.01
468, 11, 11, 370
469, 1, 1, 0.029999999999999999
469, 2, 2, -0.02
469, 3, 3, 0.080000000000000002
469, 11, 11, 390
470, 1, 1, 0.14000000000000001
470, 2, 2, 0.014999999999999999
470, 3, 3, 0.02
470, 11, 11, 410
471, 1, 1, 0.089999999999999997
471, 2, 2, 0.044999999999999998
471, 3, 3, 0.14999999999999999
471, 11, 11, 430
472, 1, 1, -0.040000000000000001
472, 2, 2, 0.11
472, 3, 3, 0.025000000000000001
472, 11, 11, 450
473, 1, 1, 0
473, 2, 2, 0
473, 3, 3, 0
473, 11, 11, 310
474, 1, 1, 0.12
474, 2, 2, 0.025000000000000001
474, 3, 3, 0.040000000000000001
474, 11, 11, 330
475, 1, 1, 0.059999999999999998
475, 2, 2, 0.10000000000000001
475, 3, 3, -0.035000000000000003
475, 11, 11, 350
476, 1, 1, -0.014999999999999999
476, 2, 2, 0.029999999999999999
476, 3, 3, 0.01
476, 11, 11, 373
477, 1, 1, 0.029999999999999999
477, 2, 2, -0.02
477, 3, 3, 0.080000000000000002
477, 11, 11, 390
478, 1, 1, 0.14000000000000001
478, 2, 2, 0.014999999999999999
478, 3, 3, 0.02
478, 11, 11, 410
479, 1, 1, 0.089999999999999997
479, 2, 2, 0.044999999999999998
479, 3, 3, 0.14999999999999999
479, 11, 11, 430
480, 1, 1, -0.040000000000000001
480, 2, 2, 0.11
480, 3, 3, 0.025000000000000001
480, 11, 11, 450
481, 1, 1, 0
481, 2, 2, 0
481, 3, 3, 0
481, 11, 11, 310
482, 1, 1, 0.12
482, 2, 2, 0.025000000000000001
482, 3, 3, 0.040000000000000001
482, 11, 11, 330
483, 1, 1, 0.059999999999999998
483, 2, 2, 0.10000000000000001
483, 3, 3, -0.035000000000000003
483, 11, 11, 350
484, 1, 1, -0.014999999999999999
484, 2, 2, 0.029999999999999999
484, 3, 3, 0.01
484, 11, 11, 370
485, 1, 1, 0.029999999999999999
485, 2, 2, -0.02
485, 3, 3, 0.080000000000000002
485, 11, 11, 393
486, 1, 1, 0.14000000000000001
486, 2, 2, 0.014999999999999999
486, 3, 3, 0.02
486, 11, 11, 410
487, 1, 1, 0.089999999999999997
487, 2, 2, 0.044999999999999998
487, 3, 3, 0.14999999999999999
487, 11, 11, 430
488, 1, 1, -0.040000000000000001
488, 2, 2, 0.11
488, 3, 3, 0.025000000000000001
488, 11, 11, 450
489, 1, 1, 0
489, 2, 2, 0
489, 3, 3, 0
489, 11, 11, 310
490, 1, 1, 0.12
490, 2, 2, 0.025000000000000001
490, 3, 3, 0.040000000000000001
490, 11, 11, 330
491, 1, 1, 0.059999999999999998
491, 2, 2, 0.10000000000000001
491, 3, 3, -0.035000000000000003
491, 11, 11, 350
492, 1, 1, -0.014999999999999999
492, 2, 2, 0.029999999999999999
492, 3, 3, 0.01
492, 11, 11, 370
493, 1, 1, 0.029999999999999999
493, 2, 2, -0.02
493, 3, 3, 0.080000000000000002
493, 11, 11, 390
494, 1, 1, 0.14000000000000001
494, 2, 2, 0.014999999999999999
494, 3, 3, 0.02
494, 11, 11, 413
495, 1, 1, 0.089999999999999997
495, 2, 2, 0.044999999999999998
495, 3, 3, 0.14999999999999999
495, 11, 11, 430
496, 1, 1, -0.040000000000000001
496, 2, 2, 0.11
496, 3, 3, 0.025000000000000001
496, 11, 11, 450
497, 1, 1, 0
497, 2, 2, 0
497, 3, 3, 0
497, 11, 11, 310
498, 1, 1, 0.12
498, 2, 2, 0.025000000000000001
498, 3, 3, 0.040000000000000001
498, 11, 11, 330
499, 1, 1, 0.059999999999999998
499, 2, 2, 0.10000000000000001
499, 3, 3, -0.035000000000000003
499, 11, 11, 350
500, 1, 1, -0.014999999999999999
500, 2, 2, 0.029999999999999999
500, 3, 3, 0.01
500, 11, 11, 370
501, 1, 1, 0.029999999999999999
501, 2, 2, -0.02
501, 3, 3, 0.080000000000000002
501, 11, 11, 390
502, 1, 1, 0.14000000000000001
502, 2, 2, 0.014999999999999999
502, 3, 3, 0.02
502, 11, 11, 410
503, 1, 1, 0.089999999999999997
503, 2, 2, 0.044999999999999998
503, 3, 3, 0.14999999999999999
503, 11, 11, 433
504, 1, 1, -0.040000000000000001
504, 2, 2, 0.11
504, 3, 3, 0.025000000000000001
504, 11, 11, 450
505, 1, 1, 0
505, 2, 2, 0
505, 3, 3, 0
505, 11, 11, 310
506, 1, 1, 0.12
506, 2, 2, 0.025000000000000001
506, 3, 3, 0.040000000000000001
506, 11, 11, 330
507, 1, 1, 0.059999999999999998
507, 2, 2, 0.10000000000000001
507, 3, 3, -0.035000000000000003
507, 11, 11, 350
508, 1, 1, -0.014999999999999999
508, 2, 2, 0.029999999999999999
508, 3, 3, 0.01
508, 11, 11, 370
509, 1, 1, 0.029999999999999999
509, 2, 2, -0.02
509, 3, 3, 0.080000000000000002
509, 11, 11, 390
510, 1, 1, 0.14000000000000001
510, 2, 2, 0.014999999999999999
510, 3, 3, 0.02
510, 11, 11, 410
511, 1, 1, 0.089999999999999997
511, 2, 2, 0.044999999999999998
511, 3, 3, 0.14999999999999999
511, 11, 11, 430
512, 1, 1, -0.040000000000000001
512, 2, 2, 0.11
512, 3, 3, 0.025000000000000001
512, 11, 11, 453
513, 1, 1, 0
513, 2, 2, 0
513, 3, 3, 0
513, 11, 11, 313
514, 1, 1, 0.12
514, 2, 2, 0.025000000000000001
514, 3, 3, 0.040000000000000001
514, 11, 11, 330
515, 1, 1, 0.059999999999999998
515, 2, 2, 0.10000000000000001
515, 3, 3, -0.035000000000000003
515, 11, 11, 350
516, 1, 1, -0.014999999999999999
516, 2, 2, 0.029999999999999999
516, 3, 3, 0.01
516, 11, 11, 370
517, 1, 1, 0.029999999999999999
517, 2, 2, -0.02
517, 3, 3, 0.080000000000000002
517, 11, 11, 390
518, 1, 1, 0.14000000000000001
518, 2, 2, 0.014999999999999999
518, 3, 3, 0.02
518, 11, 11, 410
519, 1, 1, 0.089999999999999997
519, 2, 2, 0.044999999999999998
519, 3, 3, 0.14999999999999999
519, 11, 11, 430
520, 1, 1, -0.040000000000000001
520, 2, 2, 0.11
520, 3, 3, 0.025000000000000001
520, 11, 11, 450
521, 1, 1, 0
521, 2, 2, 0
521, 3, 3, 0
521, 11, 11, 310
522, 1, 1, 0.12
522, 2, 2, 0.025000000000000001
522, 3, 3, 0.040000000000000001
522, 11, 11, 333
523, 1, 1, 0.059999999999999998
523, 2, 2, 0.10000000000000001
523, 3, 3, -0.035000000000000003
523, 11, 11, 350
524, 1, 1, -0.014999999999999999
524, 2, 2, 0.029999999999999999
524, 3, 3, 0.01
524, 11, 11, 370
525, 1, 1, 0.029999999999999999
525, 2, 2, -0.02
525, 3, 3, 0.080000000000000002
525, 11, 11, 390
526, 1, 1, 0.14000000000000001
526, 2, 2, 0.014999999999999999
526, 3, 3, 0.02
526, 11, 11, 410
527, 1, 1, 0.089999999999999997
527, 2, 2, 0.044999999999999998
527, 3, 3, 0.14999999999999999
527, 11, 11, 430
528, 1, 1, -0.040000000000000001
528, 2, 2, 0.11
528, 3, 3, 0.025000000000000001
528, 11, 11, 450
529, 1, 1, 0
529, 2, 2, 0
529, 3, 3, 0
529, 11, 11, 310
530, 1, 1, 0.12
530, 2, 2, 0.025000000000000001
530, 3, 3, 0.040000000000000001
530, 11, 11, 330
531, 1, 1, 0.059999999999999998
531, 2, 2, 0.10000000000000001
531, 3, 3, -0.035000000000000003
531, 11, 11, 353
532, 1, 1, -0.014999999999999999
532, 2, 2, 0.029999999999999999
532, 3, 3, 0.01
532, 11, 11, 370
533, 1, 1, 0.029999999999999999
533, 2, 2, -0.02
533, 3, 3, 0.080000000000000002
533, 11, 11, 390
534, 1, 1, 0.14000000000000001
534, 2, 2, 0.014999999999999999
534, 3, 3, 0.02
534, 11, 11, 410
535, 1, 1, 0.089999999999999997
535, 2, 2, 0.044999999999999998
535, 3, 3, 0.14999999999999999
535, 11, 11, 430
536, 1, 1, -0.040000000000000001
536, 2, 2, 0.11
536, 3, 3, 0.025000000000000001
536, 11, 11, 450
537, 1, 1, 0
537, 2, 2, 0
537, 3, 3, 0
537, 11, 11, 310
538, 1, 1, 0.12
538, 2, 2, 0.025000000000000001
538, 3, 3, 0.040000000000000001
538, 11, 11, 330
539, 1, 1, 0.059999999999999998
539, 2, 2, 0.10000000000000001
539, 3, 3, -0.035000000000000003
539, 11, 11, 350
540, 1, 1, -0.014999999999999999
540, 2, 2, 0.029999999999999999
540, 3, 3, 0.01
540, 11, 11, 373
541, 1, 1, 0.029999999999999999
541, 2, 2, -0.02
541, 3, 3, 0.080000000000000002
541, 11, 11, 390
542, 1, 1, 0.14000000000000001
542, 2, 2, 0.014999999999999999
542, 3, 3, 0.02
542, 11, 11, 410
543, 1, 1, 0.089999999999999997
543, 2, 2, 0.044999999999999998
543, 3, 3, 0.14999999999999999
543, 11, 11, 430
544, 1, 1, -0.040000000000000001
544, 2, 2, 0.11
544, 3, 3, 0.025000000000000001
544, 11, 11, 450
545, 1, 1, 0
545, 2, 2, 0
545, 3, 3, 0
545, 11, 11, 310
546, 1, 1, 0.12
546, 2, 2, 0.025000000000000001
546, 3, 3, 0.040000000000000001
546, 11, 11, 330
547, 1, 1, 0.059999999999999998
547, 2, 2, 0.10000000000000001
547, 3, 3, -0.035000000000000003
547, 11, 11, 350
548, 1, 1, -0.014999999999999999
548, 2, 2, 0.029999999999999999
548, 3, 3, 0.01
548, 11, 11, 370
549, 1, 1, 0.029999999999999999
549, 2, 2, -0.02
549, 3, 3, 0.080000000000000002
549, 11, 11, 393
550, 1, 1, 0.14000000000000001
550, 2, 2, 0.014999999999999999
550, 3, 3, 0.02
550, 11, 11, 410
551, 1, 1, 0.089999999999999997
551, 2, 2, 0.044999999999999998
551, 3, 3, 0.14999999999999999
551, 11, 11, 430
552, 1, 1, -0.040000000000000001
552, 2, 2, 0.11
552, 3, 3, 0.025000000000000001
552, 11, 11, 450
553, 1, 1, 0
553, 2, 2, 0
553, 3, 3, 0
553, 11, 11, 310
554, 1, 1, 0.12
554, 2, 2, 0.025000000000000001
554, 3, 3, 0.040000000000000001
554, 11, 11, 330
555, 1, 1, 0.059999999999999998
555, 2, 2, 0.10000000000000001
555, 3, 3, -0.035000000000000003
555, 11, 11, 350
556, 1, 1, -0.014999999999999999
556, 2, 2, 0.029999999999999999
556, 3, 3, 0.01
556, 11, 11, 370
557, 1, 1, 0.029999999999999999
557, 2, 2, -0.02
557, 3, 3, 0.080000000000000002
557, 11, 11, 390
558, 1, 1, 0.14000000000000001
558, 2, 2, 0.014999999999999999
558, 3, 3, 0.02
558, 11, 11, 413
559, 1, 1, 0.089999999999999997
559, 2, 2, 0.044999999999999998
559, 3, 3, 0.14999999999999999
559, 11, 11, 430
560, 1, 1, -0.040000000000000001
560, 2, 2, 0.11
560, 3, 3, 0.025000000000000001
560, 11, 11, 450
561, 1, 1, 0
561, 2, 2, 0
561, 3, 3, 0
561, 11, 11, 310
562, 1, 1, 0.12
562, 2, 2, 0.025000000000000001
562, 3, 3, 0.040000000000000001
562, 11, 11, 330
563, 1, 1, 0.059999999999999998
563, 2, 2, 0.10000000000000001
563, 3, 3, -0.035000000000000003
563, 11, 11, 350
564, 1, 1, -0.014999999999999999
564, 2, 2, 0.029999999999999999
564, 3, 3, 0.01
564, 11, 11, 370
565, 1, 1, 0.029999999999999999
565, 2, 2, -0.02
565, 3, 3, 0.080000000000000002
565, 11, 11, 390
566, 1, 1, 0.14000000000000001
566, 2, 2, 0.014999999999999999
566, 3, 3, 0.02
566, 11, 11, 410
567, 1, 1, 0.089999999999999997
567, 2, 2, 0.044999999999999998
567, 3, 3, 0.14999999999999999
567, 11, 11, 433
568, 1, 1, -0.040000000000000001
568, 2, 2, 0.11
568, 3, 3, 0.025000000000000001
568, 11, 11, 450
569, 1, 1, 0
569, 2, 2, 0
569, 3, 3, 0
569, 11, 11, 310
570, 1, 1, 0.12
570, 2, 2, 0.025000000000000001
570, 3, 3, 0.040000000000000001
570, 11, 11, 330
571, 1, 1, 0.059999999999999998
571, 2, 2, 0.10000000000000001
571, 3, 3, -0.035000000000000003
571, 11, 11, 350
572, 1, 1, -0.014999999999999999
572, 2, 2, 0.029999999999999999
572, 3, 3, 0.01
572, 11, 11, 370
573, 1, 1, 0.029999999999999999
573, 2, 2, -0.02
573, 3, 3, 0.080000000000000002
573, 11, 11, 390
574, 1, 1, 0.14000000000000001
574, 2, 2, 0.014999999999999999
574, 3, 3, 0.02
574, 11, 11, 410
575, 1, 1, 0.089999999999999997
575, 2, 2, 0.044999999999999998
575, 3, 3, 0.14999999999999999
575, 11, 11, 430
576, 1, 1, -0.040000000000000001
576, 2, 2, 0.11
576, 3, 3, 0.025000000000000001
576, 11, 11, 453
577, 1, 1, 0
577, 2, 2, 0
577, 3, 3, 0
577, 11, 11, 303
578, 1, 1, 0.12
578, 2, 2, 0.025000000000000001
578, 3, 3, 0.040000000000000001
578, 11, 11, 300
579, 1, 1, 0.059999999999999998
579, 2, 2, 0.10000000000000001
579, 3, 3, -0.035000000000000003
579, 11, 11, 300
580, 1, 1, -0.014999999999999999
580, 2, 2, 0.029999999999999999
580, 3, 3, 0.01
580, 11, 11, 300
581, 1, 1, 0.029999999999999999
581, 2, 2, -0.02
581, 3, 3, 0.080000000000000002
581, 11, 11, 300
582, 1, 1, 0.14000000000000001
582, 2, 2, 0.014999999999999999
582, 3, 3, 0.02
582, 11, 11, 300
583, 1, 1, 0.089999999999999997
583, 2, 2, 0.044999999999999998
583, 3, 3, 0.14999999999999999
583, 11, 11, 300
584, 1, 1, -0.040000000000000001
584, 2, 2, 0.11
584, 3, 3, 0.025000000000000001
584, 11, 11, 300
585, 1, 1, 0
585, 2, 2, 0
585, 3, 3, 0
585, 11, 11, 300
586, 1, 1, 0.12
586, 2, 2, 0.025000000000000001
586, 3, 3, 0.040000000000000001
586, 11, 11, 303
587, 1, 1, 0.059999999999999998
587, 2, 2, 0.10000000000000001
587, 3, 3, -0.035000000000000003
587, 11, 11, 300
588, 1, 1, -0.014999999999999999
588, 2, 2, 0.029999999999999999
588, 3, 3, 0.01
588, 11, 11, 300
589, 1, 1, 0.029999999999999999
589, 2, 2, -0.02
589, 3, 3, 0.080000000000000002
589, 11, 11, 300
590, 1, 1, 0.14000000000000001
590, 2, 2, 0.014999999999999999
590, 3, 3, 0.02
590, 11, 11, 300
591, 1, 1, 0.089999999999999997
591, 2, 2, 0.044999999999999998
591, 3, 3, 0.14999999999999999
591, 11, 11, 300
592, 1, 1, -0.040000000000000001
592, 2, 2, 0.11
592, 3, 3, 0.025000000000000001
592, 11, 11, 300
593, 1, 1, 0
593, 2, 2, 0
593, 3, 3, 0
593, 11, 11, 300
594, 1, 1, 0.12
594, 2, 2, 0.025000000000000001
594, 3, 3, 0.040000000000000001
594, 11, 11, 300
595, 1, 1, 0.059999999999999998
595, 2, 2, 0.10000000000000001
595, 3, 3, -0.035000000000000003
595, 11, 11, 303
596, 1, 1, -0.014999999999999999
596, 2, 2, 0.029999999999999999
596, 3, 3, 0.01
596, 11, 11, 300
597, 1, 1, 0.029999999999999999
597, 2, 2, -0.02
597, 3, 3, 0.080000000000000002
597, 11, 11, 300
598, 1, 1, 0.14000000000000001
598, 2, 2, 0.014999999999999999
598, 3, 3, 0.02
598, 11, 11, 300
599, 1, 1, 0.089999999999999997
599, 2, 2, 0.044999999999999998
599, 3, 3, 0.14999999999999999
599, 11, 11, 300
600, 1, 1, -0.040000000000000001
600, 2, 2, 0.11
600, 3, 3, 0.025000000000000001
600, 11, 11, 300
601, 1, 1, 0
601, 2, 2, 0
601, 3, 3, 0
601, 11, 11, 300
602, 1, 1, 0.12
602, 2, 2, 0.025000000000000001
602, 3, 3, 0.040000000000000001
602, 11, 11, 300
603, 1, 1, 0.059999999999999998
603, 2, 2, 0.10000000000000001
603, 3, 3, -0.035000000000000003
603, 11, 11, 300
604, 1, 1, -0.014999999999999999
604, 2, 2, 0.029999999999999999
604, 3, 3, 0.01
604, 11, 11, 303
605, 1, 1, 0.029999999999999999
605, 2, 2, -0.02
605, 3, 3, 0.080000000000000002
605, 11, 11, 300
606, 1, 1, 0.14000000000000001
606, 2, 2, 0.014999999999999999
606, 3, 3, 0.02
606, 11, 11, 300
607, 1, 1, 0.089999999999999997
607, 2, 2, 0.044999999999999998
607, 3, 3, 0.14999999999999999
607, 11, 11, 300
608, 1, 1, -0.040000000000000001
608, 2, 2, 0.11
608, 3, 3, 0.025000000000000001
608, 11, 11, 300
609, 1, 1, 0
609, 2, 2, 0
609, 3, 3, 0
609, 11, 11, 300
610, 1, 1, 0.12
610, 2, 2, 0.025000000000000001
610, 3, 3, 0.040000000000000001
610, 11, 11, 300
611, 1, 1, 0.059999999999999998
611, 2, 2, 0.10000000000000001
611, 3, 3, -0.035000000000000003
611, 11, 11, 300
612, 1, 1, -0.014999999999999999
612, 2, 2, 0.029999999999999999
612, 3, 3, 0.01
612, 11, 11, 300
613, 1, 1, 0.029999999999999999
613, 2, 2, -0.02
613, 3, 3, 0.080000000000000002
613, 11, 11, 303
614, 1, 1, 0.14000000000000001
614, 2, 2, 0.014999999999999999
614, 3, 3, 0.02
614, 11, 11, 300
615, 1, 1, 0.089999999999999997
615, 2, 2, 0.044999999999999998
615, 3, 3, 0.14999999999999999
615, 11, 11, 300
616, 1, 1, -0.040000000000000001
616, 2, 2, 0.11
616, 3, 3, 0.025000000000000001
616, 11, 11, 300
617, 1, 1, 0
617, 2, 2, 0
617, 3, 3, 0
617, 11, 11, 300
618, 1, 1, 0.12
618, 2, 2, 0.025000000000000001
618, 3, 3, 0.040000000000000001
618, 11, 11, 300
619, 1, 1, 0.059999999999999998
619, 2, 2, 0.10000000000000001
619, 3, 3, -0.035000000000000003
619, 11, 11, 300
620, 1, 1, -0.014999999999999999
620, 2, 2, 0.029999999999999999
620, 3, 3, 0.01
620, 11, 11, 300
621, 1, 1, 0.029999999999999999
621, 2, 2, -0.02
621, 3, 3, 0.080000000000000002
621, 11, 11, 300
622, 1, 1, 0.14000000000000001
622, 2, 2, 0.014999999999999999
622, 3, 3, 0.02
622, 11, 11, 303
623, 1, 1, 0.089999999999999997
623, 2, 2, 0.044999999999999998
623, 3, 3, 0.14999999999999999
623, 11, 11, 300
624, 1, 1, -0.040000000000000001
624, 2, 2, 0.11
624, 3, 3, 0.025000000000000001
624, 11, 11, 300
625, 1, 1, 0
625, 2, 2, 0
625, 3, 3, 0
625, 11, 11, 300
626, 1, 1, 0.12
626, 2, 2, 0.025000000000000001
626, 3, 3, 0.040000000000000001
626, 11, 11, 300
627, 1, 1, 0.059999999999999998
627, 2, 2, 0.10000000000000001
627, 3, 3, -0.035000000000000003
627, 11, 11, 300
628, 1, 1, -0.014999999999999999
628, 2, 2, 0.029999999999999999
628, 3, 3, 0.01
628, 11, 11, 300
629, 1, 1, 0.029999999999999999
629, 2, 2, -0.02
629, 3, 3, 0.080000000000000002
629, 11, 11, 300
630, 1, 1, 0.14000000000000001
630, 2, 2, 0.014999999999999999
630, 3, 3, 0.02
630, 11, 11, 300
631, 1, 1, 0.089999999999999997
631, 2, 2, 0.044999999999999998
631, 3, 3, 0.14999999999999999
631, 11, 11, 303
632, 1, 1, -0.040000000000000001
632, 2, 2, 0.11
632, 3, 3, 0.025000000000000001
632, 11, 11, 300
633, 1, 1, 0
633, 2, 2, 0
633, 3, 3, 0
633, 11, 11, 300
634, 1, 1, 0.12
634, 2, 2, 0.025000000000000001
634, 3, 3, 0.040000000000000001
634, 11, 11, 300
635, 1, 1, 0.059999999999999998
635, 2, 2, 0.10000000000000001
635, 3, 3, -0.035000000000000003
635, 11, 11, 300
636, 1, 1, -0.014999999999999999
636, 2, 2, 0.029999999999999999
636, 3, 3, 0.01
636, 11, 11, 300
637, 1, 1, 0.029999999999999999
637, 2, 2, -0.02
637, 3, 3, 0.080000000000000002
637, 11, 11, 300
638, 1, 1, 0.14000000000000001
638, 2, 2, 0.014999999999999999
638, 3, 3, 0.02
638, 11, 11, 300
639, 1, 1, 0.089999999999999997
639, 2, 2, 0.044999999999999998
639, 3, 3, 0.14999999999999999
639, 11, 11, 300
640, 1, 1, -0.040000000000000001
640, 2, 2, 0.11
640, 3, 3, 0.025000000000000001
640, 11, 11, 303
641, 1, 1, 0
641, 2, 2, 0
641, 3, 3, 0
641, 11, 11, 313
642, 1, 1, 0.12
642, 2, 2, 0.025000000000000001
642, 3, 3, 0.040000000000000001
642, 11, 11, 330
643, 1, 1, 0.059999999999999998
643, 2, 2, 0.10000000000000001
643, 3, 3, -0.035000000000000003
643, 11, 11, 350
644, 1, 1, -0.014999999999999999
644, 2, 2, 0.029999999999999999
644, 3, 3, 0.01
644, 11, 11, 370
645, 1, 1, 0.029999999999999999
645, 2, 2, -0.02
645, 3, 3, 0.080000000000000002
645, 11, 11, 390
646, 1, 1, 0.14000000000000001
646, 2, 2, 0.014999999999999999
646, 3, 3, 0.02
646, 11, 11, 410
647, 1, 1, 0.089999999999999997
647, 2, 2, 0.044999999999999998
647, 3, 3, 0.14999999999999999
647, 11, 11, 430
648, 1, 1, -0.040000000000000001
648, 2, 2, 0.11
648, 3, 3, 0.025000000000000001
648, 11, 11, 450
649, 1, 1, 0
649, 2, 2, 0
649, 3, 3, 0
649, 11, 11, 310
650, 1, 1, 0.12
650, 2, 2, 0.025000000000000001
650, 3, 3, 0.040000000000000001
650, 11, 11, 333
651, 1, 1, 0.059999999999999998
651, 2, 2, 0.10000000000000001
651, 3, 3, -0.035000000000000003
651, 11, 11, 350
652, 1, 1, -0.014999999999999999
652, 2, 2, 0.029999999999999999
652, 3, 3, 0.01
652, 11, 11, 370
653, 1, 1, 0.029999999999999999
653, 2, 2, -0.02
653, 3, 3, 0.080000000000000002
653, 11, 11, 390
654, 1, 1, 0.14000000000000001
654, 2, 2, 0.014999999999999999
654, 3, 3, 0.02
654, 11, 11, 410
655, 1, 1, 0.089999999999999997
655, 2, 2, 0.044999999999999998
655, 3, 3, 0.14999999999999999
655, 11, 11, 430
656, 1, 1, -0.040000000000000001
656, 2, 2, 0.11
656, 3, 3, 0.025000000000000001
656, 11, 11, 450
657, 1, 1, 0
657, 2, 2, 0
657, 3, 3, 0
657, 11, 11, 310
658, 1, 1, 0.12
658, 2, 2, 0.025000000000000001
658, 3, 3, 0.040000000000000001
658, 11, 11, 330
659, 1, 1, 0.059999999999999998
659, 2, 2, 0.10000000000000001
659, 3, 3, -0.035000000000000003
659, 11, 11, 353
660, 1, 1, -0.014999999999999999
660, 2, 2, 0.029999999999999999
660, 3, 3, 0.01
660, 11, 11, 370
661, 1, 1, 0.029999999999999999
661, 2, 2, -0.02
661, 3, 3, 0.080000000000000002
661, 11, 11, 390
662, 1, 1, 0.14000000000000001
662, 2, 2, 0.014999999999999999
662, 3, 3, 0.02
662, 11, 11, 410
663, 1, 1, 0.089999999999999997
663, 2, 2, 0.044999999999999998
663, 3, 3, 0.14999999999999999
663, 11, 11, 430
664, 1, 1, -0.040000000000000001
664, 2, 2, 0.11
664, 3, 3, 0.025000000000000001
664, 11, 11, 450
665, 1, 1, 0
665, 2, 2, 0
665, 3, 3, 0
665, 11, 11, 310
666, 1, 1, 0.12
666, 2, 2, 0.025000000000000001
666, 3, 3, 0.040000000000000001
666, 11, 11, 330
667, 1, 1, 0.059999999999999998
667, 2, 2, 0.10000000000000001
667, 3, 3, -0.035000000000000003
667, 11, 11, 350
668, 1, 1, -0.014999999999999999
668, 2, 2, 0.029999999999999999
668, 3, 3, 0.01
668, 11, 11, 373
669, 1, 1, 0.029999999999999999
669, 2, 2, -0.02
669, 3, 3, 0.080000000000000002
669, 11, 11, 390
670, 1, 1, 0.14000000000000001
670, 2, 2, 0.014999999999999999
670, 3, 3, 0.02
670, 11, 11, 410
671, 1, 1, 0.089999999999999997
671, 2, 2, 0.044999999999999998
671, 3, 3, 0.14999999999999999
671, 11, 11, 430
672, 1, 1, -0.040000000000000001
672, 2, 2, 0.11
672, 3, 3, 0.025000000000000001
672, 11, 11, 450
673, 1, 1, 0
673, 2, 2, 0
673, 3, 3, 0
673, 11, 11, 310
674, 1, 1, 0.12
674, 2, 2, 0.025000000000000001
674, 3, 3, 0.040000000000000001
674, 11, 11, 330
675, 1, 1, 0.059999999999999998
675, 2, 2, 0.10000000000000001
675, 3, 3, -0.035000000000000003
675, 11, 11, 350
676, 1, 1, -0.014999999999999999
676, 2, 2, 0.029999999999999999
676, 3, 3, 0.01
676, 11, 11, 370
677, 1, 1, 0.029999999999999999
677, 2, 2, -0.02
677, 3, 3, 0.080000000000000002
677, 11, 11, 393
678, 1, 1, 0.14000000000000001
678, 2, 2, 0.014999999999999999
678, 3, 3, 0.02
678, 11, 11, 410
679, 1, 1, 0.089999999999999997
679, 2, 2, 0.044999999999999998
679, 3, 3, 0.14999999999999999
679, 11, 11, 430
680, 1, 1, -0.040000000000000001
680, 2, 2, 0.11
680, 3, 3, 0.025000000000000001
680, 11, 11, 450
681, 1, 1, 0
681, 2, 2, 0
681, 3, 3, 0
681, 11, 11, 310
682, 1, 1, 0.12
682, 2, 2, 0.025000000000000001
682, 3, 3, 0.040000000000000001
682, 11, 11, 330
683, 1, 1, 0.059999999999999998
683, 2, 2, 0.10000000000000001
683, 3, 3, -0.035000000000000003
683, 11, 11, 350
684, 1, 1, -0.014999999999999999
684, 2, 2, 0.029999999999999999
684, 3, 3, 0.01
684, 11, 11, 370
685, 1, 1, 0.029999999999999999
685, 2, 2, -0.02
685, 3, 3, 0.080000000000000002
685, 11, 11, 390
686, 1, 1, 0.14000000000000001
686, 2, 2, 0.014999999999999999
686, 3, 3, 0.02
686, 11, 11, 413
687, 1, 1, 0.089999999999999997
687, 2, 2, 0.044999999999999998
687, 3, 3, 0.14999999999999999
687, 11, 11, 430
688, 1, 1, -0.040000000000000001
688, 2, 2, 0.11
688, 3, 3, 0.025000000000000001
688, 11, 11, 450
689, 1, 1, 0
689, 2, 2, 0
689, 3, 3, 0
689, 11, 11, 310
690, 1, 1, 0.12
690, 2, 2, 0.025000000000000001
690, 3, 3, 0.040000000000000001
690, 11, 11, 330
691, 1, 1, 0.059999999999999998
691, 2, 2, 0.10000000000000001
691, 3, 3, -0.035000000000000003
691, 11, 11, 350
692, 1, 1, -0.014999999999999999
692, 2, 2, 0.029999999999999999
692, 3, 3, 0.01
692, 11, 11, 370
693, 1, 1, 0.029999999999999999
693, 2, 2, -0.02
693, 3, 3, 0.080000000000000002
693, 11, 11, 390
694, 1, 1, 0.14000000000000001
694, 2, 2, 0.014999999999999999
694, 3, 3, 0.02
694, 11, 11, 410
695, 1, 1, 0.089999999999999997
695, 2, 2, 0.044999999999999998
695, 3, 3, 0.14999999999999999
695, 11, 11, 433
696, 1, 1, -0.040000000000000001
696, 2, 2, 0.11
696, 3, 3, 0.025000000000000001
696, 11, 11, 450
697, 1, 1, 0
697, 2, 2, 0
697, 3, 3, 0
697, 11, 11, 310
698, 1, 1, 0.12
698, 2, 2, 0.025000000000000001
698, 3, 3, 0.040000000000000001
698, 11, 11, 330
699, 1, 1, 0.059999999999999998
699, 2, 2, 0.10000000000000001
699, 3, 3, -0.035000000000000003
699, 11, 11, 350
700, 1, 1, -0.014999999999999999
700, 2, 2, 0.029999999999999999
700, 3, 3, 0.01
700, 11, 11, 370
701, 1, 1, 0.029999999999999999
701, 2, 2, -0.02
701, 3, 3, 0.080000000000000002
701, 11, 11, 390
702, 1, 1, 0.14000000000000001
702, 2, 2, 0.014999999999999999
702, 3, 3, 0.02
702, 11, 11, 410
703, 1, 1, 0.089999999999999997
703, 2, 2, 0.044999999999999998
703, 3, 3, 0.14999999999999999
703, 11, 11, 430
704, 1, 1, -0.040000000000000001
704, 2, 2, 0.11
704, 3, 3, 0.025000000000000001
704, 11, 11, 453
705, 1, 1, 0
705, 2, 2, 0
705, 3, 3, 0
705, 11, 11, 313
706, 1, 1, 0.12
706, 2, 2, 0.025000000000000001
706, 3, 3, 0.040000000000000001
706, 11, 11, 330
707, 1, 1, 0.059999999999999998
707, 2, 2, 0.10000000000000001
707, 3, 3, -0.035000000000000003
707, 11, 11, 350
708, 1, 1, -0.014999999999999999
708, 2, 2, 0.029999999999999999
708, 3, 3, 0.01
708, 11, 11, 370
709, 1, 1, 0.029999999999999999
709, 2, 2, -0.02
709, 3, 3, 0.080000000000000002
709, 11, 11, 390
710, 1, 1, 0.14000000000000001
710, 2, 2, 0.014999999999999999
710, 3, 3, 0.02
710, 11, 11, 410
711, 1, 1, 0.089999999999999997
711, 2, 2, 0.044999999999999998
711, 3, 3, 0.14999999999999999
711, 11, 11, 430
712, 1, 1, -0.040000000000000001
712, 2, 2, 0.11
712, 3, 3, 0.025000000000000001
712, 11, 11, 450
713, 1, 1, 0
713, 2, 2, 0
713, 3, 3, 0
713, 11, 11, 310
714, 1, 1, 0.12
714, 2, 2, 0.025000000000000001
714, 3, 3, 0.040000000000000001
714, 11, 11, 333
715, 1, 1, 0.059999999999999998
715, 2, 2, 0.10000000000000001
715, 3, 3, -0.035000000000000003
715, 11, 11, 350
716, 1, 1, -0.014999999999999999
716, 2, 2, 0.029999999999999999
716, 3, 3, 0.01
716, 11, 11, 370
717, 1, 1, 0.029999999999999999
717, 2, 2, -0.02
717, 3, 3, 0.080000000000000002
717, 11, 11, 390
718, 1, 1, 0.14000000000000001
718, 2, 2, 0.014999999999999999
718, 3, 3, 0.02
718, 11, 11, 410
719, 1, 1, 0.089999999999999997
719, 2, 2, 0.044999999999999998
719, 3, 3, 0.14999999999999999
719, 11, 11, 430
720, 1, 1, -0.040000000000000001
720, 2, 2, 0.11
720, 3, 3, 0.025000000000000001
720, 11, 11, 450
721, 1, 1, 0
721, 2, 2, 0
721, 3, 3, 0
721, 11, 11, 310
722, 1, 1, 0.12
722, 2, 2, 0.025000000000000001
722, 3, 3, 0.040000000000000001
722, 11, 11, 330
723, 1, 1, 0.059999999999999998
723, 2, 2, 0.10000000000000001
723, 3, 3, -0.035000000000000003
723, 11, 11, 353
724, 1, 1, -0.014999999999999999
724, 2, 2, 0.029999999999999999
724, 3, 3, 0.01
724, 11, 11, 370
725, 1, 1, 0.029999999999999999
725, 2, 2, -0.02
725, 3, 3, 0.080000000000000002
725, 11, 11, 390
726, 1, 1, 0.14000000000000001
726, 2, 2, 0.014999999999999999
726, 3, 3, 0.02
726, 11, 11, 410
727, 1, 1, 0.089999999999999997
727, 2, 2, 0.044999999999999998
727, 3, 3, 0.14999999999999999
727, 11, 11, 430
728, 1, 1, -0.040000000000000001
728, 2, 2, 0.11
728, 3, 3, 0.025000000000000001
728, 11, 11, 450
729, 1, 1, 0
729, 2, 2, 0
729, 3, 3, 0
729, 11, 11, 310
730, 1, 1, 0.12
730, 2, 2, 0.025000000000000001
730, 3, 3, 0.040000000000000001
730, 11, 11, 330
731, 1, 1, 0.059999999999999998
731, 2, 2, 0.10000000000000001
731, 3, 3, -0.035000000000000003
731, 11, 11, 350
732, 1, 1, -0.014999999999999999
732, 2, 2, 0.029999999999999999
732, 3, 3, 0.01
732, 11, 11, 373
733, 1, 1, 0.029999999999999999
733, 2, 2, -0.02
733, 3, 3, 0.080000000000000002
733, 11, 11, 390
734, 1, 1, 0.14000000000000001
734, 2, 2, 0.014999999999999999
734, 3, 3, 0.02
734, 11, 11, 410
735, 1, 1, 0.089999999999999997
735, 2, 2, 0.044999999999999998
735, 3, 3, 0.14999999999999999
735, 11, 11, 430
736, 1, 1, -0.040000000000000001
736, 2, 2, 0.11
736, 3, 3, 0.025000000000000001
736, 11, 11, 450
737, 1, 1, 0
737, 2, 2, 0
737, 3, 3, 0
737, 11, 11, 310
738, 1, 1, 0.12
738, 2, 2, 0.025000000000000001
738, 3, 3, 0.040000000000000001
738, 11, 11, 330
739, 1, 1, 0.059999999999999998
739, 2, 2, 0.10000000000000001
739, 3, 3, -0.035000000000000003
739, 11, 11, 350
740, 1, 1, -0.014999999999999999
740, 2, 2, 0.029999999999999999
740, 3, 3, 0.01
740, 11, 11, 370
741, 1, 1, 0.029999999999999999
741, 2, 2, -0.02
741, 3, 3, 0.080000000000000002
741, 11, 11, 393
742, 1, 1, 0.14000000000000001
742, 2, 2, 0.014999999999999999
742, 3, 3, 0.02
742, 11, 11, 410
743, 1, 1, 0.089999999999999997
743, 2, 2, 0.044999999999999998
743, 3, 3, 0.14999999999999999
743, 11, 11, 430
744, 1, 1, -0.040000000000000001
744, 2, 2, 0.11
744, 3, 3, 0.025000000000000001
744, 11, 11, 450
745, 1, 1, 0
745, 2, 2, 0
745, 3, 3, 0
745, 11, 11, 310
746, 1, 1, 0.12
746, 2, 2, 0.025000000000000001
746, 3, 3, 0.040000000000000001
746, 11, 11, 330
747, 1, 1, 0.059999999999999998
747, 2, 2, 0.10000000000000001
747, 3, 3, -0.035000000000000003
747, 11, 11, 350
748, 1, 1, -0.014999999999999999
748, 2, 2, 0.029999999999999999
748, 3, 3, 0.01
748, 11, 11, 370
749, 1, 1, 0.029999999999999999
749, 2, 2, -0.02
749, 3, 3, 0.080000000000000002
749, 11, 11, 390
750, 1, 1, 0.14000000000000001
750, 2, 2, 0.014999999999999999
750, 3, 3, 0.02
750, 11, 11, 413
751, 1, 1, 0.089999999999999997
751, 2, 2, 0.044999999999999998
751, 3, 3, 0.14999999999999999
751, 11, 11, 430
752, 1, 1, -0.040000000000000001
752, 2, 2, 0.11
752, 3, 3, 0.025000000000000001
752, 11, 11, 450
753, 1, 1, 0
753, 2, 2, 0
753, 3, 3, 0
753, 11, 11, 310
754, 1, 1, 0.12
754, 2, 2, 0.025000000000000001
754, 3, 3, 0.040000000000000001
754, 11, 11, 330
755, 1, 1, 0.059999999999999998
755, 2, 2, 0.10000000000000001
755, 3, 3, -0.035000000000000003
755, 11, 11, 350
756, 1, 1, -0.014999999999999999
756, 2, 2, 0.029999999999999999
756, 3, 3, 0.01
756, 11, 11, 370
757, 1, 1, 0.029999999999999999
757, 2, 2, -0.02
757, 3, 3, 0.080000000000000002
757, 11, 11, 390
758, 1, 1, 0.14000000000000001
758, 2, 2, 0.014999999999999999
758, 3, 3, 0.02
758, 11, 11, 410
759, 1, 1, 0.089999999999999997
759, 2, 2, 0.044999999999999998
759, 3, 3, 0.14999999999999999
759, 11, 11, 433
760, 1, 1, -0.040000000000000001
760, 2, 2, 0.11
760, 3, 3, 0.025000000000000001
760, 11, 11, 450
761, 1, 1, 0
761, 2, 2, 0
761, 3, 3, 0
761, 11, 11, 310
762, 1, 1, 0.12
762, 2, 2, 0.025000000000000001
762, 3, 3, 0.040000000000000001
762, 11, 11, 330
763, 1, 1, 0.059999999999999998
763, 2, 2, 0.10000000000000001
763, 3, 3, -0.035000000000000003
763, 11, 11, 350
764, 1, 1, -0.014999999999999999
764, 2, 2, 0.029999999999999999
764, 3, 3, 0.01
764, 11, 11, 370
765, 1, 1, 0.029999999999999999
765, 2, 2, -0.02
765, 3, 3, 0.080000000000000002
765, 11, 11, 390
766, 1, 1, 0.14000000000000001
766, 2, 2, 0.014999999999999999
766, 3, 3, 0.02
766, 11, 11, 410
767, 1, 1, 0.089999999999999997
767, 2, 2, 0.044999999999999998
767, 3, 3, 0.14999999999999999
767, 11, 11, 430
768, 1, 1, -0.040000000000000001
768, 2, 2, 0.11
768, 3, 3, 0.025000000000000001
768, 11, 11, 453
769, 1, 1, 0.029999999999999999
769, 2, 2, 0
769, 11, 11, 303
770, 1, 1, 0.20000000000000001
770, 2, 2, 0.040000000000000001
770, 11, 11, 300
771, 1, 1, 0.11
771, 2, 2, 0.20000000000000001
771, 11, 11, 300
772, 1, 1, -0.02
772, 2, 2, 0.070000000000000007
772, 11, 11, 300
773, 1, 1, 0.029999999999999999
773, 2, 2, 0
773, 11, 11, 300
774, 1, 1, 0.20000000000000001
774, 2, 2, 0.040000000000000001
774, 11, 11, 303
775, 1, 1, 0.11
775, 2, 2, 0.20000000000000001
775, 11, 11, 300
776, 1, 1, -0.02
776, 2, 2, 0.070000000000000007
776, 11, 11, 300
777, 1, 1, 0.029999999999999999
777, 2, 2, 0
777, 11, 11, 300
778, 1, 1, 0.20000000000000001
778, 2, 2, 0.040000000000000001
778, 11, 11, 300
779, 1, 1, 0.11
779, 2, 2, 0.20000000000000001
779, 11, 11, 303
780, 1, 1, -0.02
780, 2, 2, 0.070000000000000007
780, 11, 11, 300
781, 1, 1, 0.029999999999999999
781, 2, 2, 0
781, 11, 11, 300
782, 1, 1, 0.20000000000000001
782, 2, 2, 0.040000000000000001
782, 11, 11, 300
783, 1, 1, 0.11
783, 2, 2, 0.20000000000000001
783, 11, 11, 300
784, 1, 1, -0.02
784, 2, 2, 0.070000000000000007
784, 11, 11, 303
785, 1, 1, 0.029999999999999999
785, 2, 2, 0
785, 11, 11, 313
786, 1, 1, 0.20000000000000001
786, 2, 2, 0.040000000000000001
786, 11, 11, 330
787, 1, 1, 0.11
787, 2, 2, 0.20000000000000001
787, 11, 11, 390
788, 1, 1, -0.02
788, 2, 2, 0.070000000000000007
788, 11, 11, 450
789, 1, 1, 0.029999999999999999
789, 2, 2, 0
789, 11, 11, 310
790, 1, 1, 0.20000000000000001
790, 2, 2, 0.040000000000000001
790, 11, 11, 333
791, 1, 1, 0.11
791, 2, 2, 0.20000000000000001
791, 11, 11, 390
792, 1, 1, -0.02
792, 2, 2, 0.070000000000000007
792, 11, 11, 450
793, 1, 1, 0.029999999999999999
793, 2, 2, 0
793, 11, 11, 310
794, 1, 1, 0.20000000000000001
794, 2, 2, 0.040000000000000001
794, 11, 11, 330
795, 1, 1, 0.11
795, 2, 2, 0.20000000000000001
795, 11, 11, 393
796, 1, 1, -0.02
796, 2, 2, 0.070000000000000007
796, 11, 11, 450
797, 1, 1, 0.029999999999999999
797, 2, 2, 0
797, 11, 11, 310
798, 1, 1, 0.20000000000000001
798, 2, 2, 0.040000000000000001
798, 11, 11, 330
799, 1, 1, 0.11
799, 2, 2, 0.20000000000000001
799, 11, 11, 390
800, 1, 1, -0.02
800, 2, 2, 0.070000000000000007
800, 11, 11, 453
801, 1, 1, 0.029999999999999999
801, 2, 2, 0
801, 11, 11, 313
802, 1, 1, 0.20000000000000001
802, 2, 2, 0.040000000000000001
802, 11, 11, 330
803, 1, 1, 0.11
803, 2, 2, 0.20000000000000001
803, 11, 11, 390
804, 1, 1, -0.02
804, 2, 2, 0.070000000000000007
804, 11, 11, 450
805, 1, 1, 0.029999999999999999
805, 2, 2, 0
805, 11, 11, 310
806, 1, 1, 0.20000000000000001
806, 2, 2, 0.040000000000000001
806, 11, 11, 333
807, 1, 1, 0.11
807, 2, 2, 0.20000000000000001
807, 11, 11, 390
808, 1, 1, -0.02
808, 2, 2, 0.070000000000000007
808, 11, 11, 450
809, 1, 1, 0.029999999999999999
809, 2, 2, 0
809, 11, 11, 310
810, 1, 1, 0.20000000000000001
810, 2, 2, 0.040000000000000001
810, 11, 11, 330
811, 1, 1, 0.11
811, 2, 2, 0.20000000000000001
811, 11, 11, 393
812, 1, 1, -0.02
812, 2, 2, 0.070000000000000007
812, 11, 11, 450
813, 1, 1, 0.029999999999999999
813, 2, 2, 0
813, 11, 11, 310
814, 1, 1, 0.20000000000000001
814, 2, 2, 0.040000000000000001
814, 11, 11, 330
815, 1, 1, 0.11
815, 2, 2, 0.20000000000000001
815, 11, 11, 390
816, 1, 1, -0.02
816, 2, 2, 0.070000000000000007
816, 11, 11, 453
817, 1, 1, 0.029999999999999999
817, 2, 2, 0
817, 11, 11, 303
818, 1, 1, 0.20000000000000001
818, 2, 2, 0.040000000000000001
818, 11, 11, 300
819, 1, 1, 0.11
819, 2, 2, 0.20000000000000001
819, 11, 11, 300
820, 1, 1, -0.02
820, 2, 2, 0.070000000000000007
820, 11, 11, 300
821, 1, 1, 0.029999999999999999
821, 2, 2, 0
821, 11, 11, 300
822, 1, 1, 0.20000000000000001
822, 2, 2, 0.040000000000000001
822, 11, 11, 303
823, 1, 1, 0.11
823, 2, 2, 0.20000000000000001
823, 11, 11, 300
824, 1, 1, -0.02
824, 2, 2, 0.070000000000000007
824, 11, 11, 300
825, 1, 1, 0.029999999999999999
825, 2, 2, 0
825, 11, 11, 300
826, 1, 1, 0.20000000000000001
826, 2, 2, 0.040000000000000001
826, 11, 11, 300
827, 1, 1, 0.11
827, 2, 2, 0.20000000000000001
827, 11, 11, 303
828, 1, 1, -0.02
828, 2, 2, 0.070000000000000007
828, 11, 11, 300
829, 1, 1, 0.029999999999999999
829, 2, 2, 0
829, 11, 11, 300
830, 1, 1, 0.20000000000000001
830, 2, 2, 0.040000000000000001
830, 11, 11, 300
831, 1, 1, 0.11
831, 2, 2, 0.20000000000000001
831, 11, 11, 300
832, 1, 1, -0.02
832, 2, 2, 0.070000000000000007
832, 11, 11, 303
833, 1, 1, 0.029999999999999999
833, 2, 2, 0
833, 11, 11, 313
834, 1, 1, 0.20000000000000001
834, 2, 2, 0.040000000000000001
834, 11, 11, 330
835, 1, 1, 0.11
835, 2, 2, 0.20000000000000001
835, 11, 11, 390
836, 1, 1, -0.02
836, 2, 2, 0.070000000000000007
836, 11, 11, 450
837, 1, 1, 0.029999999999999999
837, 2, 2, 0
837, 11, 11, 310
838, 1, 1, 0.20000000000000001
838, 2, 2, 0.040000000000000001
838, 11, 11, 333
839, 1, 1, 0.11
839, 2, 2, 0.20000000000000001
839, 11, 11, 390
840, 1, 1, -0.02
840, 2, 2, 0.070000000000000007
840, 11, 11, 450
841, 1, 1, 0.029999999999999999
841, 2, 2, 0
841, 11, 11, 310
842, 1, 1, 0.20000000000000001
842, 2, 2, 0.040000000000000001
842, 11, 11, 330
843, 1, 1, 0.11
843, 2, 2, 0.20000000000000001
843, 11, 11, 393
844, 1, 1, -0.02
844, 2, 2, 0.070000000000000007
844, 11, 11, 450
845, 1, 1, 0.029999999999999999
845, 2, 2, 0
845, 11, 11, 310
846, 1, 1, 0.20000000000000001
846, 2, 2, 0.040000000000000001
846, 11, 11, 330
847, 1, 1, 0.11
847, 2, 2, 0.20000000000000001
847, 11, 11, 390
848, 1, 1, -0.02
848, 2, 2, 0.070000000000000007
848, 11, 11, 453
849, 1, 1, 0.029999999999999999
849, 2, 2, 0
849, 11, 11, 313
850, 1, 1, 0.20000000000000001
850, 2, 2, 0.040000000000000001
850, 11, 11, 330
851, 1, 1, 0.11
851, 2, 2, 0.20000000000000001
851, 11, 11, 390
852, 1, 1, -0.02
852, 2, 2, 0.070000000000000007
852, 11, 11, 450
853, 1, 1, 0.029999999999999999
853, 2, 2, 0
853, 11, 11, 310
854, 1, 1, 0.20000000000000001
854, 2, 2, 0.040000000000000001
854, 11, 11, 333
855, 1, 1, 0.11
855, 2, 2, 0.20000000000000001
855, 11, 11, 390
856, 1, 1, -0.02
856, 2, 2, 0.070000000000000007
856, 11, 11, 450
857, 1, 1, 0.029999999999999999
857, 2, 2, 0
857, 11, 11, 310
858, 1, 1, 0.20000000000000001
858, 2, 2, 0.040000000000000001
858, 11, 11, 330
859, 1, 1, 0.11
859, 2, 2, 0.20000000000000001
859, 11, 11, 393
860, 1, 1, -0.02
860, 2, 2, 0.070000000000000007
860, 11, 11, 450
861, 1, 1, 0.029999999999999999
861, 2, 2, 0
861, 11, 11, 310
862, 1, 1, 0.20000000000000001
862, 2, 2, 0.040000000000000001
862, 11, 11, 330
863, 1, 1, 0.11
863, 2, 2, 0.20000000000000001
863, 11, 11, 390
864, 1, 1, -0.02
864, 2, 2, 0.070000000000000007
864, 11, 11, 453
865, 1, 1, 0.029999999999999999
865, 2, 2, 0
865, 11, 11, 303
866, 1, 1, 0.20000000000000001
866, 2, 2, 0.040000000000000001
866, 11, 11, 300
867, 1, 1, 0.11
867, 2, 2, 0.20000000000000001
867, 11, 11, 300
868, 1, 1, -0.02
868, 2, 2, 0.070000000000000007
868, 11, 11, 300
869, 1, 1, 0.029999999999999999
869, 2, 2, 0
869, 11, 11, 300
870, 1, 1, 0.20000000000000001
870, 2, 2, 0.040000000000000001
870, 11, 11, 303
871, 1, 1, 0.11
871, 2, 2, 0.20000000000000001
871, 11, 11, 300
872, 1, 1, -0.02
872, 2, 2, 0.070000000000000007
872, 11, 11, 300
873, 1, 1, 0.029999999999999999
873, 2, 2, 0
873, 11, 11, 300
874, 1, 1, 0.20000000000000001
874, 2, 2, 0.040000000000000001
874, 11, 11, 300
875, 1, 1, 0.11
875, 2, 2, 0.20000000000000001
875, 11, 11, 303
876, 1, 1, -0.02
876, 2, 2, 0.070000000000000007
876, 11, 11, 300
877, 1, 1, 0.029999999999999999
877, 2, 2, 0
877, 11, 11, 300
878, 1, 1, 0.20000000000000001
878, 2, 2, 0.040000000000000001
878, 11, 11, 300
879, 1, 1, 0.11
879, 2, 2, 0.20000000000000001
879, 11, 11, 300
880, 1, 1, -0.02
880, 2, 2, 0.070000000000000007
880, 11, 11, 303
881, 1, 1, 0.029999999999999999
881, 2, 2, 0
881, 11, 11, 313
882, 1, 1, 0.20000000000000001
882, 2, 2, 0.040000000000000001
882, 11, 11, 330
883, 1, 1, 0.11
883, 2, 2, 0.20000000000000001
883, 11, 11, 390
884, 1, 1, -0.02
884, 2, 2, 0.070000000000000007
884, 11, 11, 450
885, 1, 1, 0.029999999999999999
885, 2, 2, 0
885, 11, 11, 310
886, 1, 1, 0.20000000000000001
886, 2, 2, 0.040000000000000001
886, 11, 11, 333
887, 1, 1, 0.11
887, 2, 2, 0.20000000000000001
887, 11, 11, 390
888, 1, 1, -0.02
888, 2, 2, 0.070000000000000007
888, 11, 11, 450
889, 1, 1, 0.029999999999999999
889, 2, 2, 0
889, 11, 11, 310
890, 1, 1, 0.20000000000000001
890, 2, 2, 0.040000000000000001
890, 11, 11, 330
891, 1, 1, 0.11
891, 2, 2, 0.20000000000000001
891, 11, 11, 393
892, 1, 1, -0.02
892, 2, 2, 0.070000000000000007
892, 11, 11, 450
893, 1, 1, 0.029999999999999999
893, 2, 2, 0
893, 11, 11, 310
894, 1, 1, 0.20000000000000001
894, 2, 2, 0.040000000000000001
894, 11, 11, 330
895, 1, 1, 0.11
895, 2, 2, 0.20000000000000001
895, 11, 11, 390
896, 1, 1, -0.02
896, 2, 2, 0.070000000000000007
896, 11, 11, 453
897, 1, 1, 0.029999999999999999
897, 2, 2, 0
897, 11, 11, 313
898, 1, 1, 0.20000000000000001
898, 2, 2, 0.040000000000000001
898, 11, 11, 330
899, 1, 1, 0.11
899, 2, 2, 0.20000000000000001
899, 11, 11, 390
900, 1, 1, -0.02
900, 2, 2, 0.070000000000000007
900, 11, 11, 450
901, 1, 1, 0.029999999999999999
901, 2, 2, 0
901, 11, 11, 310
902, 1, 1, 0.20000000000000001
902, 2, 2, 0.040000000000000001
902, 11, 11, 333
903, 1, 1, 0.11
903, 2, 2, 0.20000000000000001
903, 11, 11, 390
904, 1, 1, -0.02
904, 2, 2, 0.070000000000000007
904, 11, 11, 450
905, 1, 1, 0.029999999999999999
905, 2, 2, 0
905, 11, 11, 310
906, 1, 1, 0.20000000000000001
906, 2, 2, 0.040000000000000001
906, 11, 11, 330
907, 1, 1, 0.11
907, 2, 2, 0.20000000000000001
907, 11, 11, 393
908, 1, 1, -0.02
908, 2, 2, 0.070000000000000007
908, 11, 11, 450
909, 1, 1, 0.029999999999999999
909, 2, 2, 0
909, 11, 11, 310
910, 1, 1, 0.20000000000000001
910, 2, 2, 0.040000000000000001
910, 11, 11, 330
911, 1, 1, 0.11
911, 2, 2, 0.20000000000000001
911, 11, 11, 390
912, 1, 1, -0.02
912, 2, 2, 0.070000000000000007
912, 11, 11, 453
913, 1, 1, 0.029999999999999999
913, 2, 2, 0
913, 11, 11, 303
914, 1, 1, 0.20000000000000001
914, 2, 2, 0.040000000000000001
914, 11, 11, 300
915, 1, 1, 0.11
915, 2, 2, 0.20000000000000001
915, 11, 11, 300
916, 1, 1, -0.02
916, 2, 2, 0.070000000000000007
916, 11, 11, 300
917, 1, 1, 0.029999999999999999
917, 2, 2, 0
917, 11, 11, 300
918, 1, 1, 0.20000000000000001
918, 2, 2, 0.040000000000000001
918, 11, 11, 303
919, 1, 1, 0.11
919, 2, 2, 0.20000000000000001
919, 11, 11, 300
920, 1, 1, -0.02
920, 2, 2, 0.070000000000000007
920, 11, 11, 300
921, 1, 1, 0.029999999999999999
921, 2, 2, 0
921, 11, 11, 300
922, 1, 1, 0.20000000000000001
922, 2, 2, 0.040000000000000001
922, 11, 11, 300
923, 1, 1, 0.11
923, 2, 2, 0.20000000000000001
923, 11, 11, 303
924, 1, 1, -0.02
924, 2, 2, 0.070000000000000007
924, 11, 11, 300
925, 1, 1, 0.029999999999999999
925, 2, 2, 0
925, 11, 11, 300
926, 1, 1, 0.20000000000000001
926, 2, 2, 0.040000000000000001
926, 11, 11, 300
927, 1, 1, 0.11
927, 2, 2, 0.20000000000000001
927, 11, 11, 300
928, 1, 1, -0.02
928, 2, 2, 0.070000000000000007
928, 11, 11, 303
929, 1, 1, 0.029999999999999999
929, 2, 2, 0
929, 11, 11, 313
930, 1, 1, 0.20000000000000001
930, 2, 2, 0.040000000000000001
930, 11, 11, 330
931, 1, 1, 0.11
931, 2, 2, 0.20000000000000001
931, 11, 11, 390
932, 1, 1, -0.02
932, 2, 2, 0.070000000000000007
932, 11, 11, 450
933, 1, 1, 0.029999999999999999
933, 2, 2, 0
933, 11, 11, 310
934, 1, 1, 0.20000000000000001
934, 2, 2, 0.040000000000000001
934, 11, 11, 333
935, 1, 1, 0.11
935, 2, 2, 0.20000000000000001
935, 11, 11, 390
936, 1, 1, -0.02
936, 2, 2, 0.070000000000000007
936, 11, 11, 450
937, 1, 1, 0.029999999999999999
937, 2, 2, 0
937, 11, 11, 310
938, 1, 1, 0.20000000000000001
938, 2, 2, 0.040000000000000001
938, 11, 11, 330
939, 1, 1, 0.11
939, 2, 2, 0.20000000000000001
939, 11, 11, 393
940, 1, 1, -0.02
940, 2, 2, 0.070000000000000007
940, 11, 11, 450
941, 1, 1, 0.029999999999999999
941, 2, 2, 0
941, 11, 11, 310
942, 1, 1, 0.20000000000000001
942, 2, 2, 0.040000000000000001
942, 11, 11, 330
943, 1, 1, 0.11
943, 2, 2, 0.20000000000000001
943, 11, 11, 390
944, 1, 1, -0.02
944, 2, 2, 0.070000000000000007
944, 11, 11, 453
945, 1, 1, 0.029999999999999999
945, 2, 2, 0
945, 11, 11, 313
946, 1, 1, 0.20000000000000001
946, 2, 2, 0.040000000000000001
946, 11, 11, 330
947, 1, 1, 0.11
947, 2, 2, 0.20000000000000001
947, 11, 11, 390
948, 1, 1, -0.02
948, 2, 2, 0.070000000000000007
948, 11, 11, 450
949, 1, 1, 0.029999999999999999
949, 2, 2, 0
949, 11, 11, 310
950, 1, 1, 0.20000000000000001
950, 2, 2, 0.040000000000000001
950, 11, 11, 333
951, 1, 1, 0.11
951, 2, 2, 0.20000000000000001
951, 11, 11, 390
952, 1, 1, -0.02
952, 2, 2, 0.070000000000000007
952, 11, 11, 450
953, 1, 1, 0.029999999999999999
953, 2, 2, 0
953, 11, 11, 310
954, 1, 1, 0.20000000000000001
954, 2, 2, 0.040000000000000001
954, 11, 11, 330
955, 1, 1, 0.11
955, 2, 2, 0.20000000000000001
955, 11, 11, 393
956, 1, 1, -0.02
956, 2, 2, 0.070000000000000007
956, 11, 11, 450
957, 1, 1, 0.029999999999999999
957, 2, 2, 0
957, 11, 11, 310
958, 1, 1, 0.20000000000000001
958, 2, 2, 0.040000000000000001
958, 11, 11, 330
959, 1, 1, 0.11
959, 2, 2, 0.20000000000000001
959, 11, 11, 390
960, 1, 1, -0.02
960, 2, 2, 0.070000000000000007
960, 11, 11, 453
*Output, field, frequency=1
*Node Output
NT, RFL, U
*Element Output, position=INTEGRATION POINTS
IVOL, TEMP
*End Step
*Step, name=DEFORM_B, nlgeom=YES, inc=1
*Coupled Temperature-Displacement
1, 1, 1, 1
*Boundary, op=NEW
1, 1, 1, 0.01
1, 2, 2, -0.02
1, 3, 3, 0.029999999999999999
1, 11, 11, 304
2, 1, 1, -0.029999999999999999
2, 2, 2, 0.040000000000000001
2, 3, 3, 0.050000000000000003
2, 11, 11, 300
3, 1, 1, 0.080000000000000002
3, 2, 2, -0.01
3, 3, 3, 0.089999999999999997
3, 11, 11, 300
4, 1, 1, 0.040000000000000001
4, 2, 2, 0.080000000000000002
4, 3, 3, 0.01
4, 11, 11, 300
5, 1, 1, -0.02
5, 2, 2, 0.059999999999999998
5, 3, 3, 0.040000000000000001
5, 11, 11, 300
6, 1, 1, 0.059999999999999998
6, 2, 2, -0.029999999999999999
6, 3, 3, 0.11
6, 11, 11, 300
7, 1, 1, 0.14000000000000001
7, 2, 2, 0.12
7, 3, 3, 0.070000000000000007
7, 11, 11, 300
8, 1, 1, 0.01
8, 2, 2, 0.029999999999999999
8, 3, 3, 0.16
8, 11, 11, 300
9, 1, 1, 0.01
9, 2, 2, -0.02
9, 3, 3, 0.029999999999999999
9, 11, 11, 300
10, 1, 1, -0.029999999999999999
10, 2, 2, 0.040000000000000001
10, 3, 3, 0.050000000000000003
10, 11, 11, 304
11, 1, 1, 0.080000000000000002
11, 2, 2, -0.01
11, 3, 3, 0.089999999999999997
11, 11, 11, 300
12, 1, 1, 0.040000000000000001
12, 2, 2, 0.080000000000000002
12, 3, 3, 0.01
12, 11, 11, 300
13, 1, 1, -0.02
13, 2, 2, 0.059999999999999998
13, 3, 3, 0.040000000000000001
13, 11, 11, 300
14, 1, 1, 0.059999999999999998
14, 2, 2, -0.029999999999999999
14, 3, 3, 0.11
14, 11, 11, 300
15, 1, 1, 0.14000000000000001
15, 2, 2, 0.12
15, 3, 3, 0.070000000000000007
15, 11, 11, 300
16, 1, 1, 0.01
16, 2, 2, 0.029999999999999999
16, 3, 3, 0.16
16, 11, 11, 300
17, 1, 1, 0.01
17, 2, 2, -0.02
17, 3, 3, 0.029999999999999999
17, 11, 11, 300
18, 1, 1, -0.029999999999999999
18, 2, 2, 0.040000000000000001
18, 3, 3, 0.050000000000000003
18, 11, 11, 300
19, 1, 1, 0.080000000000000002
19, 2, 2, -0.01
19, 3, 3, 0.089999999999999997
19, 11, 11, 304
20, 1, 1, 0.040000000000000001
20, 2, 2, 0.080000000000000002
20, 3, 3, 0.01
20, 11, 11, 300
21, 1, 1, -0.02
21, 2, 2, 0.059999999999999998
21, 3, 3, 0.040000000000000001
21, 11, 11, 300
22, 1, 1, 0.059999999999999998
22, 2, 2, -0.029999999999999999
22, 3, 3, 0.11
22, 11, 11, 300
23, 1, 1, 0.14000000000000001
23, 2, 2, 0.12
23, 3, 3, 0.070000000000000007
23, 11, 11, 300
24, 1, 1, 0.01
24, 2, 2, 0.029999999999999999
24, 3, 3, 0.16
24, 11, 11, 300
25, 1, 1, 0.01
25, 2, 2, -0.02
25, 3, 3, 0.029999999999999999
25, 11, 11, 300
26, 1, 1, -0.029999999999999999
26, 2, 2, 0.040000000000000001
26, 3, 3, 0.050000000000000003
26, 11, 11, 300
27, 1, 1, 0.080000000000000002
27, 2, 2, -0.01
27, 3, 3, 0.089999999999999997
27, 11, 11, 300
28, 1, 1, 0.040000000000000001
28, 2, 2, 0.080000000000000002
28, 3, 3, 0.01
28, 11, 11, 304
29, 1, 1, -0.02
29, 2, 2, 0.059999999999999998
29, 3, 3, 0.040000000000000001
29, 11, 11, 300
30, 1, 1, 0.059999999999999998
30, 2, 2, -0.029999999999999999
30, 3, 3, 0.11
30, 11, 11, 300
31, 1, 1, 0.14000000000000001
31, 2, 2, 0.12
31, 3, 3, 0.070000000000000007
31, 11, 11, 300
32, 1, 1, 0.01
32, 2, 2, 0.029999999999999999
32, 3, 3, 0.16
32, 11, 11, 300
33, 1, 1, 0.01
33, 2, 2, -0.02
33, 3, 3, 0.029999999999999999
33, 11, 11, 300
34, 1, 1, -0.029999999999999999
34, 2, 2, 0.040000000000000001
34, 3, 3, 0.050000000000000003
34, 11, 11, 300
35, 1, 1, 0.080000000000000002
35, 2, 2, -0.01
35, 3, 3, 0.089999999999999997
35, 11, 11, 300
36, 1, 1, 0.040000000000000001
36, 2, 2, 0.080000000000000002
36, 3, 3, 0.01
36, 11, 11, 300
37, 1, 1, -0.02
37, 2, 2, 0.059999999999999998
37, 3, 3, 0.040000000000000001
37, 11, 11, 304
38, 1, 1, 0.059999999999999998
38, 2, 2, -0.029999999999999999
38, 3, 3, 0.11
38, 11, 11, 300
39, 1, 1, 0.14000000000000001
39, 2, 2, 0.12
39, 3, 3, 0.070000000000000007
39, 11, 11, 300
40, 1, 1, 0.01
40, 2, 2, 0.029999999999999999
40, 3, 3, 0.16
40, 11, 11, 300
41, 1, 1, 0.01
41, 2, 2, -0.02
41, 3, 3, 0.029999999999999999
41, 11, 11, 300
42, 1, 1, -0.029999999999999999
42, 2, 2, 0.040000000000000001
42, 3, 3, 0.050000000000000003
42, 11, 11, 300
43, 1, 1, 0.080000000000000002
43, 2, 2, -0.01
43, 3, 3, 0.089999999999999997
43, 11, 11, 300
44, 1, 1, 0.040000000000000001
44, 2, 2, 0.080000000000000002
44, 3, 3, 0.01
44, 11, 11, 300
45, 1, 1, -0.02
45, 2, 2, 0.059999999999999998
45, 3, 3, 0.040000000000000001
45, 11, 11, 300
46, 1, 1, 0.059999999999999998
46, 2, 2, -0.029999999999999999
46, 3, 3, 0.11
46, 11, 11, 304
47, 1, 1, 0.14000000000000001
47, 2, 2, 0.12
47, 3, 3, 0.070000000000000007
47, 11, 11, 300
48, 1, 1, 0.01
48, 2, 2, 0.029999999999999999
48, 3, 3, 0.16
48, 11, 11, 300
49, 1, 1, 0.01
49, 2, 2, -0.02
49, 3, 3, 0.029999999999999999
49, 11, 11, 300
50, 1, 1, -0.029999999999999999
50, 2, 2, 0.040000000000000001
50, 3, 3, 0.050000000000000003
50, 11, 11, 300
51, 1, 1, 0.080000000000000002
51, 2, 2, -0.01
51, 3, 3, 0.089999999999999997
51, 11, 11, 300
52, 1, 1, 0.040000000000000001
52, 2, 2, 0.080000000000000002
52, 3, 3, 0.01
52, 11, 11, 300
53, 1, 1, -0.02
53, 2, 2, 0.059999999999999998
53, 3, 3, 0.040000000000000001
53, 11, 11, 300
54, 1, 1, 0.059999999999999998
54, 2, 2, -0.029999999999999999
54, 3, 3, 0.11
54, 11, 11, 300
55, 1, 1, 0.14000000000000001
55, 2, 2, 0.12
55, 3, 3, 0.070000000000000007
55, 11, 11, 304
56, 1, 1, 0.01
56, 2, 2, 0.029999999999999999
56, 3, 3, 0.16
56, 11, 11, 300
57, 1, 1, 0.01
57, 2, 2, -0.02
57, 3, 3, 0.029999999999999999
57, 11, 11, 300
58, 1, 1, -0.029999999999999999
58, 2, 2, 0.040000000000000001
58, 3, 3, 0.050000000000000003
58, 11, 11, 300
59, 1, 1, 0.080000000000000002
59, 2, 2, -0.01
59, 3, 3, 0.089999999999999997
59, 11, 11, 300
60, 1, 1, 0.040000000000000001
60, 2, 2, 0.080000000000000002
60, 3, 3, 0.01
60, 11, 11, 300
61, 1, 1, -0.02
61, 2, 2, 0.059999999999999998
61, 3, 3, 0.040000000000000001
61, 11, 11, 300
62, 1, 1, 0.059999999999999998
62, 2, 2, -0.029999999999999999
62, 3, 3, 0.11
62, 11, 11, 300
63, 1, 1, 0.14000000000000001
63, 2, 2, 0.12
63, 3, 3, 0.070000000000000007
63, 11, 11, 300
64, 1, 1, 0.01
64, 2, 2, 0.029999999999999999
64, 3, 3, 0.16
64, 11, 11, 304
65, 1, 1, 0.01
65, 2, 2, -0.02
65, 3, 3, 0.029999999999999999
65, 11, 11, 314
66, 1, 1, -0.029999999999999999
66, 2, 2, 0.040000000000000001
66, 3, 3, 0.050000000000000003
66, 11, 11, 330
67, 1, 1, 0.080000000000000002
67, 2, 2, -0.01
67, 3, 3, 0.089999999999999997
67, 11, 11, 350
68, 1, 1, 0.040000000000000001
68, 2, 2, 0.080000000000000002
68, 3, 3, 0.01
68, 11, 11, 370
69, 1, 1, -0.02
69, 2, 2, 0.059999999999999998
69, 3, 3, 0.040000000000000001
69, 11, 11, 390
70, 1, 1, 0.059999999999999998
70, 2, 2, -0.029999999999999999
70, 3, 3, 0.11
70, 11, 11, 410
71, 1, 1, 0.14000000000000001
71, 2, 2, 0.12
71, 3, 3, 0.070000000000000007
71, 11, 11, 430
72, 1, 1, 0.01
72, 2, 2, 0.029999999999999999
72, 3, 3, 0.16
72, 11, 11, 450
73, 1, 1, 0.01
73, 2, 2, -0.02
73, 3, 3, 0.029999999999999999
73, 11, 11, 310
74, 1, 1, -0.029999999999999999
74, 2, 2, 0.040000000000000001
74, 3, 3, 0.050000000000000003
74, 11, 11, 334
75, 1, 1, 0.080000000000000002
75, 2, 2, -0.01
75, 3, 3, 0.089999999999999997
75, 11, 11, 350
76, 1, 1, 0.040000000000000001
76, 2, 2, 0.080000000000000002
76, 3, 3, 0.01
76, 11, 11, 370
77, 1, 1, -0.02
77, 2, 2, 0.059999999999999998
77, 3, 3, 0.040000000000000001
77, 11, 11, 390
78, 1, 1, 0.059999999999999998
78, 2, 2, -0.029999999999999999
78, 3, 3, 0.11
78, 11, 11, 410
79, 1, 1, 0.14000000000000001
79, 2, 2, 0.12
79, 3, 3, 0.070000000000000007
79, 11, 11, 430
80, 1, 1, 0.01
80, 2, 2, 0.029999999999999999
80, 3, 3, 0.16
80, 11, 11, 450
81, 1, 1, 0.01
81, 2, 2, -0.02
81, 3, 3, 0.029999999999999999
81, 11, 11, 310
82, 1, 1, -0.029999999999999999
82, 2, 2, 0.040000000000000001
82, 3, 3, 0.050000000000000003
82, 11, 11, 330
83, 1, 1, 0.080000000000000002
83, 2, 2, -0.01
83, 3, 3, 0.089999999999999997
83, 11, 11, 354
84, 1, 1, 0.040000000000000001
84, 2, 2, 0.080000000000000002
84, 3, 3, 0.01
84, 11, 11, 370
85, 1, 1, -0.02
85, 2, 2, 0.059999999999999998
85, 3, 3, 0.040000000000000001
85, 11, 11, 390
86, 1, 1, 0.059999999999999998
86, 2, 2, -0.029999999999999999
86, 3, 3, 0.11
86, 11, 11, 410
87, 1, 1, 0.14000000000000001
87, 2, 2, 0.12
87, 3, 3, 0.070000000000000007
87, 11, 11, 430
88, 1, 1, 0.01
88, 2, 2, 0.029999999999999999
88, 3, 3, 0.16
88, 11, 11, 450
89, 1, 1, 0.01
89, 2, 2, -0.02
89, 3, 3, 0.029999999999999999
89, 11, 11, 310
90, 1, 1, -0.029999999999999999
90, 2, 2, 0.040000000000000001
90, 3, 3, 0.050000000000000003
90, 11, 11, 330
91, 1, 1, 0.080000000000000002
91, 2, 2, -0.01
91, 3, 3, 0.089999999999999997
91, 11, 11, 350
92, 1, 1, 0.040000000000000001
92, 2, 2, 0.080000000000000002
92, 3, 3, 0.01
92, 11, 11, 374
93, 1, 1, -0.02
93, 2, 2, 0.059999999999999998
93, 3, 3, 0.040000000000000001
93, 11, 11, 390
94, 1, 1, 0.059999999999999998
94, 2, 2, -0.029999999999999999
94, 3, 3, 0.11
94, 11, 11, 410
95, 1, 1, 0.14000000000000001
95, 2, 2, 0.12
95, 3, 3, 0.070000000000000007
95, 11, 11, 430
96, 1, 1, 0.01
96, 2, 2, 0.029999999999999999
96, 3, 3, 0.16
96, 11, 11, 450
97, 1, 1, 0.01
97, 2, 2, -0.02
97, 3, 3, 0.029999999999999999
97, 11, 11, 310
98, 1, 1, -0.029999999999999999
98, 2, 2, 0.040000000000000001
98, 3, 3, 0.050000000000000003
98, 11, 11, 330
99, 1, 1, 0.080000000000000002
99, 2, 2, -0.01
99, 3, 3, 0.089999999999999997
99, 11, 11, 350
100, 1, 1, 0.040000000000000001
100, 2, 2, 0.080000000000000002
100, 3, 3, 0.01
100, 11, 11, 370
101, 1, 1, -0.02
101, 2, 2, 0.059999999999999998
101, 3, 3, 0.040000000000000001
101, 11, 11, 394
102, 1, 1, 0.059999999999999998
102, 2, 2, -0.029999999999999999
102, 3, 3, 0.11
102, 11, 11, 410
103, 1, 1, 0.14000000000000001
103, 2, 2, 0.12
103, 3, 3, 0.070000000000000007
103, 11, 11, 430
104, 1, 1, 0.01
104, 2, 2, 0.029999999999999999
104, 3, 3, 0.16
104, 11, 11, 450
105, 1, 1, 0.01
105, 2, 2, -0.02
105, 3, 3, 0.029999999999999999
105, 11, 11, 310
106, 1, 1, -0.029999999999999999
106, 2, 2, 0.040000000000000001
106, 3, 3, 0.050000000000000003
106, 11, 11, 330
107, 1, 1, 0.080000000000000002
107, 2, 2, -0.01
107, 3, 3, 0.089999999999999997
107, 11, 11, 350
108, 1, 1, 0.040000000000000001
108, 2, 2, 0.080000000000000002
108, 3, 3, 0.01
108, 11, 11, 370
109, 1, 1, -0.02
109, 2, 2, 0.059999999999999998
109, 3, 3, 0.040000000000000001
109, 11, 11, 390
110, 1, 1, 0.059999999999999998
110, 2, 2, -0.029999999999999999
110, 3, 3, 0.11
110, 11, 11, 414
111, 1, 1, 0.14000000000000001
111, 2, 2, 0.12
111, 3, 3, 0.070000000000000007
111, 11, 11, 430
112, 1, 1, 0.01
112, 2, 2, 0.029999999999999999
112, 3, 3, 0.16
112, 11, 11, 450
113, 1, 1, 0.01
113, 2, 2, -0.02
113, 3, 3, 0.029999999999999999
113, 11, 11, 310
114, 1, 1, -0.029999999999999999
114, 2, 2, 0.040000000000000001
114, 3, 3, 0.050000000000000003
114, 11, 11, 330
115, 1, 1, 0.080000000000000002
115, 2, 2, -0.01
115, 3, 3, 0.089999999999999997
115, 11, 11, 350
116, 1, 1, 0.040000000000000001
116, 2, 2, 0.080000000000000002
116, 3, 3, 0.01
116, 11, 11, 370
117, 1, 1, -0.02
117, 2, 2, 0.059999999999999998
117, 3, 3, 0.040000000000000001
117, 11, 11, 390
118, 1, 1, 0.059999999999999998
118, 2, 2, -0.029999999999999999
118, 3, 3, 0.11
118, 11, 11, 410
119, 1, 1, 0.14000000000000001
119, 2, 2, 0.12
119, 3, 3, 0.070000000000000007
119, 11, 11, 434
120, 1, 1, 0.01
120, 2, 2, 0.029999999999999999
120, 3, 3, 0.16
120, 11, 11, 450
121, 1, 1, 0.01
121, 2, 2, -0.02
121, 3, 3, 0.029999999999999999
121, 11, 11, 310
122, 1, 1, -0.029999999999999999
122, 2, 2, 0.040000000000000001
122, 3, 3, 0.050000000000000003
122, 11, 11, 330
123, 1, 1, 0.080000000000000002
123, 2, 2, -0.01
123, 3, 3, 0.089999999999999997
123, 11, 11, 350
124, 1, 1, 0.040000000000000001
124, 2, 2, 0.080000000000000002
124, 3, 3, 0.01
124, 11, 11, 370
125, 1, 1, -0.02
125, 2, 2, 0.059999999999999998
125, 3, 3, 0.040000000000000001
125, 11, 11, 390
126, 1, 1, 0.059999999999999998
126, 2, 2, -0.029999999999999999
126, 3, 3, 0.11
126, 11, 11, 410
127, 1, 1, 0.14000000000000001
127, 2, 2, 0.12
127, 3, 3, 0.070000000000000007
127, 11, 11, 430
128, 1, 1, 0.01
128, 2, 2, 0.029999999999999999
128, 3, 3, 0.16
128, 11, 11, 454
129, 1, 1, 0.01
129, 2, 2, -0.02
129, 3, 3, 0.029999999999999999
129, 11, 11, 314
130, 1, 1, -0.029999999999999999
130, 2, 2, 0.040000000000000001
130, 3, 3, 0.050000000000000003
130, 11, 11, 330
131, 1, 1, 0.080000000000000002
131, 2, 2, -0.01
131, 3, 3, 0.089999999999999997
131, 11, 11, 350
132, 1, 1, 0.040000000000000001
132, 2, 2, 0.080000000000000002
132, 3, 3, 0.01
132, 11, 11, 370
133, 1, 1, -0.02
133, 2, 2, 0.059999999999999998
133, 3, 3, 0.040000000000000001
133, 11, 11, 390
134, 1, 1, 0.059999999999999998
134, 2, 2, -0.029999999999999999
134, 3, 3, 0.11
134, 11, 11, 410
135, 1, 1, 0.14000000000000001
135, 2, 2, 0.12
135, 3, 3, 0.070000000000000007
135, 11, 11, 430
136, 1, 1, 0.01
136, 2, 2, 0.029999999999999999
136, 3, 3, 0.16
136, 11, 11, 450
137, 1, 1, 0.01
137, 2, 2, -0.02
137, 3, 3, 0.029999999999999999
137, 11, 11, 310
138, 1, 1, -0.029999999999999999
138, 2, 2, 0.040000000000000001
138, 3, 3, 0.050000000000000003
138, 11, 11, 334
139, 1, 1, 0.080000000000000002
139, 2, 2, -0.01
139, 3, 3, 0.089999999999999997
139, 11, 11, 350
140, 1, 1, 0.040000000000000001
140, 2, 2, 0.080000000000000002
140, 3, 3, 0.01
140, 11, 11, 370
141, 1, 1, -0.02
141, 2, 2, 0.059999999999999998
141, 3, 3, 0.040000000000000001
141, 11, 11, 390
142, 1, 1, 0.059999999999999998
142, 2, 2, -0.029999999999999999
142, 3, 3, 0.11
142, 11, 11, 410
143, 1, 1, 0.14000000000000001
143, 2, 2, 0.12
143, 3, 3, 0.070000000000000007
143, 11, 11, 430
144, 1, 1, 0.01
144, 2, 2, 0.029999999999999999
144, 3, 3, 0.16
144, 11, 11, 450
145, 1, 1, 0.01
145, 2, 2, -0.02
145, 3, 3, 0.029999999999999999
145, 11, 11, 310
146, 1, 1, -0.029999999999999999
146, 2, 2, 0.040000000000000001
146, 3, 3, 0.050000000000000003
146, 11, 11, 330
147, 1, 1, 0.080000000000000002
147, 2, 2, -0.01
147, 3, 3, 0.089999999999999997
147, 11, 11, 354
148, 1, 1, 0.040000000000000001
148, 2, 2, 0.080000000000000002
148, 3, 3, 0.01
148, 11, 11, 370
149, 1, 1, -0.02
149, 2, 2, 0.059999999999999998
149, 3, 3, 0.040000000000000001
149, 11, 11, 390
150, 1, 1, 0.059999999999999998
150, 2, 2, -0.029999999999999999
150, 3, 3, 0.11
150, 11, 11, 410
151, 1, 1, 0.14000000000000001
151, 2, 2, 0.12
151, 3, 3, 0.070000000000000007
151, 11, 11, 430
152, 1, 1, 0.01
152, 2, 2, 0.029999999999999999
152, 3, 3, 0.16
152, 11, 11, 450
153, 1, 1, 0.01
153, 2, 2, -0.02
153, 3, 3, 0.029999999999999999
153, 11, 11, 310
154, 1, 1, -0.029999999999999999
154, 2, 2, 0.040000000000000001
154, 3, 3, 0.050000000000000003
154, 11, 11, 330
155, 1, 1, 0.080000000000000002
155, 2, 2, -0.01
155, 3, 3, 0.089999999999999997
155, 11, 11, 350
156, 1, 1, 0.040000000000000001
156, 2, 2, 0.080000000000000002
156, 3, 3, 0.01
156, 11, 11, 374
157, 1, 1, -0.02
157, 2, 2, 0.059999999999999998
157, 3, 3, 0.040000000000000001
157, 11, 11, 390
158, 1, 1, 0.059999999999999998
158, 2, 2, -0.029999999999999999
158, 3, 3, 0.11
158, 11, 11, 410
159, 1, 1, 0.14000000000000001
159, 2, 2, 0.12
159, 3, 3, 0.070000000000000007
159, 11, 11, 430
160, 1, 1, 0.01
160, 2, 2, 0.029999999999999999
160, 3, 3, 0.16
160, 11, 11, 450
161, 1, 1, 0.01
161, 2, 2, -0.02
161, 3, 3, 0.029999999999999999
161, 11, 11, 310
162, 1, 1, -0.029999999999999999
162, 2, 2, 0.040000000000000001
162, 3, 3, 0.050000000000000003
162, 11, 11, 330
163, 1, 1, 0.080000000000000002
163, 2, 2, -0.01
163, 3, 3, 0.089999999999999997
163, 11, 11, 350
164, 1, 1, 0.040000000000000001
164, 2, 2, 0.080000000000000002
164, 3, 3, 0.01
164, 11, 11, 370
165, 1, 1, -0.02
165, 2, 2, 0.059999999999999998
165, 3, 3, 0.040000000000000001
165, 11, 11, 394
166, 1, 1, 0.059999999999999998
166, 2, 2, -0.029999999999999999
166, 3, 3, 0.11
166, 11, 11, 410
167, 1, 1, 0.14000000000000001
167, 2, 2, 0.12
167, 3, 3, 0.070000000000000007
167, 11, 11, 430
168, 1, 1, 0.01
168, 2, 2, 0.029999999999999999
168, 3, 3, 0.16
168, 11, 11, 450
169, 1, 1, 0.01
169, 2, 2, -0.02
169, 3, 3, 0.029999999999999999
169, 11, 11, 310
170, 1, 1, -0.029999999999999999
170, 2, 2, 0.040000000000000001
170, 3, 3, 0.050000000000000003
170, 11, 11, 330
171, 1, 1, 0.080000000000000002
171, 2, 2, -0.01
171, 3, 3, 0.089999999999999997
171, 11, 11, 350
172, 1, 1, 0.040000000000000001
172, 2, 2, 0.080000000000000002
172, 3, 3, 0.01
172, 11, 11, 370
173, 1, 1, -0.02
173, 2, 2, 0.059999999999999998
173, 3, 3, 0.040000000000000001
173, 11, 11, 390
174, 1, 1, 0.059999999999999998
174, 2, 2, -0.029999999999999999
174, 3, 3, 0.11
174, 11, 11, 414
175, 1, 1, 0.14000000000000001
175, 2, 2, 0.12
175, 3, 3, 0.070000000000000007
175, 11, 11, 430
176, 1, 1, 0.01
176, 2, 2, 0.029999999999999999
176, 3, 3, 0.16
176, 11, 11, 450
177, 1, 1, 0.01
177, 2, 2, -0.02
177, 3, 3, 0.029999999999999999
177, 11, 11, 310
178, 1, 1, -0.029999999999999999
178, 2, 2, 0.040000000000000001
178, 3, 3, 0.050000000000000003
178, 11, 11, 330
179, 1, 1, 0.080000000000000002
179, 2, 2, -0.01
179, 3, 3, 0.089999999999999997
179, 11, 11, 350
180, 1, 1, 0.040000000000000001
180, 2, 2, 0.080000000000000002
180, 3, 3, 0.01
180, 11, 11, 370
181, 1, 1, -0.02
181, 2, 2, 0.059999999999999998
181, 3, 3, 0.040000000000000001
181, 11, 11, 390
182, 1, 1, 0.059999999999999998
182, 2, 2, -0.029999999999999999
182, 3, 3, 0.11
182, 11, 11, 410
183, 1, 1, 0.14000000000000001
183, 2, 2, 0.12
183, 3, 3, 0.070000000000000007
183, 11, 11, 434
184, 1, 1, 0.01
184, 2, 2, 0.029999999999999999
184, 3, 3, 0.16
184, 11, 11, 450
185, 1, 1, 0.01
185, 2, 2, -0.02
185, 3, 3, 0.029999999999999999
185, 11, 11, 310
186, 1, 1, -0.029999999999999999
186, 2, 2, 0.040000000000000001
186, 3, 3, 0.050000000000000003
186, 11, 11, 330
187, 1, 1, 0.080000000000000002
187, 2, 2, -0.01
187, 3, 3, 0.089999999999999997
187, 11, 11, 350
188, 1, 1, 0.040000000000000001
188, 2, 2, 0.080000000000000002
188, 3, 3, 0.01
188, 11, 11, 370
189, 1, 1, -0.02
189, 2, 2, 0.059999999999999998
189, 3, 3, 0.040000000000000001
189, 11, 11, 390
190, 1, 1, 0.059999999999999998
190, 2, 2, -0.029999999999999999
190, 3, 3, 0.11
190, 11, 11, 410
191, 1, 1, 0.14000000000000001
191, 2, 2, 0.12
191, 3, 3, 0.070000000000000007
191, 11, 11, 430
192, 1, 1, 0.01
192, 2, 2, 0.029999999999999999
192, 3, 3, 0.16
192, 11, 11, 454
193, 1, 1, 0.01
193, 2, 2, -0.02
193, 3, 3, 0.029999999999999999
193, 11, 11, 304
194, 1, 1, -0.029999999999999999
194, 2, 2, 0.040000000000000001
194, 3, 3, 0.050000000000000003
194, 11, 11, 300
195, 1, 1, 0.080000000000000002
195, 2, 2, -0.01
195, 3, 3, 0.089999999999999997
195, 11, 11, 300
196, 1, 1, 0.040000000000000001
196, 2, 2, 0.080000000000000002
196, 3, 3, 0.01
196, 11, 11, 300
197, 1, 1, -0.02
197, 2, 2, 0.059999999999999998
197, 3, 3, 0.040000000000000001
197, 11, 11, 300
198, 1, 1, 0.059999999999999998
198, 2, 2, -0.029999999999999999
198, 3, 3, 0.11
198, 11, 11, 300
199, 1, 1, 0.14000000000000001
199, 2, 2, 0.12
199, 3, 3, 0.070000000000000007
199, 11, 11, 300
200, 1, 1, 0.01
200, 2, 2, 0.029999999999999999
200, 3, 3, 0.16
200, 11, 11, 300
201, 1, 1, 0.01
201, 2, 2, -0.02
201, 3, 3, 0.029999999999999999
201, 11, 11, 300
202, 1, 1, -0.029999999999999999
202, 2, 2, 0.040000000000000001
202, 3, 3, 0.050000000000000003
202, 11, 11, 304
203, 1, 1, 0.080000000000000002
203, 2, 2, -0.01
203, 3, 3, 0.089999999999999997
203, 11, 11, 300
204, 1, 1, 0.040000000000000001
204, 2, 2, 0.080000000000000002
204, 3, 3, 0.01
204, 11, 11, 300
205, 1, 1, -0.02
205, 2, 2, 0.059999999999999998
205, 3, 3, 0.040000000000000001
205, 11, 11, 300
206, 1, 1, 0.059999999999999998
206, 2, 2, -0.029999999999999999
206, 3, 3, 0.11
206, 11, 11, 300
207, 1, 1, 0.14000000000000001
207, 2, 2, 0.12
207, 3, 3, 0.070000000000000007
207, 11, 11, 300
208, 1, 1, 0.01
208, 2, 2, 0.029999999999999999
208, 3, 3, 0.16
208, 11, 11, 300
209, 1, 1, 0.01
209, 2, 2, -0.02
209, 3, 3, 0.029999999999999999
209, 11, 11, 300
210, 1, 1, -0.029999999999999999
210, 2, 2, 0.040000000000000001
210, 3, 3, 0.050000000000000003
210, 11, 11, 300
211, 1, 1, 0.080000000000000002
211, 2, 2, -0.01
211, 3, 3, 0.089999999999999997
211, 11, 11, 304
212, 1, 1, 0.040000000000000001
212, 2, 2, 0.080000000000000002
212, 3, 3, 0.01
212, 11, 11, 300
213, 1, 1, -0.02
213, 2, 2, 0.059999999999999998
213, 3, 3, 0.040000000000000001
213, 11, 11, 300
214, 1, 1, 0.059999999999999998
214, 2, 2, -0.029999999999999999
214, 3, 3, 0.11
214, 11, 11, 300
215, 1, 1, 0.14000000000000001
215, 2, 2, 0.12
215, 3, 3, 0.070000000000000007
215, 11, 11, 300
216, 1, 1, 0.01
216, 2, 2, 0.029999999999999999
216, 3, 3, 0.16
216, 11, 11, 300
217, 1, 1, 0.01
217, 2, 2, -0.02
217, 3, 3, 0.029999999999999999
217, 11, 11, 300
218, 1, 1, -0.029999999999999999
218, 2, 2, 0.040000000000000001
218, 3, 3, 0.050000000000000003
218, 11, 11, 300
219, 1, 1, 0.080000000000000002
219, 2, 2, -0.01
219, 3, 3, 0.089999999999999997
219, 11, 11, 300
220, 1, 1, 0.040000000000000001
220, 2, 2, 0.080000000000000002
220, 3, 3, 0.01
220, 11, 11, 304
221, 1, 1, -0.02
221, 2, 2, 0.059999999999999998
221, 3, 3, 0.040000000000000001
221, 11, 11, 300
222, 1, 1, 0.059999999999999998
222, 2, 2, -0.029999999999999999
222, 3, 3, 0.11
222, 11, 11, 300
223, 1, 1, 0.14000000000000001
223, 2, 2, 0.12
223, 3, 3, 0.070000000000000007
223, 11, 11, 300
224, 1, 1, 0.01
224, 2, 2, 0.029999999999999999
224, 3, 3, 0.16
224, 11, 11, 300
225, 1, 1, 0.01
225, 2, 2, -0.02
225, 3, 3, 0.029999999999999999
225, 11, 11, 300
226, 1, 1, -0.029999999999999999
226, 2, 2, 0.040000000000000001
226, 3, 3, 0.050000000000000003
226, 11, 11, 300
227, 1, 1, 0.080000000000000002
227, 2, 2, -0.01
227, 3, 3, 0.089999999999999997
227, 11, 11, 300
228, 1, 1, 0.040000000000000001
228, 2, 2, 0.080000000000000002
228, 3, 3, 0.01
228, 11, 11, 300
229, 1, 1, -0.02
229, 2, 2, 0.059999999999999998
229, 3, 3, 0.040000000000000001
229, 11, 11, 304
230, 1, 1, 0.059999999999999998
230, 2, 2, -0.029999999999999999
230, 3, 3, 0.11
230, 11, 11, 300
231, 1, 1, 0.14000000000000001
231, 2, 2, 0.12
231, 3, 3, 0.070000000000000007
231, 11, 11, 300
232, 1, 1, 0.01
232, 2, 2, 0.029999999999999999
232, 3, 3, 0.16
232, 11, 11, 300
233, 1, 1, 0.01
233, 2, 2, -0.02
233, 3, 3, 0.029999999999999999
233, 11, 11, 300
234, 1, 1, -0.029999999999999999
234, 2, 2, 0.040000000000000001
234, 3, 3, 0.050000000000000003
234, 11, 11, 300
235, 1, 1, 0.080000000000000002
235, 2, 2, -0.01
235, 3, 3, 0.089999999999999997
235, 11, 11, 300
236, 1, 1, 0.040000000000000001
236, 2, 2, 0.080000000000000002
236, 3, 3, 0.01
236, 11, 11, 300
237, 1, 1, -0.02
237, 2, 2, 0.059999999999999998
237, 3, 3, 0.040000000000000001
237, 11, 11, 300
238, 1, 1, 0.059999999999999998
238, 2, 2, -0.029999999999999999
238, 3, 3, 0.11
238, 11, 11, 304
239, 1, 1, 0.14000000000000001
239, 2, 2, 0.12
239, 3, 3, 0.070000000000000007
239, 11, 11, 300
240, 1, 1, 0.01
240, 2, 2, 0.029999999999999999
240, 3, 3, 0.16
240, 11, 11, 300
241, 1, 1, 0.01
241, 2, 2, -0.02
241, 3, 3, 0.029999999999999999
241, 11, 11, 300
242, 1, 1, -0.029999999999999999
242, 2, 2, 0.040000000000000001
242, 3, 3, 0.050000000000000003
242, 11, 11, 300
243, 1, 1, 0.080000000000000002
243, 2, 2, -0.01
243, 3, 3, 0.089999999999999997
243, 11, 11, 300
244, 1, 1, 0.040000000000000001
244, 2, 2, 0.080000000000000002
244, 3, 3, 0.01
244, 11, 11, 300
245, 1, 1, -0.02
245, 2, 2, 0.059999999999999998
245, 3, 3, 0.040000000000000001
245, 11, 11, 300
246, 1, 1, 0.059999999999999998
246, 2, 2, -0.029999999999999999
246, 3, 3, 0.11
246, 11, 11, 300
247, 1, 1, 0.14000000000000001
247, 2, 2, 0.12
247, 3, 3, 0.070000000000000007
247, 11, 11, 304
248, 1, 1, 0.01
248, 2, 2, 0.029999999999999999
248, 3, 3, 0.16
248, 11, 11, 300
249, 1, 1, 0.01
249, 2, 2, -0.02
249, 3, 3, 0.029999999999999999
249, 11, 11, 300
250, 1, 1, -0.029999999999999999
250, 2, 2, 0.040000000000000001
250, 3, 3, 0.050000000000000003
250, 11, 11, 300
251, 1, 1, 0.080000000000000002
251, 2, 2, -0.01
251, 3, 3, 0.089999999999999997
251, 11, 11, 300
252, 1, 1, 0.040000000000000001
252, 2, 2, 0.080000000000000002
252, 3, 3, 0.01
252, 11, 11, 300
253, 1, 1, -0.02
253, 2, 2, 0.059999999999999998
253, 3, 3, 0.040000000000000001
253, 11, 11, 300
254, 1, 1, 0.059999999999999998
254, 2, 2, -0.029999999999999999
254, 3, 3, 0.11
254, 11, 11, 300
255, 1, 1, 0.14000000000000001
255, 2, 2, 0.12
255, 3, 3, 0.070000000000000007
255, 11, 11, 300
256, 1, 1, 0.01
256, 2, 2, 0.029999999999999999
256, 3, 3, 0.16
256, 11, 11, 304
257, 1, 1, 0.01
257, 2, 2, -0.02
257, 3, 3, 0.029999999999999999
257, 11, 11, 314
258, 1, 1, -0.029999999999999999
258, 2, 2, 0.040000000000000001
258, 3, 3, 0.050000000000000003
258, 11, 11, 330
259, 1, 1, 0.080000000000000002
259, 2, 2, -0.01
259, 3, 3, 0.089999999999999997
259, 11, 11, 350
260, 1, 1, 0.040000000000000001
260, 2, 2, 0.080000000000000002
260, 3, 3, 0.01
260, 11, 11, 370
261, 1, 1, -0.02
261, 2, 2, 0.059999999999999998
261, 3, 3, 0.040000000000000001
261, 11, 11, 390
262, 1, 1, 0.059999999999999998
262, 2, 2, -0.029999999999999999
262, 3, 3, 0.11
262, 11, 11, 410
263, 1, 1, 0.14000000000000001
263, 2, 2, 0.12
263, 3, 3, 0.070000000000000007
263, 11, 11, 430
264, 1, 1, 0.01
264, 2, 2, 0.029999999999999999
264, 3, 3, 0.16
264, 11, 11, 450
265, 1, 1, 0.01
265, 2, 2, -0.02
265, 3, 3, 0.029999999999999999
265, 11, 11, 310
266, 1, 1, -0.029999999999999999
266, 2, 2, 0.040000000000000001
266, 3, 3, 0.050000000000000003
266, 11, 11, 334
267, 1, 1, 0.080000000000000002
267, 2, 2, -0.01
267, 3, 3, 0.089999999999999997
267, 11, 11, 350
268, 1, 1, 0.040000000000000001
268, 2, 2, 0.080000000000000002
268, 3, 3, 0.01
268, 11, 11, 370
269, 1, 1, -0.02
269, 2, 2, 0.059999999999999998
269, 3, 3, 0.040000000000000001
269, 11, 11, 390
270, 1, 1, 0.059999999999999998
270, 2, 2, -0.029999999999999999
270, 3, 3, 0.11
270, 11, 11, 410
271, 1, 1, 0.14000000000000001
271, 2, 2, 0.12
271, 3, 3, 0.070000000000000007
271, 11, 11, 430
272, 1, 1, 0.01
272, 2, 2, 0.029999999999999999
272, 3, 3, 0.16
272, 11, 11, 450
273, 1, 1, 0.01
273, 2, 2, -0.02
273, 3, 3, 0.029999999999999999
273, 11, 11, 310
274, 1, 1, -0.029999999999999999
274, 2, 2, 0.040000000000000001
274, 3, 3, 0.050000000000000003
274, 11, 11, 330
275, 1, 1, 0.080000000000000002
275, 2, 2, -0.01
275, 3, 3, 0.089999999999999997
275, 11, 11, 354
276, 1, 1, 0.040000000000000001
276, 2, 2, 0.080000000000000002
276, 3, 3, 0.01
276, 11, 11, 370
277, 1, 1, -0.02
277, 2, 2, 0.059999999999999998
277, 3, 3, 0.040000000000000001
277, 11, 11, 390
278, 1, 1, 0.059999999999999998
278, 2, 2, -0.029999999999999999
278, 3, 3, 0.11
278, 11, 11, 410
279, 1, 1, 0.14000000000000001
279, 2, 2, 0.12
279, 3, 3, 0.070000000000000007
279, 11, 11, 430
280, 1, 1, 0.01
280, 2, 2, 0.029999999999999999
280, 3, 3, 0.16
280, 11, 11, 450
281, 1, 1, 0.01
281, 2, 2, -0.02
281, 3, 3, 0.029999999999999999
281, 11, 11, 310
282, 1, 1, -0.029999999999999999
282, 2, 2, 0.040000000000000001
282, 3, 3, 0.050000000000000003
282, 11, 11, 330
283, 1, 1, 0.080000000000000002
283, 2, 2, -0.01
283, 3, 3, 0.089999999999999997
283, 11, 11, 350
284, 1, 1, 0.040000000000000001
284, 2, 2, 0.080000000000000002
284, 3, 3, 0.01
284, 11, 11, 374
285, 1, 1, -0.02
285, 2, 2, 0.059999999999999998
285, 3, 3, 0.040000000000000001
285, 11, 11, 390
286, 1, 1, 0.059999999999999998
286, 2, 2, -0.029999999999999999
286, 3, 3, 0.11
286, 11, 11, 410
287, 1, 1, 0.14000000000000001
287, 2, 2, 0.12
287, 3, 3, 0.070000000000000007
287, 11, 11, 430
288, 1, 1, 0.01
288, 2, 2, 0.029999999999999999
288, 3, 3, 0.16
288, 11, 11, 450
289, 1, 1, 0.01
289, 2, 2, -0.02
289, 3, 3, 0.029999999999999999
289, 11, 11, 310
290, 1, 1, -0.029999999999999999
290, 2, 2, 0.040000000000000001
290, 3, 3, 0.050000000000000003
290, 11, 11, 330
291, 1, 1, 0.080000000000000002
291, 2, 2, -0.01
291, 3, 3, 0.089999999999999997
291, 11, 11, 350
292, 1, 1, 0.040000000000000001
292, 2, 2, 0.080000000000000002
292, 3, 3, 0.01
292, 11, 11, 370
293, 1, 1, -0.02
293, 2, 2, 0.059999999999999998
293, 3, 3, 0.040000000000000001
293, 11, 11, 394
294, 1, 1, 0.059999999999999998
294, 2, 2, -0.029999999999999999
294, 3, 3, 0.11
294, 11, 11, 410
295, 1, 1, 0.14000000000000001
295, 2, 2, 0.12
295, 3, 3, 0.070000000000000007
295, 11, 11, 430
296, 1, 1, 0.01
296, 2, 2, 0.029999999999999999
296, 3, 3, 0.16
296, 11, 11, 450
297, 1, 1, 0.01
297, 2, 2, -0.02
297, 3, 3, 0.029999999999999999
297, 11, 11, 310
298, 1, 1, -0.029999999999999999
298, 2, 2, 0.040000000000000001
298, 3, 3, 0.050000000000000003
298, 11, 11, 330
299, 1, 1, 0.080000000000000002
299, 2, 2, -0.01
299, 3, 3, 0.089999999999999997
299, 11, 11, 350
300, 1, 1, 0.040000000000000001
300, 2, 2, 0.080000000000000002
300, 3, 3, 0.01
300, 11, 11, 370
301, 1, 1, -0.02
301, 2, 2, 0.059999999999999998
301, 3, 3, 0.040000000000000001
301, 11, 11, 390
302, 1, 1, 0.059999999999999998
302, 2, 2, -0.029999999999999999
302, 3, 3, 0.11
302, 11, 11, 414
303, 1, 1, 0.14000000000000001
303, 2, 2, 0.12
303, 3, 3, 0.070000000000000007
303, 11, 11, 430
304, 1, 1, 0.01
304, 2, 2, 0.029999999999999999
304, 3, 3, 0.16
304, 11, 11, 450
305, 1, 1, 0.01
305, 2, 2, -0.02
305, 3, 3, 0.029999999999999999
305, 11, 11, 310
306, 1, 1, -0.029999999999999999
306, 2, 2, 0.040000000000000001
306, 3, 3, 0.050000000000000003
306, 11, 11, 330
307, 1, 1, 0.080000000000000002
307, 2, 2, -0.01
307, 3, 3, 0.089999999999999997
307, 11, 11, 350
308, 1, 1, 0.040000000000000001
308, 2, 2, 0.080000000000000002
308, 3, 3, 0.01
308, 11, 11, 370
309, 1, 1, -0.02
309, 2, 2, 0.059999999999999998
309, 3, 3, 0.040000000000000001
309, 11, 11, 390
310, 1, 1, 0.059999999999999998
310, 2, 2, -0.029999999999999999
310, 3, 3, 0.11
310, 11, 11, 410
311, 1, 1, 0.14000000000000001
311, 2, 2, 0.12
311, 3, 3, 0.070000000000000007
311, 11, 11, 434
312, 1, 1, 0.01
312, 2, 2, 0.029999999999999999
312, 3, 3, 0.16
312, 11, 11, 450
313, 1, 1, 0.01
313, 2, 2, -0.02
313, 3, 3, 0.029999999999999999
313, 11, 11, 310
314, 1, 1, -0.029999999999999999
314, 2, 2, 0.040000000000000001
314, 3, 3, 0.050000000000000003
314, 11, 11, 330
315, 1, 1, 0.080000000000000002
315, 2, 2, -0.01
315, 3, 3, 0.089999999999999997
315, 11, 11, 350
316, 1, 1, 0.040000000000000001
316, 2, 2, 0.080000000000000002
316, 3, 3, 0.01
316, 11, 11, 370
317, 1, 1, -0.02
317, 2, 2, 0.059999999999999998
317, 3, 3, 0.040000000000000001
317, 11, 11, 390
318, 1, 1, 0.059999999999999998
318, 2, 2, -0.029999999999999999
318, 3, 3, 0.11
318, 11, 11, 410
319, 1, 1, 0.14000000000000001
319, 2, 2, 0.12
319, 3, 3, 0.070000000000000007
319, 11, 11, 430
320, 1, 1, 0.01
320, 2, 2, 0.029999999999999999
320, 3, 3, 0.16
320, 11, 11, 454
321, 1, 1, 0.01
321, 2, 2, -0.02
321, 3, 3, 0.029999999999999999
321, 11, 11, 314
322, 1, 1, -0.029999999999999999
322, 2, 2, 0.040000000000000001
322, 3, 3, 0.050000000000000003
322, 11, 11, 330
323, 1, 1, 0.080000000000000002
323, 2, 2, -0.01
323, 3, 3, 0.089999999999999997
323, 11, 11, 350
324, 1, 1, 0.040000000000000001
324, 2, 2, 0.080000000000000002
324, 3, 3, 0.01
324, 11, 11, 370
325, 1, 1, -0.02
325, 2, 2, 0.059999999999999998
325, 3, 3, 0.040000000000000001
325, 11, 11, 390
326, 1, 1, 0.059999999999999998
326, 2, 2, -0.029999999999999999
326, 3, 3, 0.11
326, 11, 11, 410
327, 1, 1, 0.14000000000000001
327, 2, 2, 0.12
327, 3, 3, 0.070000000000000007
327, 11, 11, 430
328, 1, 1, 0.01
328, 2, 2, 0.029999999999999999
328, 3, 3, 0.16
328, 11, 11, 450
329, 1, 1, 0.01
329, 2, 2, -0.02
329, 3, 3, 0.029999999999999999
329, 11, 11, 310
330, 1, 1, -0.029999999999999999
330, 2, 2, 0.040000000000000001
330, 3, 3, 0.050000000000000003
330, 11, 11, 334
331, 1, 1, 0.080000000000000002
331, 2, 2, -0.01
331, 3, 3, 0.089999999999999997
331, 11, 11, 350
332, 1, 1, 0.040000000000000001
332, 2, 2, 0.080000000000000002
332, 3, 3, 0.01
332, 11, 11, 370
333, 1, 1, -0.02
333, 2, 2, 0.059999999999999998
333, 3, 3, 0.040000000000000001
333, 11, 11, 390
334, 1, 1, 0.059999999999999998
334, 2, 2, -0.029999999999999999
334, 3, 3, 0.11
334, 11, 11, 410
335, 1, 1, 0.14000000000000001
335, 2, 2, 0.12
335, 3, 3, 0.070000000000000007
335, 11, 11, 430
336, 1, 1, 0.01
336, 2, 2, 0.029999999999999999
336, 3, 3, 0.16
336, 11, 11, 450
337, 1, 1, 0.01
337, 2, 2, -0.02
337, 3, 3, 0.029999999999999999
337, 11, 11, 310
338, 1, 1, -0.029999999999999999
338, 2, 2, 0.040000000000000001
338, 3, 3, 0.050000000000000003
338, 11, 11, 330
339, 1, 1, 0.080000000000000002
339, 2, 2, -0.01
339, 3, 3, 0.089999999999999997
339, 11, 11, 354
340, 1, 1, 0.040000000000000001
340, 2, 2, 0.080000000000000002
340, 3, 3, 0.01
340, 11, 11, 370
341, 1, 1, -0.02
341, 2, 2, 0.059999999999999998
341, 3, 3, 0.040000000000000001
341, 11, 11, 390
342, 1, 1, 0.059999999999999998
342, 2, 2, -0.029999999999999999
342, 3, 3, 0.11
342, 11, 11, 410
343, 1, 1, 0.14000000000000001
343, 2, 2, 0.12
343, 3, 3, 0.070000000000000007
343, 11, 11, 430
344, 1, 1, 0.01
344, 2, 2, 0.029999999999999999
344, 3, 3, 0.16
344, 11, 11, 450
345, 1, 1, 0.01
345, 2, 2, -0.02
345, 3, 3, 0.029999999999999999
345, 11, 11, 310
346, 1, 1, -0.029999999999999999
346, 2, 2, 0.040000000000000001
346, 3, 3, 0.050000000000000003
346, 11, 11, 330
347, 1, 1, 0.080000000000000002
347, 2, 2, -0.01
347, 3, 3, 0.089999999999999997
347, 11, 11, 350
348, 1, 1, 0.040000000000000001
348, 2, 2, 0.080000000000000002
348, 3, 3, 0.01
348, 11, 11, 374
349, 1, 1, -0.02
349, 2, 2, 0.059999999999999998
349, 3, 3, 0.040000000000000001
349, 11, 11, 390
350, 1, 1, 0.059999999999999998
350, 2, 2, -0.029999999999999999
350, 3, 3, 0.11
350, 11, 11, 410
351, 1, 1, 0.14000000000000001
351, 2, 2, 0.12
351, 3, 3, 0.070000000000000007
351, 11, 11, 430
352, 1, 1, 0.01
352, 2, 2, 0.029999999999999999
352, 3, 3, 0.16
352, 11, 11, 450
353, 1, 1, 0.01
353, 2, 2, -0.02
353, 3, 3, 0.029999999999999999
353, 11, 11, 310
354, 1, 1, -0.029999999999999999
354, 2, 2, 0.040000000000000001
354, 3, 3, 0.050000000000000003
354, 11, 11, 330
355, 1, 1, 0.080000000000000002
355, 2, 2, -0.01
355, 3, 3, 0.089999999999999997
355, 11, 11, 350
356, 1, 1, 0.040000000000000001
356, 2, 2, 0.080000000000000002
356, 3, 3, 0.01
356, 11, 11, 370
357, 1, 1, -0.02
357, 2, 2, 0.059999999999999998
357, 3, 3, 0.040000000000000001
357, 11, 11, 394
358, 1, 1, 0.059999999999999998
358, 2, 2, -0.029999999999999999
358, 3, 3, 0.11
358, 11, 11, 410
359, 1, 1, 0.14000000000000001
359, 2, 2, 0.12
359, 3, 3, 0.070000000000000007
359, 11, 11, 430
360, 1, 1, 0.01
360, 2, 2, 0.029999999999999999
360, 3, 3, 0.16
360, 11, 11, 450
361, 1, 1, 0.01
361, 2, 2, -0.02
361, 3, 3, 0.029999999999999999
361, 11, 11, 310
362, 1, 1, -0.029999999999999999
362, 2, 2, 0.040000000000000001
362, 3, 3, 0.050000000000000003
362, 11, 11, 330
363, 1, 1, 0.080000000000000002
363, 2, 2, -0.01
363, 3, 3, 0.089999999999999997
363, 11, 11, 350
364, 1, 1, 0.040000000000000001
364, 2, 2, 0.080000000000000002
364, 3, 3, 0.01
364, 11, 11, 370
365, 1, 1, -0.02
365, 2, 2, 0.059999999999999998
365, 3, 3, 0.040000000000000001
365, 11, 11, 390
366, 1, 1, 0.059999999999999998
366, 2, 2, -0.029999999999999999
366, 3, 3, 0.11
366, 11, 11, 414
367, 1, 1, 0.14000000000000001
367, 2, 2, 0.12
367, 3, 3, 0.070000000000000007
367, 11, 11, 430
368, 1, 1, 0.01
368, 2, 2, 0.029999999999999999
368, 3, 3, 0.16
368, 11, 11, 450
369, 1, 1, 0.01
369, 2, 2, -0.02
369, 3, 3, 0.029999999999999999
369, 11, 11, 310
370, 1, 1, -0.029999999999999999
370, 2, 2, 0.040000000000000001
370, 3, 3, 0.050000000000000003
370, 11, 11, 330
371, 1, 1, 0.080000000000000002
371, 2, 2, -0.01
371, 3, 3, 0.089999999999999997
371, 11, 11, 350
372, 1, 1, 0.040000000000000001
372, 2, 2, 0.080000000000000002
372, 3, 3, 0.01
372, 11, 11, 370
373, 1, 1, -0.02
373, 2, 2, 0.059999999999999998
373, 3, 3, 0.040000000000000001
373, 11, 11, 390
374, 1, 1, 0.059999999999999998
374, 2, 2, -0.029999999999999999
374, 3, 3, 0.11
374, 11, 11, 410
375, 1, 1, 0.14000000000000001
375, 2, 2, 0.12
375, 3, 3, 0.070000000000000007
375, 11, 11, 434
376, 1, 1, 0.01
376, 2, 2, 0.029999999999999999
376, 3, 3, 0.16
376, 11, 11, 450
377, 1, 1, 0.01
377, 2, 2, -0.02
377, 3, 3, 0.029999999999999999
377, 11, 11, 310
378, 1, 1, -0.029999999999999999
378, 2, 2, 0.040000000000000001
378, 3, 3, 0.050000000000000003
378, 11, 11, 330
379, 1, 1, 0.080000000000000002
379, 2, 2, -0.01
379, 3, 3, 0.089999999999999997
379, 11, 11, 350
380, 1, 1, 0.040000000000000001
380, 2, 2, 0.080000000000000002
380, 3, 3, 0.01
380, 11, 11, 370
381, 1, 1, -0.02
381, 2, 2, 0.059999999999999998
381, 3, 3, 0.040000000000000001
381, 11, 11, 390
382, 1, 1, 0.059999999999999998
382, 2, 2, -0.029999999999999999
382, 3, 3, 0.11
382, 11, 11, 410
383, 1, 1, 0.14000000000000001
383, 2, 2, 0.12
383, 3, 3, 0.070000000000000007
383, 11, 11, 430
384, 1, 1, 0.01
384, 2, 2, 0.029999999999999999
384, 3, 3, 0.16
384, 11, 11, 454
385, 1, 1, 0.01
385, 2, 2, -0.02
385, 3, 3, 0.029999999999999999
385, 11, 11, 304
386, 1, 1, -0.029999999999999999
386, 2, 2, 0.040000000000000001
386, 3, 3, 0.050000000000000003
386, 11, 11, 300
387, 1, 1, 0.080000000000000002
387, 2, 2, -0.01
387, 3, 3, 0.089999999999999997
387, 11, 11, 300
388, 1, 1, 0.040000000000000001
388, 2, 2, 0.080000000000000002
388, 3, 3, 0.01
388, 11, 11, 300
389, 1, 1, -0.02
389, 2, 2, 0.059999999999999998
389, 3, 3, 0.040000000000000001
389, 11, 11, 300
390, 1, 1, 0.059999999999999998
390, 2, 2, -0.029999999999999999
390, 3, 3, 0.11
390, 11, 11, 300
391, 1, 1, 0.14000000000000001
391, 2, 2, 0.12
391, 3, 3, 0.070000000000000007
391, 11, 11, 300
392, 1, 1, 0.01
392, 2, 2, 0.029999999999999999
392, 3, 3, 0.16
392, 11, 11, 300
393, 1, 1, 0.01
393, 2, 2, -0.02
393, 3, 3, 0.029999999999999999
393, 11, 11, 300
394, 1, 1, -0.029999999999999999
394, 2, 2, 0.040000000000000001
394, 3, 3, 0.050000000000000003
394, 11, 11, 304
395, 1, 1, 0.080000000000000002
395, 2, 2, -0.01
395, 3, 3, 0.089999999999999997
395, 11, 11, 300
396, 1, 1, 0.040000000000000001
396, 2, 2, 0.080000000000000002
396, 3, 3, 0.01
396, 11, 11, 300
397, 1, 1, -0.02
397, 2, 2, 0.059999999999999998
397, 3, 3, 0.040000000000000001
397, 11, 11, 300
398, 1, 1, 0.059999999999999998
398, 2, 2, -0.029999999999999999
398, 3, 3, 0.11
398, 11, 11, 300
399, 1, 1, 0.14000000000000001
399, 2, 2, 0.12
399, 3, 3, 0.070000000000000007
399, 11, 11, 300
400, 1, 1, 0.01
400, 2, 2, 0.029999999999999999
400, 3, 3, 0.16
400, 11, 11, 300
401, 1, 1, 0.01
401, 2, 2, -0.02
401, 3, 3, 0.029999999999999999
401, 11, 11, 300
402, 1, 1, -0.029999999999999999
402, 2, 2, 0.040000000000000001
402, 3, 3, 0.050000000000000003
402, 11, 11, 300
403, 1, 1, 0.080000000000000002
403, 2, 2, -0.01
403, 3, 3, 0.089999999999999997
403, 11, 11, 304
404, 1, 1, 0.040000000000000001
404, 2, 2, 0.080000000000000002
404, 3, 3, 0.01
404, 11, 11, 300
405, 1, 1, -0.02
405, 2, 2, 0.059999999999999998
405, 3, 3, 0.040000000000000001
405, 11, 11, 300
406, 1, 1, 0.059999999999999998
406, 2, 2, -0.029999999999999999
406, 3, 3, 0.11
406, 11, 11, 300
407, 1, 1, 0.14000000000000001
407, 2, 2, 0.12
407, 3, 3, 0.070000000000000007
407, 11, 11, 300
408, 1, 1, 0.01
408, 2, 2, 0.029999999999999999
408, 3, 3, 0.16
408, 11, 11, 300
409, 1, 1, 0.01
409, 2, 2, -0.02
409, 3, 3, 0.029999999999999999
409, 11, 11, 300
410, 1, 1, -0.029999999999999999
410, 2, 2, 0.040000000000000001
410, 3, 3, 0.050000000000000003
410, 11, 11, 300
411, 1, 1, 0.080000000000000002
411, 2, 2, -0.01
411, 3, 3, 0.089999999999999997
411, 11, 11, 300
412, 1, 1, 0.040000000000000001
412, 2, 2, 0.080000000000000002
412, 3, 3, 0.01
412, 11, 11, 304
413, 1, 1, -0.02
413, 2, 2, 0.059999999999999998
413, 3, 3, 0.040000000000000001
413, 11, 11, 300
414, 1, 1, 0.059999999999999998
414, 2, 2, -0.029999999999999999
414, 3, 3, 0.11
414, 11, 11, 300
415, 1, 1, 0.14000000000000001
415, 2, 2, 0.12
415, 3, 3, 0.070000000000000007
415, 11, 11, 300
416, 1, 1, 0.01
416, 2, 2, 0.029999999999999999
416, 3, 3, 0.16
416, 11, 11, 300
417, 1, 1, 0.01
417, 2, 2, -0.02
417, 3, 3, 0.029999999999999999
417, 11, 11, 300
418, 1, 1, -0.029999999999999999
418, 2, 2, 0.040000000000000001
418, 3, 3, 0.050000000000000003
418, 11, 11, 300
419, 1, 1, 0.080000000000000002
419, 2, 2, -0.01
419, 3, 3, 0.089999999999999997
419, 11, 11, 300
420, 1, 1, 0.040000000000000001
420, 2, 2, 0.080000000000000002
420, 3, 3, 0.01
420, 11, 11, 300
421, 1, 1, -0.02
421, 2, 2, 0.059999999999999998
421, 3, 3, 0.040000000000000001
421, 11, 11, 304
422, 1, 1, 0.059999999999999998
422, 2, 2, -0.029999999999999999
422, 3, 3, 0.11
422, 11, 11, 300
423, 1, 1, 0.14000000000000001
423, 2, 2, 0.12
423, 3, 3, 0.070000000000000007
423, 11, 11, 300
424, 1, 1, 0.01
424, 2, 2, 0.029999999999999999
424, 3, 3, 0.16
424, 11, 11, 300
425, 1, 1, 0.01
425, 2, 2, -0.02
425, 3, 3, 0.029999999999999999
425, 11, 11, 300
426, 1, 1, -0.029999999999999999
426, 2, 2, 0.040000000000000001
426, 3, 3, 0.050000000000000003
426, 11, 11, 300
427, 1, 1, 0.080000000000000002
427, 2, 2, -0.01
427, 3, 3, 0.089999999999999997
427, 11, 11, 300
428, 1, 1, 0.040000000000000001
428, 2, 2, 0.080000000000000002
428, 3, 3, 0.01
428, 11, 11, 300
429, 1, 1, -0.02
429, 2, 2, 0.059999999999999998
429, 3, 3, 0.040000000000000001
429, 11, 11, 300
430, 1, 1, 0.059999999999999998
430, 2, 2, -0.029999999999999999
430, 3, 3, 0.11
430, 11, 11, 304
431, 1, 1, 0.14000000000000001
431, 2, 2, 0.12
431, 3, 3, 0.070000000000000007
431, 11, 11, 300
432, 1, 1, 0.01
432, 2, 2, 0.029999999999999999
432, 3, 3, 0.16
432, 11, 11, 300
433, 1, 1, 0.01
433, 2, 2, -0.02
433, 3, 3, 0.029999999999999999
433, 11, 11, 300
434, 1, 1, -0.029999999999999999
434, 2, 2, 0.040000000000000001
434, 3, 3, 0.050000000000000003
434, 11, 11, 300
435, 1, 1, 0.080000000000000002
435, 2, 2, -0.01
435, 3, 3, 0.089999999999999997
435, 11, 11, 300
436, 1, 1, 0.040000000000000001
436, 2, 2, 0.080000000000000002
436, 3, 3, 0.01
436, 11, 11, 300
437, 1, 1, -0.02
437, 2, 2, 0.059999999999999998
437, 3, 3, 0.040000000000000001
437, 11, 11, 300
438, 1, 1, 0.059999999999999998
438, 2, 2, -0.029999999999999999
438, 3, 3, 0.11
438, 11, 11, 300
439, 1, 1, 0.14000000000000001
439, 2, 2, 0.12
439, 3, 3, 0.070000000000000007
439, 11, 11, 304
440, 1, 1, 0.01
440, 2, 2, 0.029999999999999999
440, 3, 3, 0.16
440, 11, 11, 300
441, 1, 1, 0.01
441, 2, 2, -0.02
441, 3, 3, 0.029999999999999999
441, 11, 11, 300
442, 1, 1, -0.029999999999999999
442, 2, 2, 0.040000000000000001
442, 3, 3, 0.050000000000000003
442, 11, 11, 300
443, 1, 1, 0.080000000000000002
443, 2, 2, -0.01
443, 3, 3, 0.089999999999999997
443, 11, 11, 300
444, 1, 1, 0.040000000000000001
444, 2, 2, 0.080000000000000002
444, 3, 3, 0.01
444, 11, 11, 300
445, 1, 1, -0.02
445, 2, 2, 0.059999999999999998
445, 3, 3, 0.040000000000000001
445, 11, 11, 300
446, 1, 1, 0.059999999999999998
446, 2, 2, -0.029999999999999999
446, 3, 3, 0.11
446, 11, 11, 300
447, 1, 1, 0.14000000000000001
447, 2, 2, 0.12
447, 3, 3, 0.070000000000000007
447, 11, 11, 300
448, 1, 1, 0.01
448, 2, 2, 0.029999999999999999
448, 3, 3, 0.16
448, 11, 11, 304
449, 1, 1, 0.01
449, 2, 2, -0.02
449, 3, 3, 0.029999999999999999
449, 11, 11, 314
450, 1, 1, -0.029999999999999999
450, 2, 2, 0.040000000000000001
450, 3, 3, 0.050000000000000003
450, 11, 11, 330
451, 1, 1, 0.080000000000000002
451, 2, 2, -0.01
451, 3, 3, 0.089999999999999997
451, 11, 11, 350
452, 1, 1, 0.040000000000000001
452, 2, 2, 0.080000000000000002
452, 3, 3, 0.01
452, 11, 11, 370
453, 1, 1, -0.02
453, 2, 2, 0.059999999999999998
453, 3, 3, 0.040000000000000001
453, 11, 11, 390
454, 1, 1, 0.059999999999999998
454, 2, 2, -0.029999999999999999
454, 3, 3, 0.11
454, 11, 11, 410
455, 1, 1, 0.14000000000000001
455, 2, 2, 0.12
455, 3, 3, 0.070000000000000007
455, 11, 11, 430
456, 1, 1, 0.01
456, 2, 2, 0.029999999999999999
456, 3, 3, 0.16
456, 11, 11, 450
457, 1, 1, 0.01
457, 2, 2, -0.02
457, 3, 3, 0.029999999999999999
457, 11, 11, 310
458, 1, 1, -0.029999999999999999
458, 2, 2, 0.040000000000000001
458, 3, 3, 0.050000000000000003
458, 11, 11, 334
459, 1, 1, 0.080000000000000002
459, 2, 2, -0.01
459, 3, 3, 0.089999999999999997
459, 11, 11, 350
460, 1, 1, 0.040000000000000001
460, 2, 2, 0.080000000000000002
460, 3, 3, 0.01
460, 11, 11, 370
461, 1, 1, -0.02
461, 2, 2, 0.059999999999999998
461, 3, 3, 0.040000000000000001
461, 11, 11, 390
462, 1, 1, 0.059999999999999998
462, 2, 2, -0.029999999999999999
462, 3, 3, 0.11
462, 11, 11, 410
463, 1, 1, 0.14000000000000001
463, 2, 2, 0.12
463, 3, 3, 0.070000000000000007
463, 11, 11, 430
464, 1, 1, 0.01
464, 2, 2, 0.029999999999999999
464, 3, 3, 0.16
464, 11, 11, 450
465, 1, 1, 0.01
465, 2, 2, -0.02
465, 3, 3, 0.029999999999999999
465, 11, 11, 310
466, 1, 1, -0.029999999999999999
466, 2, 2, 0.040000000000000001
466, 3, 3, 0.050000000000000003
466, 11, 11, 330
467, 1, 1, 0.080000000000000002
467, 2, 2, -0.01
467, 3, 3, 0.089999999999999997
467, 11, 11, 354
468, 1, 1, 0.040000000000000001
468, 2, 2, 0.080000000000000002
468, 3, 3, 0.01
468, 11, 11, 370
469, 1, 1, -0.02
469, 2, 2, 0.059999999999999998
469, 3, 3, 0.040000000000000001
469, 11, 11, 390
470, 1, 1, 0.059999999999999998
470, 2, 2, -0.029999999999999999
470, 3, 3, 0.11
470, 11, 11, 410
471, 1, 1, 0.14000000000000001
471, 2, 2, 0.12
471, 3, 3, 0.070000000000000007
471, 11, 11, 430
472, 1, 1, 0.01
472, 2, 2, 0.029999999999999999
472, 3, 3, 0.16
472, 11, 11, 450
473, 1, 1, 0.01
473, 2, 2, -0.02
473, 3, 3, 0.029999999999999999
473, 11, 11, 310
474, 1, 1, -0.029999999999999999
474, 2, 2, 0.040000000000000001
474, 3, 3, 0.050000000000000003
474, 11, 11, 330
475, 1, 1, 0.080000000000000002
475, 2, 2, -0.01
475, 3, 3, 0.089999999999999997
475, 11, 11, 350
476, 1, 1, 0.040000000000000001
476, 2, 2, 0.080000000000000002
476, 3, 3, 0.01
476, 11, 11, 374
477, 1, 1, -0.02
477, 2, 2, 0.059999999999999998
477, 3, 3, 0.040000000000000001
477, 11, 11, 390
478, 1, 1, 0.059999999999999998
478, 2, 2, -0.029999999999999999
478, 3, 3, 0.11
478, 11, 11, 410
479, 1, 1, 0.14000000000000001
479, 2, 2, 0.12
479, 3, 3, 0.070000000000000007
479, 11, 11, 430
480, 1, 1, 0.01
480, 2, 2, 0.029999999999999999
480, 3, 3, 0.16
480, 11, 11, 450
481, 1, 1, 0.01
481, 2, 2, -0.02
481, 3, 3, 0.029999999999999999
481, 11, 11, 310
482, 1, 1, -0.029999999999999999
482, 2, 2, 0.040000000000000001
482, 3, 3, 0.050000000000000003
482, 11, 11, 330
483, 1, 1, 0.080000000000000002
483, 2, 2, -0.01
483, 3, 3, 0.089999999999999997
483, 11, 11, 350
484, 1, 1, 0.040000000000000001
484, 2, 2, 0.080000000000000002
484, 3, 3, 0.01
484, 11, 11, 370
485, 1, 1, -0.02
485, 2, 2, 0.059999999999999998
485, 3, 3, 0.040000000000000001
485, 11, 11, 394
486, 1, 1, 0.059999999999999998
486, 2, 2, -0.029999999999999999
486, 3, 3, 0.11
486, 11, 11, 410
487, 1, 1, 0.14000000000000001
487, 2, 2, 0.12
487, 3, 3, 0.070000000000000007
487, 11, 11, 430
488, 1, 1, 0.01
488, 2, 2, 0.029999999999999999
488, 3, 3, 0.16
488, 11, 11, 450
489, 1, 1, 0.01
489, 2, 2, -0.02
489, 3, 3, 0.029999999999999999
489, 11, 11, 310
490, 1, 1, -0.029999999999999999
490, 2, 2, 0.040000000000000001
490, 3, 3, 0.050000000000000003
490, 11, 11, 330
491, 1, 1, 0.080000000000000002
491, 2, 2, -0.01
491, 3, 3, 0.089999999999999997
491, 11, 11, 350
492, 1, 1, 0.040000000000000001
492, 2, 2, 0.080000000000000002
492, 3, 3, 0.01
492, 11, 11, 370
493, 1, 1, -0.02
493, 2, 2, 0.059999999999999998
493, 3, 3, 0.040000000000000001
493, 11, 11, 390
494, 1, 1, 0.059999999999999998
494, 2, 2, -0.029999999999999999
494, 3, 3, 0.11
494, 11, 11, 414
495, 1, 1, 0.14000000000000001
495, 2, 2, 0.12
495, 3, 3, 0.070000000000000007
495, 11, 11, 430
496, 1, 1, 0.01
496, 2, 2, 0.029999999999999999
496, 3, 3, 0.16
496, 11, 11, 450
497, 1, 1, 0.01
497, 2, 2, -0.02
497, 3, 3, 0.029999999999999999
497, 11, 11, 310
498, 1, 1, -0.029999999999999999
498, 2, 2, 0.040000000000000001
498, 3, 3, 0.050000000000000003
498, 11, 11, 330
499, 1, 1, 0.080000000000000002
499, 2, 2, -0.01
499, 3, 3, 0.089999999999999997
499, 11, 11, 350
500, 1, 1, 0.040000000000000001
500, 2, 2, 0.080000000000000002
500, 3, 3, 0.01
500, 11, 11, 370
501, 1, 1, -0.02
501, 2, 2, 0.059999999999999998
501, 3, 3, 0.040000000000000001
501, 11, 11, 390
502, 1, 1, 0.059999999999999998
502, 2, 2, -0.029999999999999999
502, 3, 3, 0.11
502, 11, 11, 410
503, 1, 1, 0.14000000000000001
503, 2, 2, 0.12
503, 3, 3, 0.070000000000000007
503, 11, 11, 434
504, 1, 1, 0.01
504, 2, 2, 0.029999999999999999
504, 3, 3, 0.16
504, 11, 11, 450
505, 1, 1, 0.01
505, 2, 2, -0.02
505, 3, 3, 0.029999999999999999
505, 11, 11, 310
506, 1, 1, -0.029999999999999999
506, 2, 2, 0.040000000000000001
506, 3, 3, 0.050000000000000003
506, 11, 11, 330
507, 1, 1, 0.080000000000000002
507, 2, 2, -0.01
507, 3, 3, 0.089999999999999997
507, 11, 11, 350
508, 1, 1, 0.040000000000000001
508, 2, 2, 0.080000000000000002
508, 3, 3, 0.01
508, 11, 11, 370
509, 1, 1, -0.02
509, 2, 2, 0.059999999999999998
509, 3, 3, 0.040000000000000001
509, 11, 11, 390
510, 1, 1, 0.059999999999999998
510, 2, 2, -0.029999999999999999
510, 3, 3, 0.11
510, 11, 11, 410
511, 1, 1, 0.14000000000000001
511, 2, 2, 0.12
511, 3, 3, 0.070000000000000007
511, 11, 11, 430
512, 1, 1, 0.01
512, 2, 2, 0.029999999999999999
512, 3, 3, 0.16
512, 11, 11, 454
513, 1, 1, 0.01
513, 2, 2, -0.02
513, 3, 3, 0.029999999999999999
513, 11, 11, 314
514, 1, 1, -0.029999999999999999
514, 2, 2, 0.040000000000000001
514, 3, 3, 0.050000000000000003
514, 11, 11, 330
515, 1, 1, 0.080000000000000002
515, 2, 2, -0.01
515, 3, 3, 0.089999999999999997
515, 11, 11, 350
516, 1, 1, 0.040000000000000001
516, 2, 2, 0.080000000000000002
516, 3, 3, 0.01
516, 11, 11, 370
517, 1, 1, -0.02
517, 2, 2, 0.059999999999999998
517, 3, 3, 0.040000000000000001
517, 11, 11, 390
518, 1, 1, 0.059999999999999998
518, 2, 2, -0.029999999999999999
518, 3, 3, 0.11
518, 11, 11, 410
519, 1, 1, 0.14000000000000001
519, 2, 2, 0.12
519, 3, 3, 0.070000000000000007
519, 11, 11, 430
520, 1, 1, 0.01
520, 2, 2, 0.029999999999999999
520, 3, 3, 0.16
520, 11, 11, 450
521, 1, 1, 0.01
521, 2, 2, -0.02
521, 3, 3, 0.029999999999999999
521, 11, 11, 310
522, 1, 1, -0.029999999999999999
522, 2, 2, 0.040000000000000001
522, 3, 3, 0.050000000000000003
522, 11, 11, 334
523, 1, 1, 0.080000000000000002
523, 2, 2, -0.01
523, 3, 3, 0.089999999999999997
523, 11, 11, 350
524, 1, 1, 0.040000000000000001
524, 2, 2, 0.080000000000000002
524, 3, 3, 0.01
524, 11, 11, 370
525, 1, 1, -0.02
525, 2, 2, 0.059999999999999998
525, 3, 3, 0.040000000000000001
525, 11, 11, 390
526, 1, 1, 0.059999999999999998
526, 2, 2, -0.029999999999999999
526, 3, 3, 0.11
526, 11, 11, 410
527, 1, 1, 0.14000000000000001
527, 2, 2, 0.12
527, 3, 3, 0.070000000000000007
527, 11, 11, 430
528, 1, 1, 0.01
528, 2, 2, 0.029999999999999999
528, 3, 3, 0.16
528, 11, 11, 450
529, 1, 1, 0.01
529, 2, 2, -0.02
529, 3, 3, 0.029999999999999999
529, 11, 11, 310
530, 1, 1, -0.029999999999999999
530, 2, 2, 0.040000000000000001
530, 3, 3, 0.050000000000000003
530, 11, 11, 330
531, 1, 1, 0.080000000000000002
531, 2, 2, -0.01
531, 3, 3, 0.089999999999999997
531, 11, 11, 354
532, 1, 1, 0.040000000000000001
532, 2, 2, 0.080000000000000002
532, 3, 3, 0.01
532, 11, 11, 370
533, 1, 1, -0.02
533, 2, 2, 0.059999999999999998
533, 3, 3, 0.040000000000000001
533, 11, 11, 390
534, 1, 1, 0.059999999999999998
534, 2, 2, -0.029999999999999999
534, 3, 3, 0.11
534, 11, 11, 410
535, 1, 1, 0.14000000000000001
535, 2, 2, 0.12
535, 3, 3, 0.070000000000000007
535, 11, 11, 430
536, 1, 1, 0.01
536, 2, 2, 0.029999999999999999
536, 3, 3, 0.16
536, 11, 11, 450
537, 1, 1, 0.01
537, 2, 2, -0.02
537, 3, 3, 0.029999999999999999
537, 11, 11, 310
538, 1, 1, -0.029999999999999999
538, 2, 2, 0.040000000000000001
538, 3, 3, 0.050000000000000003
538, 11, 11, 330
539, 1, 1, 0.080000000000000002
539, 2, 2, -0.01
539, 3, 3, 0.089999999999999997
539, 11, 11, 350
540, 1, 1, 0.040000000000000001
540, 2, 2, 0.080000000000000002
540, 3, 3, 0.01
540, 11, 11, 374
541, 1, 1, -0.02
541, 2, 2, 0.059999999999999998
541, 3, 3, 0.040000000000000001
541, 11, 11, 390
542, 1, 1, 0.059999999999999998
542, 2, 2, -0.029999999999999999
542, 3, 3, 0.11
542, 11, 11, 410
543, 1, 1, 0.14000000000000001
543, 2, 2, 0.12
543, 3, 3, 0.070000000000000007
543, 11, 11, 430
544, 1, 1, 0.01
544, 2, 2, 0.029999999999999999
544, 3, 3, 0.16
544, 11, 11, 450
545, 1, 1, 0.01
545, 2, 2, -0.02
545, 3, 3, 0.029999999999999999
545, 11, 11, 310
546, 1, 1, -0.029999999999999999
546, 2, 2, 0.040000000000000001
546, 3, 3, 0.050000000000000003
546, 11, 11, 330
547, 1, 1, 0.080000000000000002
547, 2, 2, -0.01
547, 3, 3, 0.089999999999999997
547, 11, 11, 350
548, 1, 1, 0.040000000000000001
548, 2, 2, 0.080000000000000002
548, 3, 3, 0.01
548, 11, 11, 370
549, 1, 1, -0.02
549, 2, 2, 0.059999999999999998
549, 3, 3, 0.040000000000000001
549, 11, 11, 394
550, 1, 1, 0.059999999999999998
550, 2, 2, -0.029999999999999999
550, 3, 3, 0.11
550, 11, 11, 410
551, 1, 1, 0.14000000000000001
551, 2, 2, 0.12
551, 3, 3, 0.070000000000000007
551, 11, 11, 430
552, 1, 1, 0.01
552, 2, 2, 0.029999999999999999
552, 3, 3, 0.16
552, 11, 11, 450
553, 1, 1, 0.01
553, 2, 2, -0.02
553, 3, 3, 0.029999999999999999
553, 11, 11, 310
554, 1, 1, -0.029999999999999999
554, 2, 2, 0.040000000000000001
554, 3, 3, 0.050000000000000003
554, 11, 11, 330
555, 1, 1, 0.080000000000000002
555, 2, 2, -0.01
555, 3, 3, 0.089999999999999997
555, 11, 11, 350
556, 1, 1, 0.040000000000000001
556, 2, 2, 0.080000000000000002
556, 3, 3, 0.01
556, 11, 11, 370
557, 1, 1, -0.02
557, 2, 2, 0.059999999999999998
557, 3, 3, 0.040000000000000001
557, 11, 11, 390
558, 1, 1, 0.059999999999999998
558, 2, 2, -0.029999999999999999
558, 3, 3, 0.11
558, 11, 11, 414
559, 1, 1, 0.14000000000000001
559, 2, 2, 0.12
559, 3, 3, 0.070000000000000007
559, 11, 11, 430
560, 1, 1, 0.01
560, 2, 2, 0.029999999999999999
560, 3, 3, 0.16
560, 11, 11, 450
561, 1, 1, 0.01
561, 2, 2, -0.02
561, 3, 3, 0.029999999999999999
561, 11, 11, 310
562, 1, 1, -0.029999999999999999
562, 2, 2, 0.040000000000000001
562, 3, 3, 0.050000000000000003
562, 11, 11, 330
563, 1, 1, 0.080000000000000002
563, 2, 2, -0.01
563, 3, 3, 0.089999999999999997
563, 11, 11, 350
564, 1, 1, 0.040000000000000001
564, 2, 2, 0.080000000000000002
564, 3, 3, 0.01
564, 11, 11, 370
565, 1, 1, -0.02
565, 2, 2, 0.059999999999999998
565, 3, 3, 0.040000000000000001
565, 11, 11, 390
566, 1, 1, 0.059999999999999998
566, 2, 2, -0.029999999999999999
566, 3, 3, 0.11
566, 11, 11, 410
567, 1, 1, 0.14000000000000001
567, 2, 2, 0.12
567, 3, 3, 0.070000000000000007
567, 11, 11, 434
568, 1, 1, 0.01
568, 2, 2, 0.029999999999999999
568, 3, 3, 0.16
568, 11, 11, 450
569, 1, 1, 0.01
569, 2, 2, -0.02
569, 3, 3, 0.029999999999999999
569, 11, 11, 310
570, 1, 1, -0.029999999999999999
570, 2, 2, 0.040000000000000001
570, 3, 3, 0.050000000000000003
570, 11, 11, 330
571, 1, 1, 0.080000000000000002
571, 2, 2, -0.01
571, 3, 3, 0.089999999999999997
571, 11, 11, 350
572, 1, 1, 0.040000000000000001
572, 2, 2, 0.080000000000000002
572, 3, 3, 0.01
572, 11, 11, 370
573, 1, 1, -0.02
573, 2, 2, 0.059999999999999998
573, 3, 3, 0.040000000000000001
573, 11, 11, 390
574, 1, 1, 0.059999999999999998
574, 2, 2, -0.029999999999999999
574, 3, 3, 0.11
574, 11, 11, 410
575, 1, 1, 0.14000000000000001
575, 2, 2, 0.12
575, 3, 3, 0.070000000000000007
575, 11, 11, 430
576, 1, 1, 0.01
576, 2, 2, 0.029999999999999999
576, 3, 3, 0.16
576, 11, 11, 454
577, 1, 1, 0.01
577, 2, 2, -0.02
577, 3, 3, 0.029999999999999999
577, 11, 11, 304
578, 1, 1, -0.029999999999999999
578, 2, 2, 0.040000000000000001
578, 3, 3, 0.050000000000000003
578, 11, 11, 300
579, 1, 1, 0.080000000000000002
579, 2, 2, -0.01
579, 3, 3, 0.089999999999999997
579, 11, 11, 300
580, 1, 1, 0.040000000000000001
580, 2, 2, 0.080000000000000002
580, 3, 3, 0.01
580, 11, 11, 300
581, 1, 1, -0.02
581, 2, 2, 0.059999999999999998
581, 3, 3, 0.040000000000000001
581, 11, 11, 300
582, 1, 1, 0.059999999999999998
582, 2, 2, -0.029999999999999999
582, 3, 3, 0.11
582, 11, 11, 300
583, 1, 1, 0.14000000000000001
583, 2, 2, 0.12
583, 3, 3, 0.070000000000000007
583, 11, 11, 300
584, 1, 1, 0.01
584, 2, 2, 0.029999999999999999
584, 3, 3, 0.16
584, 11, 11, 300
585, 1, 1, 0.01
585, 2, 2, -0.02
585, 3, 3, 0.029999999999999999
585, 11, 11, 300
586, 1, 1, -0.029999999999999999
586, 2, 2, 0.040000000000000001
586, 3, 3, 0.050000000000000003
586, 11, 11, 304
587, 1, 1, 0.080000000000000002
587, 2, 2, -0.01
587, 3, 3, 0.089999999999999997
587, 11, 11, 300
588, 1, 1, 0.040000000000000001
588, 2, 2, 0.080000000000000002
588, 3, 3, 0.01
588, 11, 11, 300
589, 1, 1, -0.02
589, 2, 2, 0.059999999999999998
589, 3, 3, 0.040000000000000001
589, 11, 11, 300
590, 1, 1, 0.059999999999999998
590, 2, 2, -0.029999999999999999
590, 3, 3, 0.11
590, 11, 11, 300
591, 1, 1, 0.14000000000000001
591, 2, 2, 0.12
591, 3, 3, 0.070000000000000007
591, 11, 11, 300
592, 1, 1, 0.01
592, 2, 2, 0.029999999999999999
592, 3, 3, 0.16
592, 11, 11, 300
593, 1, 1, 0.01
593, 2, 2, -0.02
593, 3, 3, 0.029999999999999999
593, 11, 11, 300
594, 1, 1, -0.029999999999999999
594, 2, 2, 0.040000000000000001
594, 3, 3, 0.050000000000000003
594, 11, 11, 300
595, 1, 1, 0.080000000000000002
595, 2, 2, -0.01
595, 3, 3, 0.089999999999999997
595, 11, 11, 304
596, 1, 1, 0.040000000000000001
596, 2, 2, 0.080000000000000002
596, 3, 3, 0.01
596, 11, 11, 300
597, 1, 1, -0.02
597, 2, 2, 0.059999999999999998
597, 3, 3, 0.040000000000000001
597, 11, 11, 300
598, 1, 1, 0.059999999999999998
598, 2, 2, -0.029999999999999999
598, 3, 3, 0.11
598, 11, 11, 300
599, 1, 1, 0.14000000000000001
599, 2, 2, 0.12
599, 3, 3, 0.070000000000000007
599, 11, 11, 300
600, 1, 1, 0.01
600, 2, 2, 0.029999999999999999
600, 3, 3, 0.16
600, 11, 11, 300
601, 1, 1, 0.01
601, 2, 2, -0.02
601, 3, 3, 0.029999999999999999
601, 11, 11, 300
602, 1, 1, -0.029999999999999999
602, 2, 2, 0.040000000000000001
602, 3, 3, 0.050000000000000003
602, 11, 11, 300
603, 1, 1, 0.080000000000000002
603, 2, 2, -0.01
603, 3, 3, 0.089999999999999997
603, 11, 11, 300
604, 1, 1, 0.040000000000000001
604, 2, 2, 0.080000000000000002
604, 3, 3, 0.01
604, 11, 11, 304
605, 1, 1, -0.02
605, 2, 2, 0.059999999999999998
605, 3, 3, 0.040000000000000001
605, 11, 11, 300
606, 1, 1, 0.059999999999999998
606, 2, 2, -0.029999999999999999
606, 3, 3, 0.11
606, 11, 11, 300
607, 1, 1, 0.14000000000000001
607, 2, 2, 0.12
607, 3, 3, 0.070000000000000007
607, 11, 11, 300
608, 1, 1, 0.01
608, 2, 2, 0.029999999999999999
608, 3, 3, 0.16
608, 11, 11, 300
609, 1, 1, 0.01
609, 2, 2, -0.02
609, 3, 3, 0.029999999999999999
609, 11, 11, 300
610, 1, 1, -0.029999999999999999
610, 2, 2, 0.040000000000000001
610, 3, 3, 0.050000000000000003
610, 11, 11, 300
611, 1, 1, 0.080000000000000002
611, 2, 2, -0.01
611, 3, 3, 0.089999999999999997
611, 11, 11, 300
612, 1, 1, 0.040000000000000001
612, 2, 2, 0.080000000000000002
612, 3, 3, 0.01
612, 11, 11, 300
613, 1, 1, -0.02
613, 2, 2, 0.059999999999999998
613, 3, 3, 0.040000000000000001
613, 11, 11, 304
614, 1, 1, 0.059999999999999998
614, 2, 2, -0.029999999999999999
614, 3, 3, 0.11
614, 11, 11, 300
615, 1, 1, 0.14000000000000001
615, 2, 2, 0.12
615, 3, 3, 0.070000000000000007
615, 11, 11, 300
616, 1, 1, 0.01
616, 2, 2, 0.029999999999999999
616, 3, 3, 0.16
616, 11, 11, 300
617, 1, 1, 0.01
617, 2, 2, -0.02
617, 3, 3, 0.029999999999999999
617, 11, 11, 300
618, 1, 1, -0.029999999999999999
618, 2, 2, 0.040000000000000001
618, 3, 3, 0.050000000000000003
618, 11, 11, 300
619, 1, 1, 0.080000000000000002
619, 2, 2, -0.01
619, 3, 3, 0.089999999999999997
619, 11, 11, 300
620, 1, 1, 0.040000000000000001
620, 2, 2, 0.080000000000000002
620, 3, 3, 0.01
620, 11, 11, 300
621, 1, 1, -0.02
621, 2, 2, 0.059999999999999998
621, 3, 3, 0.040000000000000001
621, 11, 11, 300
622, 1, 1, 0.059999999999999998
622, 2, 2, -0.029999999999999999
622, 3, 3, 0.11
622, 11, 11, 304
623, 1, 1, 0.14000000000000001
623, 2, 2, 0.12
623, 3, 3, 0.070000000000000007
623, 11, 11, 300
624, 1, 1, 0.01
624, 2, 2, 0.029999999999999999
624, 3, 3, 0.16
624, 11, 11, 300
625, 1, 1, 0.01
625, 2, 2, -0.02
625, 3, 3, 0.029999999999999999
625, 11, 11, 300
626, 1, 1, -0.029999999999999999
626, 2, 2, 0.040000000000000001
626, 3, 3, 0.050000000000000003
626, 11, 11, 300
627, 1, 1, 0.080000000000000002
627, 2, 2, -0.01
627, 3, 3, 0.089999999999999997
627, 11, 11, 300
628, 1, 1, 0.040000000000000001
628, 2, 2, 0.080000000000000002
628, 3, 3, 0.01
628, 11, 11, 300
629, 1, 1, -0.02
629, 2, 2, 0.059999999999999998
629, 3, 3, 0.040000000000000001
629, 11, 11, 300
630, 1, 1, 0.059999999999999998
630, 2, 2, -0.029999999999999999
630, 3, 3, 0.11
630, 11, 11, 300
631, 1, 1, 0.14000000000000001
631, 2, 2, 0.12
631, 3, 3, 0.070000000000000007
631, 11, 11, 304
632, 1, 1, 0.01
632, 2, 2, 0.029999999999999999
632, 3, 3, 0.16
632, 11, 11, 300
633, 1, 1, 0.01
633, 2, 2, -0.02
633, 3, 3, 0.029999999999999999
633, 11, 11, 300
634, 1, 1, -0.029999999999999999
634, 2, 2, 0.040000000000000001
634, 3, 3, 0.050000000000000003
634, 11, 11, 300
635, 1, 1, 0.080000000000000002
635, 2, 2, -0.01
635, 3, 3, 0.089999999999999997
635, 11, 11, 300
636, 1, 1, 0.040000000000000001
636, 2, 2, 0.080000000000000002
636, 3, 3, 0.01
636, 11, 11, 300
637, 1, 1, -0.02
637, 2, 2, 0.059999999999999998
637, 3, 3, 0.040000000000000001
637, 11, 11, 300
638, 1, 1, 0.059999999999999998
638, 2, 2, -0.029999999999999999
638, 3, 3, 0.11
638, 11, 11, 300
639, 1, 1, 0.14000000000000001
639, 2, 2, 0.12
639, 3, 3, 0.070000000000000007
639, 11, 11, 300
640, 1, 1, 0.01
640, 2, 2, 0.029999999999999999
640, 3, 3, 0.16
640, 11, 11, 304
641, 1, 1, 0.01
641, 2, 2, -0.02
641, 3, 3, 0.029999999999999999
641, 11, 11, 314
642, 1, 1, -0.029999999999999999
642, 2, 2, 0.040000000000000001
642, 3, 3, 0.050000000000000003
642, 11, 11, 330
643, 1, 1, 0.080000000000000002
643, 2, 2, -0.01
643, 3, 3, 0.089999999999999997
643, 11, 11, 350
644, 1, 1, 0.040000000000000001
644, 2, 2, 0.080000000000000002
644, 3, 3, 0.01
644, 11, 11, 370
645, 1, 1, -0.02
645, 2, 2, 0.059999999999999998
645, 3, 3, 0.040000000000000001
645, 11, 11, 390
646, 1, 1, 0.059999999999999998
646, 2, 2, -0.029999999999999999
646, 3, 3, 0.11
646, 11, 11, 410
647, 1, 1, 0.14000000000000001
647, 2, 2, 0.12
647, 3, 3, 0.070000000000000007
647, 11, 11, 430
648, 1, 1, 0.01
648, 2, 2, 0.029999999999999999
648, 3, 3, 0.16
648, 11, 11, 450
649, 1, 1, 0.01
649, 2, 2, -0.02
649, 3, 3, 0.029999999999999999
649, 11, 11, 310
650, 1, 1, -0.029999999999999999
650, 2, 2, 0.040000000000000001
650, 3, 3, 0.050000000000000003
650, 11, 11, 334
651, 1, 1, 0.080000000000000002
651, 2, 2, -0.01
651, 3, 3, 0.089999999999999997
651, 11, 11, 350
652, 1, 1, 0.040000000000000001
652, 2, 2, 0.080000000000000002
652, 3, 3, 0.01
652, 11, 11, 370
653, 1, 1, -0.02
653, 2, 2, 0.059999999999999998
653, 3, 3, 0.040000000000000001
653, 11, 11, 390
654, 1, 1, 0.059999999999999998
654, 2, 2, -0.029999999999999999
654, 3, 3, 0.11
654, 11, 11, 410
655, 1, 1, 0.14000000000000001
655, 2, 2, 0.12
655, 3, 3, 0.070000000000000007
655, 11, 11, 430
656, 1, 1, 0.01
656, 2, 2, 0.029999999999999999
656, 3, 3, 0.16
656, 11, 11, 450
657, 1, 1, 0.01
657, 2, 2, -0.02
657, 3, 3, 0.029999999999999999
657, 11, 11, 310
658, 1, 1, -0.029999999999999999
658, 2, 2, 0.040000000000000001
658, 3, 3, 0.050000000000000003
658, 11, 11, 330
659, 1, 1, 0.080000000000000002
659, 2, 2, -0.01
659, 3, 3, 0.089999999999999997
659, 11, 11, 354
660, 1, 1, 0.040000000000000001
660, 2, 2, 0.080000000000000002
660, 3, 3, 0.01
660, 11, 11, 370
661, 1, 1, -0.02
661, 2, 2, 0.059999999999999998
661, 3, 3, 0.040000000000000001
661, 11, 11, 390
662, 1, 1, 0.059999999999999998
662, 2, 2, -0.029999999999999999
662, 3, 3, 0.11
662, 11, 11, 410
663, 1, 1, 0.14000000000000001
663, 2, 2, 0.12
663, 3, 3, 0.070000000000000007
663, 11, 11, 430
664, 1, 1, 0.01
664, 2, 2, 0.029999999999999999
664, 3, 3, 0.16
664, 11, 11, 450
665, 1, 1, 0.01
665, 2, 2, -0.02
665, 3, 3, 0.029999999999999999
665, 11, 11, 310
666, 1, 1, -0.029999999999999999
666, 2, 2, 0.040000000000000001
666, 3, 3, 0.050000000000000003
666, 11, 11, 330
667, 1, 1, 0.080000000000000002
667, 2, 2, -0.01
667, 3, 3, 0.089999999999999997
667, 11, 11, 350
668, 1, 1, 0.040000000000000001
668, 2, 2, 0.080000000000000002
668, 3, 3, 0.01
668, 11, 11, 374
669, 1, 1, -0.02
669, 2, 2, 0.059999999999999998
669, 3, 3, 0.040000000000000001
669, 11, 11, 390
670, 1, 1, 0.059999999999999998
670, 2, 2, -0.029999999999999999
670, 3, 3, 0.11
670, 11, 11, 410
671, 1, 1, 0.14000000000000001
671, 2, 2, 0.12
671, 3, 3, 0.070000000000000007
671, 11, 11, 430
672, 1, 1, 0.01
672, 2, 2, 0.029999999999999999
672, 3, 3, 0.16
672, 11, 11, 450
673, 1, 1, 0.01
673, 2, 2, -0.02
673, 3, 3, 0.029999999999999999
673, 11, 11, 310
674, 1, 1, -0.029999999999999999
674, 2, 2, 0.040000000000000001
674, 3, 3, 0.050000000000000003
674, 11, 11, 330
675, 1, 1, 0.080000000000000002
675, 2, 2, -0.01
675, 3, 3, 0.089999999999999997
675, 11, 11, 350
676, 1, 1, 0.040000000000000001
676, 2, 2, 0.080000000000000002
676, 3, 3, 0.01
676, 11, 11, 370
677, 1, 1, -0.02
677, 2, 2, 0.059999999999999998
677, 3, 3, 0.040000000000000001
677, 11, 11, 394
678, 1, 1, 0.059999999999999998
678, 2, 2, -0.029999999999999999
678, 3, 3, 0.11
678, 11, 11, 410
679, 1, 1, 0.14000000000000001
679, 2, 2, 0.12
679, 3, 3, 0.070000000000000007
679, 11, 11, 430
680, 1, 1, 0.01
680, 2, 2, 0.029999999999999999
680, 3, 3, 0.16
680, 11, 11, 450
681, 1, 1, 0.01
681, 2, 2, -0.02
681, 3, 3, 0.029999999999999999
681, 11, 11, 310
682, 1, 1, -0.029999999999999999
682, 2, 2, 0.040000000000000001
682, 3, 3, 0.050000000000000003
682, 11, 11, 330
683, 1, 1, 0.080000000000000002
683, 2, 2, -0.01
683, 3, 3, 0.089999999999999997
683, 11, 11, 350
684, 1, 1, 0.040000000000000001
684, 2, 2, 0.080000000000000002
684, 3, 3, 0.01
684, 11, 11, 370
685, 1, 1, -0.02
685, 2, 2, 0.059999999999999998
685, 3, 3, 0.040000000000000001
685, 11, 11, 390
686, 1, 1, 0.059999999999999998
686, 2, 2, -0.029999999999999999
686, 3, 3, 0.11
686, 11, 11, 414
687, 1, 1, 0.14000000000000001
687, 2, 2, 0.12
687, 3, 3, 0.070000000000000007
687, 11, 11, 430
688, 1, 1, 0.01
688, 2, 2, 0.029999999999999999
688, 3, 3, 0.16
688, 11, 11, 450
689, 1, 1, 0.01
689, 2, 2, -0.02
689, 3, 3, 0.029999999999999999
689, 11, 11, 310
690, 1, 1, -0.029999999999999999
690, 2, 2, 0.040000000000000001
690, 3, 3, 0.050000000000000003
690, 11, 11, 330
691, 1, 1, 0.080000000000000002
691, 2, 2, -0.01
691, 3, 3, 0.089999999999999997
691, 11, 11, 350
692, 1, 1, 0.040000000000000001
692, 2, 2, 0.080000000000000002
692, 3, 3, 0.01
692, 11, 11, 370
693, 1, 1, -0.02
693, 2, 2, 0.059999999999999998
693, 3, 3, 0.040000000000000001
693, 11, 11, 390
694, 1, 1, 0.059999999999999998
694, 2, 2, -0.029999999999999999
694, 3, 3, 0.11
694, 11, 11, 410
695, 1, 1, 0.14000000000000001
695, 2, 2, 0.12
695, 3, 3, 0.070000000000000007
695, 11, 11, 434
696, 1, 1, 0.01
696, 2, 2, 0.029999999999999999
696, 3, 3, 0.16
696, 11, 11, 450
697, 1, 1, 0.01
697, 2, 2, -0.02
697, 3, 3, 0.029999999999999999
697, 11, 11, 310
698, 1, 1, -0.029999999999999999
698, 2, 2, 0.040000000000000001
698, 3, 3, 0.050000000000000003
698, 11, 11, 330
699, 1, 1, 0.080000000000000002
699, 2, 2, -0.01
699, 3, 3, 0.089999999999999997
699, 11, 11, 350
700, 1, 1, 0.040000000000000001
700, 2, 2, 0.080000000000000002
700, 3, 3, 0.01
700, 11, 11, 370
701, 1, 1, -0.02
701, 2, 2, 0.059999999999999998
701, 3, 3, 0.040000000000000001
701, 11, 11, 390
702, 1, 1, 0.059999999999999998
702, 2, 2, -0.029999999999999999
702, 3, 3, 0.11
702, 11, 11, 410
703, 1, 1, 0.14000000000000001
703, 2, 2, 0.12
703, 3, 3, 0.070000000000000007
703, 11, 11, 430
704, 1, 1, 0.01
704, 2, 2, 0.029999999999999999
704, 3, 3, 0.16
704, 11, 11, 454
705, 1, 1, 0.01
705, 2, 2, -0.02
705, 3, 3, 0.029999999999999999
705, 11, 11, 314
706, 1, 1, -0.029999999999999999
706, 2, 2, 0.040000000000000001
706, 3, 3, 0.050000000000000003
706, 11, 11, 330
707, 1, 1, 0.080000000000000002
707, 2, 2, -0.01
707, 3, 3, 0.089999999999999997
707, 11, 11, 350
708, 1, 1, 0.040000000000000001
708, 2, 2, 0.080000000000000002
708, 3, 3, 0.01
708, 11, 11, 370
709, 1, 1, -0.02
709, 2, 2, 0.059999999999999998
709, 3, 3, 0.040000000000000001
709, 11, 11, 390
710, 1, 1, 0.059999999999999998
710, 2, 2, -0.029999999999999999
710, 3, 3, 0.11
710, 11, 11, 410
711, 1, 1, 0.14000000000000001
711, 2, 2, 0.12
711, 3, 3, 0.070000000000000007
711, 11, 11, 430
712, 1, 1, 0.01
712, 2, 2, 0.029999999999999999
712, 3, 3, 0.16
712, 11, 11, 450
713, 1, 1, 0.01
713, 2, 2, -0.02
713, 3, 3, 0.029999999999999999
713, 11, 11, 310
714, 1, 1, -0.029999999999999999
714, 2, 2, 0.040000000000000001
714, 3, 3, 0.050000000000000003
714, 11, 11, 334
715, 1, 1, 0.080000000000000002
715, 2, 2, -0.01
715, 3, 3, 0.089999999999999997
715, 11, 11, 350
716, 1, 1, 0.040000000000000001
716, 2, 2, 0.080000000000000002
716, 3, 3, 0.01
716, 11, 11, 370
717, 1, 1, -0.02
717, 2, 2, 0.059999999999999998
717, 3, 3, 0.040000000000000001
717, 11, 11, 390
718, 1, 1, 0.059999999999999998
718, 2, 2, -0.029999999999999999
718, 3, 3, 0.11
718, 11, 11, 410
719, 1, 1, 0.14000000000000001
719, 2, 2, 0.12
719, 3, 3, 0.070000000000000007
719, 11, 11, 430
720, 1, 1, 0.01
720, 2, 2, 0.029999999999999999
720, 3, 3, 0.16
720, 11, 11, 450
721, 1, 1, 0.01
721, 2, 2, -0.02
721, 3, 3, 0.029999999999999999
721, 11, 11, 310
722, 1, 1, -0.029999999999999999
722, 2, 2, 0.040000000000000001
722, 3, 3, 0.050000000000000003
722, 11, 11, 330
723, 1, 1, 0.080000000000000002
723, 2, 2, -0.01
723, 3, 3, 0.089999999999999997
723, 11, 11, 354
724, 1, 1, 0.040000000000000001
724, 2, 2, 0.080000000000000002
724, 3, 3, 0.01
724, 11, 11, 370
725, 1, 1, -0.02
725, 2, 2, 0.059999999999999998
725, 3, 3, 0.040000000000000001
725, 11, 11, 390
726, 1, 1, 0.059999999999999998
726, 2, 2, -0.029999999999999999
726, 3, 3, 0.11
726, 11, 11, 410
727, 1, 1, 0.14000000000000001
727, 2, 2, 0.12
727, 3, 3, 0.070000000000000007
727, 11, 11, 430
728, 1, 1, 0.01
728, 2, 2, 0.029999999999999999
728, 3, 3, 0.16
728, 11, 11, 450
729, 1, 1, 0.01
729, 2, 2, -0.02
729, 3, 3, 0.029999999999999999
729, 11, 11, 310
730, 1, 1, -0.029999999999999999
730, 2, 2, 0.040000000000000001
730, 3, 3, 0.050000000000000003
730, 11, 11, 330
731, 1, 1, 0.080000000000000002
731, 2, 2, -0.01
731, 3, 3, 0.089999999999999997
731, 11, 11, 350
732, 1, 1, 0.040000000000000001
732, 2, 2, 0.080000000000000002
732, 3, 3, 0.01
732, 11, 11, 374
733, 1, 1, -0.02
733, 2, 2, 0.059999999999999998
733, 3, 3, 0.040000000000000001
733, 11, 11, 390
734, 1, 1, 0.059999999999999998
734, 2, 2, -0.029999999999999999
734, 3, 3, 0.11
734, 11, 11, 410
735, 1, 1, 0.14000000000000001
735, 2, 2, 0.12
735, 3, 3, 0.070000000000000007
735, 11, 11, 430
736, 1, 1, 0.01
736, 2, 2, 0.029999999999999999
736, 3, 3, 0.16
736, 11, 11, 450
737, 1, 1, 0.01
737, 2, 2, -0.02
737, 3, 3, 0.029999999999999999
737, 11, 11, 310
738, 1, 1, -0.029999999999999999
738, 2, 2, 0.040000000000000001
738, 3, 3, 0.050000000000000003
738, 11, 11, 330
739, 1, 1, 0.080000000000000002
739, 2, 2, -0.01
739, 3, 3, 0.089999999999999997
739, 11, 11, 350
740, 1, 1, 0.040000000000000001
740, 2, 2, 0.080000000000000002
740, 3, 3, 0.01
740, 11, 11, 370
741, 1, 1, -0.02
741, 2, 2, 0.059999999999999998
741, 3, 3, 0.040000000000000001
741, 11, 11, 394
742, 1, 1, 0.059999999999999998
742, 2, 2, -0.029999999999999999
742, 3, 3, 0.11
742, 11, 11, 410
743, 1, 1, 0.14000000000000001
743, 2, 2, 0.12
743, 3, 3, 0.070000000000000007
743, 11, 11, 430
744, 1, 1, 0.01
744, 2, 2, 0.029999999999999999
744, 3, 3, 0.16
744, 11, 11, 450
745, 1, 1, 0.01
745, 2, 2, -0.02
745, 3, 3, 0.029999999999999999
745, 11, 11, 310
746, 1, 1, -0.029999999999999999
746, 2, 2, 0.040000000000000001
746, 3, 3, 0.050000000000000003
746, 11, 11, 330
747, 1, 1, 0.080000000000000002
747, 2, 2, -0.01
747, 3, 3, 0.089999999999999997
747, 11, 11, 350
748, 1, 1, 0.040000000000000001
748, 2, 2, 0.080000000000000002
748, 3, 3, 0.01
748, 11, 11, 370
749, 1, 1, -0.02
749, 2, 2, 0.059999999999999998
749, 3, 3, 0.040000000000000001
749, 11, 11, 390
750, 1, 1, 0.059999999999999998
750, 2, 2, -0.029999999999999999
750, 3, 3, 0.11
750, 11, 11, 414
751, 1, 1, 0.14000000000000001
751, 2, 2, 0.12
751, 3, 3, 0.070000000000000007
751, 11, 11, 430
752, 1, 1, 0.01
752, 2, 2, 0.029999999999999999
752, 3, 3, 0.16
752, 11, 11, 450
753, 1, 1, 0.01
753, 2, 2, -0.02
753, 3, 3, 0.029999999999999999
753, 11, 11, 310
754, 1, 1, -0.029999999999999999
754, 2, 2, 0.040000000000000001
754, 3, 3, 0.050000000000000003
754, 11, 11, 330
755, 1, 1, 0.080000000000000002
755, 2, 2, -0.01
755, 3, 3, 0.089999999999999997
755, 11, 11, 350
756, 1, 1, 0.040000000000000001
756, 2, 2, 0.080000000000000002
756, 3, 3, 0.01
756, 11, 11, 370
757, 1, 1, -0.02
757, 2, 2, 0.059999999999999998
757, 3, 3, 0.040000000000000001
757, 11, 11, 390
758, 1, 1, 0.059999999999999998
758, 2, 2, -0.029999999999999999
758, 3, 3, 0.11
758, 11, 11, 410
759, 1, 1, 0.14000000000000001
759, 2, 2, 0.12
759, 3, 3, 0.070000000000000007
759, 11, 11, 434
760, 1, 1, 0.01
760, 2, 2, 0.029999999999999999
760, 3, 3, 0.16
760, 11, 11, 450
761, 1, 1, 0.01
761, 2, 2, -0.02
761, 3, 3, 0.029999999999999999
761, 11, 11, 310
762, 1, 1, -0.029999999999999999
762, 2, 2, 0.040000000000000001
762, 3, 3, 0.050000000000000003
762, 11, 11, 330
763, 1, 1, 0.080000000000000002
763, 2, 2, -0.01
763, 3, 3, 0.089999999999999997
763, 11, 11, 350
764, 1, 1, 0.040000000000000001
764, 2, 2, 0.080000000000000002
764, 3, 3, 0.01
764, 11, 11, 370
765, 1, 1, -0.02
765, 2, 2, 0.059999999999999998
765, 3, 3, 0.040000000000000001
765, 11, 11, 390
766, 1, 1, 0.059999999999999998
766, 2, 2, -0.029999999999999999
766, 3, 3, 0.11
766, 11, 11, 410
767, 1, 1, 0.14000000000000001
767, 2, 2, 0.12
767, 3, 3, 0.070000000000000007
767, 11, 11, 430
768, 1, 1, 0.01
768, 2, 2, 0.029999999999999999
768, 3, 3, 0.16
768, 11, 11, 454
769, 1, 1, 0.059999999999999998
769, 2, 2, 0.029999999999999999
769, 11, 11, 304
770, 1, 1, 0.02
770, 2, 2, -0.040000000000000001
770, 11, 11, 300
771, 1, 1, 0.25
771, 2, 2, 0.12
771, 11, 11, 300
772, 1, 1, 0.029999999999999999
772, 2, 2, 0.17999999999999999
772, 11, 11, 300
773, 1, 1, 0.059999999999999998
773, 2, 2, 0.029999999999999999
773, 11, 11, 300
774, 1, 1, 0.02
774, 2, 2, -0.040000000000000001
774, 11, 11, 304
775, 1, 1, 0.25
775, 2, 2, 0.12
775, 11, 11, 300
776, 1, 1, 0.029999999999999999
776, 2, 2, 0.17999999999999999
776, 11, 11, 300
777, 1, 1, 0.059999999999999998
777, 2, 2, 0.029999999999999999
777, 11, 11, 300
778, 1, 1, 0.02
778, 2, 2, -0.040000000000000001
778, 11, 11, 300
779, 1, 1, 0.25
779, 2, 2, 0.12
779, 11, 11, 304
780, 1, 1, 0.029999999999999999
780, 2, 2, 0.17999999999999999
780, 11, 11, 300
781, 1, 1, 0.059999999999999998
781, 2, 2, 0.029999999999999999
781, 11, 11, 300
782, 1, 1, 0.02
782, 2, 2, -0.040000000000000001
782, 11, 11, 300
783, 1, 1, 0.25
783, 2, 2, 0.12
783, 11, 11, 300
784, 1, 1, 0.029999999999999999
784, 2, 2, 0.17999999999999999
784, 11, 11, 304
785, 1, 1, 0.059999999999999998
785, 2, 2, 0.029999999999999999
785, 11, 11, 314
786, 1, 1, 0.02
786, 2, 2, -0.040000000000000001
786, 11, 11, 330
787, 1, 1, 0.25
787, 2, 2, 0.12
787, 11, 11, 390
788, 1, 1, 0.029999999999999999
788, 2, 2, 0.17999999999999999
788, 11, 11, 450
789, 1, 1, 0.059999999999999998
789, 2, 2, 0.029999999999999999
789, 11, 11, 310
790, 1, 1, 0.02
790, 2, 2, -0.040000000000000001
790, 11, 11, 334
791, 1, 1, 0.25
791, 2, 2, 0.12
791, 11, 11, 390
792, 1, 1, 0.029999999999999999
792, 2, 2, 0.17999999999999999
792, 11, 11, 450
793, 1, 1, 0.059999999999999998
793, 2, 2, 0.029999999999999999
793, 11, 11, 310
794, 1, 1, 0.02
794, 2, 2, -0.040000000000000001
794, 11, 11, 330
795, 1, 1, 0.25
795, 2, 2, 0.12
795, 11, 11, 394
796, 1, 1, 0.029999999999999999
796, 2, 2, 0.17999999999999999
796, 11, 11, 450
797, 1, 1, 0.059999999999999998
797, 2, 2, 0.029999999999999999
797, 11, 11, 310
798, 1, 1, 0.02
798, 2, 2, -0.040000000000000001
798, 11, 11, 330
799, 1, 1, 0.25
799, 2, 2, 0.12
799, 11, 11, 390
800, 1, 1, 0.029999999999999999
800, 2, 2, 0.17999999999999999
800, 11, 11, 454
801, 1, 1, 0.059999999999999998
801, 2, 2, 0.029999999999999999
801, 11, 11, 314
802, 1, 1, 0.02
802, 2, 2, -0.040000000000000001
802, 11, 11, 330
803, 1, 1, 0.25
803, 2, 2, 0.12
803, 11, 11, 390
804, 1, 1, 0.029999999999999999
804, 2, 2, 0.17999999999999999
804, 11, 11, 450
805, 1, 1, 0.059999999999999998
805, 2, 2, 0.029999999999999999
805, 11, 11, 310
806, 1, 1, 0.02
806, 2, 2, -0.040000000000000001
806, 11, 11, 334
807, 1, 1, 0.25
807, 2, 2, 0.12
807, 11, 11, 390
808, 1, 1, 0.029999999999999999
808, 2, 2, 0.17999999999999999
808, 11, 11, 450
809, 1, 1, 0.059999999999999998
809, 2, 2, 0.029999999999999999
809, 11, 11, 310
810, 1, 1, 0.02
810, 2, 2, -0.040000000000000001
810, 11, 11, 330
811, 1, 1, 0.25
811, 2, 2, 0.12
811, 11, 11, 394
812, 1, 1, 0.029999999999999999
812, 2, 2, 0.17999999999999999
812, 11, 11, 450
813, 1, 1, 0.059999999999999998
813, 2, 2, 0.029999999999999999
813, 11, 11, 310
814, 1, 1, 0.02
814, 2, 2, -0.040000000000000001
814, 11, 11, 330
815, 1, 1, 0.25
815, 2, 2, 0.12
815, 11, 11, 390
816, 1, 1, 0.029999999999999999
816, 2, 2, 0.17999999999999999
816, 11, 11, 454
817, 1, 1, 0.059999999999999998
817, 2, 2, 0.029999999999999999
817, 11, 11, 304
818, 1, 1, 0.02
818, 2, 2, -0.040000000000000001
818, 11, 11, 300
819, 1, 1, 0.25
819, 2, 2, 0.12
819, 11, 11, 300
820, 1, 1, 0.029999999999999999
820, 2, 2, 0.17999999999999999
820, 11, 11, 300
821, 1, 1, 0.059999999999999998
821, 2, 2, 0.029999999999999999
821, 11, 11, 300
822, 1, 1, 0.02
822, 2, 2, -0.040000000000000001
822, 11, 11, 304
823, 1, 1, 0.25
823, 2, 2, 0.12
823, 11, 11, 300
824, 1, 1, 0.029999999999999999
824, 2, 2, 0.17999999999999999
824, 11, 11, 300
825, 1, 1, 0.059999999999999998
825, 2, 2, 0.029999999999999999
825, 11, 11, 300
826, 1, 1, 0.02
826, 2, 2, -0.040000000000000001
826, 11, 11, 300
827, 1, 1, 0.25
827, 2, 2, 0.12
827, 11, 11, 304
828, 1, 1, 0.029999999999999999
828, 2, 2, 0.17999999999999999
828, 11, 11, 300
829, 1, 1, 0.059999999999999998
829, 2, 2, 0.029999999999999999
829, 11, 11, 300
830, 1, 1, 0.02
830, 2, 2, -0.040000000000000001
830, 11, 11, 300
831, 1, 1, 0.25
831, 2, 2, 0.12
831, 11, 11, 300
832, 1, 1, 0.029999999999999999
832, 2, 2, 0.17999999999999999
832, 11, 11, 304
833, 1, 1, 0.059999999999999998
833, 2, 2, 0.029999999999999999
833, 11, 11, 314
834, 1, 1, 0.02
834, 2, 2, -0.040000000000000001
834, 11, 11, 330
835, 1, 1, 0.25
835, 2, 2, 0.12
835, 11, 11, 390
836, 1, 1, 0.029999999999999999
836, 2, 2, 0.17999999999999999
836, 11, 11, 450
837, 1, 1, 0.059999999999999998
837, 2, 2, 0.029999999999999999
837, 11, 11, 310
838, 1, 1, 0.02
838, 2, 2, -0.040000000000000001
838, 11, 11, 334
839, 1, 1, 0.25
839, 2, 2, 0.12
839, 11, 11, 390
840, 1, 1, 0.029999999999999999
840, 2, 2, 0.17999999999999999
840, 11, 11, 450
841, 1, 1, 0.059999999999999998
841, 2, 2, 0.029999999999999999
841, 11, 11, 310
842, 1, 1, 0.02
842, 2, 2, -0.040000000000000001
842, 11, 11, 330
843, 1, 1, 0.25
843, 2, 2, 0.12
843, 11, 11, 394
844, 1, 1, 0.029999999999999999
844, 2, 2, 0.17999999999999999
844, 11, 11, 450
845, 1, 1, 0.059999999999999998
845, 2, 2, 0.029999999999999999
845, 11, 11, 310
846, 1, 1, 0.02
846, 2, 2, -0.040000000000000001
846, 11, 11, 330
847, 1, 1, 0.25
847, 2, 2, 0.12
847, 11, 11, 390
848, 1, 1, 0.029999999999999999
848, 2, 2, 0.17999999999999999
848, 11, 11, 454
849, 1, 1, 0.059999999999999998
849, 2, 2, 0.029999999999999999
849, 11, 11, 314
850, 1, 1, 0.02
850, 2, 2, -0.040000000000000001
850, 11, 11, 330
851, 1, 1, 0.25
851, 2, 2, 0.12
851, 11, 11, 390
852, 1, 1, 0.029999999999999999
852, 2, 2, 0.17999999999999999
852, 11, 11, 450
853, 1, 1, 0.059999999999999998
853, 2, 2, 0.029999999999999999
853, 11, 11, 310
854, 1, 1, 0.02
854, 2, 2, -0.040000000000000001
854, 11, 11, 334
855, 1, 1, 0.25
855, 2, 2, 0.12
855, 11, 11, 390
856, 1, 1, 0.029999999999999999
856, 2, 2, 0.17999999999999999
856, 11, 11, 450
857, 1, 1, 0.059999999999999998
857, 2, 2, 0.029999999999999999
857, 11, 11, 310
858, 1, 1, 0.02
858, 2, 2, -0.040000000000000001
858, 11, 11, 330
859, 1, 1, 0.25
859, 2, 2, 0.12
859, 11, 11, 394
860, 1, 1, 0.029999999999999999
860, 2, 2, 0.17999999999999999
860, 11, 11, 450
861, 1, 1, 0.059999999999999998
861, 2, 2, 0.029999999999999999
861, 11, 11, 310
862, 1, 1, 0.02
862, 2, 2, -0.040000000000000001
862, 11, 11, 330
863, 1, 1, 0.25
863, 2, 2, 0.12
863, 11, 11, 390
864, 1, 1, 0.029999999999999999
864, 2, 2, 0.17999999999999999
864, 11, 11, 454
865, 1, 1, 0.059999999999999998
865, 2, 2, 0.029999999999999999
865, 11, 11, 304
866, 1, 1, 0.02
866, 2, 2, -0.040000000000000001
866, 11, 11, 300
867, 1, 1, 0.25
867, 2, 2, 0.12
867, 11, 11, 300
868, 1, 1, 0.029999999999999999
868, 2, 2, 0.17999999999999999
868, 11, 11, 300
869, 1, 1, 0.059999999999999998
869, 2, 2, 0.029999999999999999
869, 11, 11, 300
870, 1, 1, 0.02
870, 2, 2, -0.040000000000000001
870, 11, 11, 304
871, 1, 1, 0.25
871, 2, 2, 0.12
871, 11, 11, 300
872, 1, 1, 0.029999999999999999
872, 2, 2, 0.17999999999999999
872, 11, 11, 300
873, 1, 1, 0.059999999999999998
873, 2, 2, 0.029999999999999999
873, 11, 11, 300
874, 1, 1, 0.02
874, 2, 2, -0.040000000000000001
874, 11, 11, 300
875, 1, 1, 0.25
875, 2, 2, 0.12
875, 11, 11, 304
876, 1, 1, 0.029999999999999999
876, 2, 2, 0.17999999999999999
876, 11, 11, 300
877, 1, 1, 0.059999999999999998
877, 2, 2, 0.029999999999999999
877, 11, 11, 300
878, 1, 1, 0.02
878, 2, 2, -0.040000000000000001
878, 11, 11, 300
879, 1, 1, 0.25
879, 2, 2, 0.12
879, 11, 11, 300
880, 1, 1, 0.029999999999999999
880, 2, 2, 0.17999999999999999
880, 11, 11, 304
881, 1, 1, 0.059999999999999998
881, 2, 2, 0.029999999999999999
881, 11, 11, 314
882, 1, 1, 0.02
882, 2, 2, -0.040000000000000001
882, 11, 11, 330
883, 1, 1, 0.25
883, 2, 2, 0.12
883, 11, 11, 390
884, 1, 1, 0.029999999999999999
884, 2, 2, 0.17999999999999999
884, 11, 11, 450
885, 1, 1, 0.059999999999999998
885, 2, 2, 0.029999999999999999
885, 11, 11, 310
886, 1, 1, 0.02
886, 2, 2, -0.040000000000000001
886, 11, 11, 334
887, 1, 1, 0.25
887, 2, 2, 0.12
887, 11, 11, 390
888, 1, 1, 0.029999999999999999
888, 2, 2, 0.17999999999999999
888, 11, 11, 450
889, 1, 1, 0.059999999999999998
889, 2, 2, 0.029999999999999999
889, 11, 11, 310
890, 1, 1, 0.02
890, 2, 2, -0.040000000000000001
890, 11, 11, 330
891, 1, 1, 0.25
891, 2, 2, 0.12
891, 11, 11, 394
892, 1, 1, 0.029999999999999999
892, 2, 2, 0.17999999999999999
892, 11, 11, 450
893, 1, 1, 0.059999999999999998
893, 2, 2, 0.029999999999999999
893, 11, 11, 310
894, 1, 1, 0.02
894, 2, 2, -0.040000000000000001
894, 11, 11, 330
895, 1, 1, 0.25
895, 2, 2, 0.12
895, 11, 11, 390
896, 1, 1, 0.029999999999999999
896, 2, 2, 0.17999999999999999
896, 11, 11, 454
897, 1, 1, 0.059999999999999998
897, 2, 2, 0.029999999999999999
897, 11, 11, 314
898, 1, 1, 0.02
898, 2, 2, -0.040000000000000001
898, 11, 11, 330
899, 1, 1, 0.25
899, 2, 2, 0.12
899, 11, 11, 390
900, 1, 1, 0.029999999999999999
900, 2, 2, 0.17999999999999999
900, 11, 11, 450
901, 1, 1, 0.059999999999999998
901, 2, 2, 0.029999999999999999
901, 11, 11, 310
902, 1, 1, 0.02
902, 2, 2, -0.040000000000000001
902, 11, 11, 334
903, 1, 1, 0.25
903, 2, 2, 0.12
903, 11, 11, 390
904, 1, 1, 0.029999999999999999
904, 2, 2, 0.17999999999999999
904, 11, 11, 450
905, 1, 1, 0.059999999999999998
905, 2, 2, 0.029999999999999999
905, 11, 11, 310
906, 1, 1, 0.02
906, 2, 2, -0.040000000000000001
906, 11, 11, 330
907, 1, 1, 0.25
907, 2, 2, 0.12
907, 11, 11, 394
908, 1, 1, 0.029999999999999999
908, 2, 2, 0.17999999999999999
908, 11, 11, 450
909, 1, 1, 0.059999999999999998
909, 2, 2, 0.029999999999999999
909, 11, 11, 310
910, 1, 1, 0.02
910, 2, 2, -0.040000000000000001
910, 11, 11, 330
911, 1, 1, 0.25
911, 2, 2, 0.12
911, 11, 11, 390
912, 1, 1, 0.029999999999999999
912, 2, 2, 0.17999999999999999
912, 11, 11, 454
913, 1, 1, 0.059999999999999998
913, 2, 2, 0.029999999999999999
913, 11, 11, 304
914, 1, 1, 0.02
914, 2, 2, -0.040000000000000001
914, 11, 11, 300
915, 1, 1, 0.25
915, 2, 2, 0.12
915, 11, 11, 300
916, 1, 1, 0.029999999999999999
916, 2, 2, 0.17999999999999999
916, 11, 11, 300
917, 1, 1, 0.059999999999999998
917, 2, 2, 0.029999999999999999
917, 11, 11, 300
918, 1, 1, 0.02
918, 2, 2, -0.040000000000000001
918, 11, 11, 304
919, 1, 1, 0.25
919, 2, 2, 0.12
919, 11, 11, 300
920, 1, 1, 0.029999999999999999
920, 2, 2, 0.17999999999999999
920, 11, 11, 300
921, 1, 1, 0.059999999999999998
921, 2, 2, 0.029999999999999999
921, 11, 11, 300
922, 1, 1, 0.02
922, 2, 2, -0.040000000000000001
922, 11, 11, 300
923, 1, 1, 0.25
923, 2, 2, 0.12
923, 11, 11, 304
924, 1, 1, 0.029999999999999999
924, 2, 2, 0.17999999999999999
924, 11, 11, 300
925, 1, 1, 0.059999999999999998
925, 2, 2, 0.029999999999999999
925, 11, 11, 300
926, 1, 1, 0.02
926, 2, 2, -0.040000000000000001
926, 11, 11, 300
927, 1, 1, 0.25
927, 2, 2, 0.12
927, 11, 11, 300
928, 1, 1, 0.029999999999999999
928, 2, 2, 0.17999999999999999
928, 11, 11, 304
929, 1, 1, 0.059999999999999998
929, 2, 2, 0.029999999999999999
929, 11, 11, 314
930, 1, 1, 0.02
930, 2, 2, -0.040000000000000001
930, 11, 11, 330
931, 1, 1, 0.25
931, 2, 2, 0.12
931, 11, 11, 390
932, 1, 1, 0.029999999999999999
932, 2, 2, 0.17999999999999999
932, 11, 11, 450
933, 1, 1, 0.059999999999999998
933, 2, 2, 0.029999999999999999
933, 11, 11, 310
934, 1, 1, 0.02
934, 2, 2, -0.040000000000000001
934, 11, 11, 334
935, 1, 1, 0.25
935, 2, 2, 0.12
935, 11, 11, 390
936, 1, 1, 0.029999999999999999
936, 2, 2, 0.17999999999999999
936, 11, 11, 450
937, 1, 1, 0.059999999999999998
937, 2, 2, 0.029999999999999999
937, 11, 11, 310
938, 1, 1, 0.02
938, 2, 2, -0.040000000000000001
938, 11, 11, 330
939, 1, 1, 0.25
939, 2, 2, 0.12
939, 11, 11, 394
940, 1, 1, 0.029999999999999999
940, 2, 2, 0.17999999999999999
940, 11, 11, 450
941, 1, 1, 0.059999999999999998
941, 2, 2, 0.029999999999999999
941, 11, 11, 310
942, 1, 1, 0.02
942, 2, 2, -0.040000000000000001
942, 11, 11, 330
943, 1, 1, 0.25
943, 2, 2, 0.12
943, 11, 11, 390
944, 1, 1, 0.029999999999999999
944, 2, 2, 0.17999999999999999
944, 11, 11, 454
945, 1, 1, 0.059999999999999998
945, 2, 2, 0.029999999999999999
945, 11, 11, 314
946, 1, 1, 0.02
946, 2, 2, -0.040000000000000001
946, 11, 11, 330
947, 1, 1, 0.25
947, 2, 2, 0.12
947, 11, 11, 390
948, 1, 1, 0.029999999999999999
948, 2, 2, 0.17999999999999999
948, 11, 11, 450
949, 1, 1, 0.059999999999999998
949, 2, 2, 0.029999999999999999
949, 11, 11, 310
950, 1, 1, 0.02
950, 2, 2, -0.040000000000000001
950, 11, 11, 334
951, 1, 1, 0.25
951, 2, 2, 0.12
951, 11, 11, 390
952, 1, 1, 0.029999999999999999
952, 2, 2, 0.17999999999999999
952, 11, 11, 450
953, 1, 1, 0.059999999999999998
953, 2, 2, 0.029999999999999999
953, 11, 11, 310
954, 1, 1, 0.02
954, 2, 2, -0.040000000000000001
954, 11, 11, 330
955, 1, 1, 0.25
955, 2, 2, 0.12
955, 11, 11, 394
956, 1, 1, 0.029999999999999999
956, 2, 2, 0.17999999999999999
956, 11, 11, 450
957, 1, 1, 0.059999999999999998
957, 2, 2, 0.029999999999999999
957, 11, 11, 310
958, 1, 1, 0.02
958, 2, 2, -0.040000000000000001
958, 11, 11, 330
959, 1, 1, 0.25
959, 2, 2, 0.12
959, 11, 11, 390
960, 1, 1, 0.029999999999999999
960, 2, 2, 0.17999999999999999
960, 11, 11, 454
*Output, field, frequency=1
*Node Output
NT, RFL, U
*Element Output, position=INTEGRATION POINTS
IVOL, TEMP
*End Step
*Step, name=RETURN, nlgeom=YES, inc=1
*Coupled Temperature-Displacement
1, 1, 1, 1
*Boundary, op=NEW
1, 1, 1, 0
1, 2, 2, 0
1, 3, 3, 0
1, 11, 11, 305
2, 1, 1, 0
2, 2, 2, 0
2, 3, 3, 0
2, 11, 11, 300
3, 1, 1, 0
3, 2, 2, 0
3, 3, 3, 0
3, 11, 11, 300
4, 1, 1, 0
4, 2, 2, 0
4, 3, 3, 0
4, 11, 11, 300
5, 1, 1, 0
5, 2, 2, 0
5, 3, 3, 0
5, 11, 11, 300
6, 1, 1, 0
6, 2, 2, 0
6, 3, 3, 0
6, 11, 11, 300
7, 1, 1, 0
7, 2, 2, 0
7, 3, 3, 0
7, 11, 11, 300
8, 1, 1, 0
8, 2, 2, 0
8, 3, 3, 0
8, 11, 11, 300
9, 1, 1, 0
9, 2, 2, 0
9, 3, 3, 0
9, 11, 11, 300
10, 1, 1, 0
10, 2, 2, 0
10, 3, 3, 0
10, 11, 11, 305
11, 1, 1, 0
11, 2, 2, 0
11, 3, 3, 0
11, 11, 11, 300
12, 1, 1, 0
12, 2, 2, 0
12, 3, 3, 0
12, 11, 11, 300
13, 1, 1, 0
13, 2, 2, 0
13, 3, 3, 0
13, 11, 11, 300
14, 1, 1, 0
14, 2, 2, 0
14, 3, 3, 0
14, 11, 11, 300
15, 1, 1, 0
15, 2, 2, 0
15, 3, 3, 0
15, 11, 11, 300
16, 1, 1, 0
16, 2, 2, 0
16, 3, 3, 0
16, 11, 11, 300
17, 1, 1, 0
17, 2, 2, 0
17, 3, 3, 0
17, 11, 11, 300
18, 1, 1, 0
18, 2, 2, 0
18, 3, 3, 0
18, 11, 11, 300
19, 1, 1, 0
19, 2, 2, 0
19, 3, 3, 0
19, 11, 11, 305
20, 1, 1, 0
20, 2, 2, 0
20, 3, 3, 0
20, 11, 11, 300
21, 1, 1, 0
21, 2, 2, 0
21, 3, 3, 0
21, 11, 11, 300
22, 1, 1, 0
22, 2, 2, 0
22, 3, 3, 0
22, 11, 11, 300
23, 1, 1, 0
23, 2, 2, 0
23, 3, 3, 0
23, 11, 11, 300
24, 1, 1, 0
24, 2, 2, 0
24, 3, 3, 0
24, 11, 11, 300
25, 1, 1, 0
25, 2, 2, 0
25, 3, 3, 0
25, 11, 11, 300
26, 1, 1, 0
26, 2, 2, 0
26, 3, 3, 0
26, 11, 11, 300
27, 1, 1, 0
27, 2, 2, 0
27, 3, 3, 0
27, 11, 11, 300
28, 1, 1, 0
28, 2, 2, 0
28, 3, 3, 0
28, 11, 11, 305
29, 1, 1, 0
29, 2, 2, 0
29, 3, 3, 0
29, 11, 11, 300
30, 1, 1, 0
30, 2, 2, 0
30, 3, 3, 0
30, 11, 11, 300
31, 1, 1, 0
31, 2, 2, 0
31, 3, 3, 0
31, 11, 11, 300
32, 1, 1, 0
32, 2, 2, 0
32, 3, 3, 0
32, 11, 11, 300
33, 1, 1, 0
33, 2, 2, 0
33, 3, 3, 0
33, 11, 11, 300
34, 1, 1, 0
34, 2, 2, 0
34, 3, 3, 0
34, 11, 11, 300
35, 1, 1, 0
35, 2, 2, 0
35, 3, 3, 0
35, 11, 11, 300
36, 1, 1, 0
36, 2, 2, 0
36, 3, 3, 0
36, 11, 11, 300
37, 1, 1, 0
37, 2, 2, 0
37, 3, 3, 0
37, 11, 11, 305
38, 1, 1, 0
38, 2, 2, 0
38, 3, 3, 0
38, 11, 11, 300
39, 1, 1, 0
39, 2, 2, 0
39, 3, 3, 0
39, 11, 11, 300
40, 1, 1, 0
40, 2, 2, 0
40, 3, 3, 0
40, 11, 11, 300
41, 1, 1, 0
41, 2, 2, 0
41, 3, 3, 0
41, 11, 11, 300
42, 1, 1, 0
42, 2, 2, 0
42, 3, 3, 0
42, 11, 11, 300
43, 1, 1, 0
43, 2, 2, 0
43, 3, 3, 0
43, 11, 11, 300
44, 1, 1, 0
44, 2, 2, 0
44, 3, 3, 0
44, 11, 11, 300
45, 1, 1, 0
45, 2, 2, 0
45, 3, 3, 0
45, 11, 11, 300
46, 1, 1, 0
46, 2, 2, 0
46, 3, 3, 0
46, 11, 11, 305
47, 1, 1, 0
47, 2, 2, 0
47, 3, 3, 0
47, 11, 11, 300
48, 1, 1, 0
48, 2, 2, 0
48, 3, 3, 0
48, 11, 11, 300
49, 1, 1, 0
49, 2, 2, 0
49, 3, 3, 0
49, 11, 11, 300
50, 1, 1, 0
50, 2, 2, 0
50, 3, 3, 0
50, 11, 11, 300
51, 1, 1, 0
51, 2, 2, 0
51, 3, 3, 0
51, 11, 11, 300
52, 1, 1, 0
52, 2, 2, 0
52, 3, 3, 0
52, 11, 11, 300
53, 1, 1, 0
53, 2, 2, 0
53, 3, 3, 0
53, 11, 11, 300
54, 1, 1, 0
54, 2, 2, 0
54, 3, 3, 0
54, 11, 11, 300
55, 1, 1, 0
55, 2, 2, 0
55, 3, 3, 0
55, 11, 11, 305
56, 1, 1, 0
56, 2, 2, 0
56, 3, 3, 0
56, 11, 11, 300
57, 1, 1, 0
57, 2, 2, 0
57, 3, 3, 0
57, 11, 11, 300
58, 1, 1, 0
58, 2, 2, 0
58, 3, 3, 0
58, 11, 11, 300
59, 1, 1, 0
59, 2, 2, 0
59, 3, 3, 0
59, 11, 11, 300
60, 1, 1, 0
60, 2, 2, 0
60, 3, 3, 0
60, 11, 11, 300
61, 1, 1, 0
61, 2, 2, 0
61, 3, 3, 0
61, 11, 11, 300
62, 1, 1, 0
62, 2, 2, 0
62, 3, 3, 0
62, 11, 11, 300
63, 1, 1, 0
63, 2, 2, 0
63, 3, 3, 0
63, 11, 11, 300
64, 1, 1, 0
64, 2, 2, 0
64, 3, 3, 0
64, 11, 11, 305
65, 1, 1, 0
65, 2, 2, 0
65, 3, 3, 0
65, 11, 11, 315
66, 1, 1, 0
66, 2, 2, 0
66, 3, 3, 0
66, 11, 11, 330
67, 1, 1, 0
67, 2, 2, 0
67, 3, 3, 0
67, 11, 11, 350
68, 1, 1, 0
68, 2, 2, 0
68, 3, 3, 0
68, 11, 11, 370
69, 1, 1, 0
69, 2, 2, 0
69, 3, 3, 0
69, 11, 11, 390
70, 1, 1, 0
70, 2, 2, 0
70, 3, 3, 0
70, 11, 11, 410
71, 1, 1, 0
71, 2, 2, 0
71, 3, 3, 0
71, 11, 11, 430
72, 1, 1, 0
72, 2, 2, 0
72, 3, 3, 0
72, 11, 11, 450
73, 1, 1, 0
73, 2, 2, 0
73, 3, 3, 0
73, 11, 11, 310
74, 1, 1, 0
74, 2, 2, 0
74, 3, 3, 0
74, 11, 11, 335
75, 1, 1, 0
75, 2, 2, 0
75, 3, 3, 0
75, 11, 11, 350
76, 1, 1, 0
76, 2, 2, 0
76, 3, 3, 0
76, 11, 11, 370
77, 1, 1, 0
77, 2, 2, 0
77, 3, 3, 0
77, 11, 11, 390
78, 1, 1, 0
78, 2, 2, 0
78, 3, 3, 0
78, 11, 11, 410
79, 1, 1, 0
79, 2, 2, 0
79, 3, 3, 0
79, 11, 11, 430
80, 1, 1, 0
80, 2, 2, 0
80, 3, 3, 0
80, 11, 11, 450
81, 1, 1, 0
81, 2, 2, 0
81, 3, 3, 0
81, 11, 11, 310
82, 1, 1, 0
82, 2, 2, 0
82, 3, 3, 0
82, 11, 11, 330
83, 1, 1, 0
83, 2, 2, 0
83, 3, 3, 0
83, 11, 11, 355
84, 1, 1, 0
84, 2, 2, 0
84, 3, 3, 0
84, 11, 11, 370
85, 1, 1, 0
85, 2, 2, 0
85, 3, 3, 0
85, 11, 11, 390
86, 1, 1, 0
86, 2, 2, 0
86, 3, 3, 0
86, 11, 11, 410
87, 1, 1, 0
87, 2, 2, 0
87, 3, 3, 0
87, 11, 11, 430
88, 1, 1, 0
88, 2, 2, 0
88, 3, 3, 0
88, 11, 11, 450
89, 1, 1, 0
89, 2, 2, 0
89, 3, 3, 0
89, 11, 11, 310
90, 1, 1, 0
90, 2, 2, 0
90, 3, 3, 0
90, 11, 11, 330
91, 1, 1, 0
91, 2, 2, 0
91, 3, 3, 0
91, 11, 11, 350
92, 1, 1, 0
92, 2, 2, 0
92, 3, 3, 0
92, 11, 11, 375
93, 1, 1, 0
93, 2, 2, 0
93, 3, 3, 0
93, 11, 11, 390
94, 1, 1, 0
94, 2, 2, 0
94, 3, 3, 0
94, 11, 11, 410
95, 1, 1, 0
95, 2, 2, 0
95, 3, 3, 0
95, 11, 11, 430
96, 1, 1, 0
96, 2, 2, 0
96, 3, 3, 0
96, 11, 11, 450
97, 1, 1, 0
97, 2, 2, 0
97, 3, 3, 0
97, 11, 11, 310
98, 1, 1, 0
98, 2, 2, 0
98, 3, 3, 0
98, 11, 11, 330
99, 1, 1, 0
99, 2, 2, 0
99, 3, 3, 0
99, 11, 11, 350
100, 1, 1, 0
100, 2, 2, 0
100, 3, 3, 0
100, 11, 11, 370
101, 1, 1, 0
101, 2, 2, 0
101, 3, 3, 0
101, 11, 11, 395
102, 1, 1, 0
102, 2, 2, 0
102, 3, 3, 0
102, 11, 11, 410
103, 1, 1, 0
103, 2, 2, 0
103, 3, 3, 0
103, 11, 11, 430
104, 1, 1, 0
104, 2, 2, 0
104, 3, 3, 0
104, 11, 11, 450
105, 1, 1, 0
105, 2, 2, 0
105, 3, 3, 0
105, 11, 11, 310
106, 1, 1, 0
106, 2, 2, 0
106, 3, 3, 0
106, 11, 11, 330
107, 1, 1, 0
107, 2, 2, 0
107, 3, 3, 0
107, 11, 11, 350
108, 1, 1, 0
108, 2, 2, 0
108, 3, 3, 0
108, 11, 11, 370
109, 1, 1, 0
109, 2, 2, 0
109, 3, 3, 0
109, 11, 11, 390
110, 1, 1, 0
110, 2, 2, 0
110, 3, 3, 0
110, 11, 11, 415
111, 1, 1, 0
111, 2, 2, 0
111, 3, 3, 0
111, 11, 11, 430
112, 1, 1, 0
112, 2, 2, 0
112, 3, 3, 0
112, 11, 11, 450
113, 1, 1, 0
113, 2, 2, 0
113, 3, 3, 0
113, 11, 11, 310
114, 1, 1, 0
114, 2, 2, 0
114, 3, 3, 0
114, 11, 11, 330
115, 1, 1, 0
115, 2, 2, 0
115, 3, 3, 0
115, 11, 11, 350
116, 1, 1, 0
116, 2, 2, 0
116, 3, 3, 0
116, 11, 11, 370
117, 1, 1, 0
117, 2, 2, 0
117, 3, 3, 0
117, 11, 11, 390
118, 1, 1, 0
118, 2, 2, 0
118, 3, 3, 0
118, 11, 11, 410
119, 1, 1, 0
119, 2, 2, 0
119, 3, 3, 0
119, 11, 11, 435
120, 1, 1, 0
120, 2, 2, 0
120, 3, 3, 0
120, 11, 11, 450
121, 1, 1, 0
121, 2, 2, 0
121, 3, 3, 0
121, 11, 11, 310
122, 1, 1, 0
122, 2, 2, 0
122, 3, 3, 0
122, 11, 11, 330
123, 1, 1, 0
123, 2, 2, 0
123, 3, 3, 0
123, 11, 11, 350
124, 1, 1, 0
124, 2, 2, 0
124, 3, 3, 0
124, 11, 11, 370
125, 1, 1, 0
125, 2, 2, 0
125, 3, 3, 0
125, 11, 11, 390
126, 1, 1, 0
126, 2, 2, 0
126, 3, 3, 0
126, 11, 11, 410
127, 1, 1, 0
127, 2, 2, 0
127, 3, 3, 0
127, 11, 11, 430
128, 1, 1, 0
128, 2, 2, 0
128, 3, 3, 0
128, 11, 11, 455
129, 1, 1, 0
129, 2, 2, 0
129, 3, 3, 0
129, 11, 11, 315
130, 1, 1, 0
130, 2, 2, 0
130, 3, 3, 0
130, 11, 11, 330
131, 1, 1, 0
131, 2, 2, 0
131, 3, 3, 0
131, 11, 11, 350
132, 1, 1, 0
132, 2, 2, 0
132, 3, 3, 0
132, 11, 11, 370
133, 1, 1, 0
133, 2, 2, 0
133, 3, 3, 0
133, 11, 11, 390
134, 1, 1, 0
134, 2, 2, 0
134, 3, 3, 0
134, 11, 11, 410
135, 1, 1, 0
135, 2, 2, 0
135, 3, 3, 0
135, 11, 11, 430
136, 1, 1, 0
136, 2, 2, 0
136, 3, 3, 0
136, 11, 11, 450
137, 1, 1, 0
137, 2, 2, 0
137, 3, 3, 0
137, 11, 11, 310
138, 1, 1, 0
138, 2, 2, 0
138, 3, 3, 0
138, 11, 11, 335
139, 1, 1, 0
139, 2, 2, 0
139, 3, 3, 0
139, 11, 11, 350
140, 1, 1, 0
140, 2, 2, 0
140, 3, 3, 0
140, 11, 11, 370
141, 1, 1, 0
141, 2, 2, 0
141, 3, 3, 0
141, 11, 11, 390
142, 1, 1, 0
142, 2, 2, 0
142, 3, 3, 0
142, 11, 11, 410
143, 1, 1, 0
143, 2, 2, 0
143, 3, 3, 0
143, 11, 11, 430
144, 1, 1, 0
144, 2, 2, 0
144, 3, 3, 0
144, 11, 11, 450
145, 1, 1, 0
145, 2, 2, 0
145, 3, 3, 0
145, 11, 11, 310
146, 1, 1, 0
146, 2, 2, 0
146, 3, 3, 0
146, 11, 11, 330
147, 1, 1, 0
147, 2, 2, 0
147, 3, 3, 0
147, 11, 11, 355
148, 1, 1, 0
148, 2, 2, 0
148, 3, 3, 0
148, 11, 11, 370
149, 1, 1, 0
149, 2, 2, 0
149, 3, 3, 0
149, 11, 11, 390
150, 1, 1, 0
150, 2, 2, 0
150, 3, 3, 0
150, 11, 11, 410
151, 1, 1, 0
151, 2, 2, 0
151, 3, 3, 0
151, 11, 11, 430
152, 1, 1, 0
152, 2, 2, 0
152, 3, 3, 0
152, 11, 11, 450
153, 1, 1, 0
153, 2, 2, 0
153, 3, 3, 0
153, 11, 11, 310
154, 1, 1, 0
154, 2, 2, 0
154, 3, 3, 0
154, 11, 11, 330
155, 1, 1, 0
155, 2, 2, 0
155, 3, 3, 0
155, 11, 11, 350
156, 1, 1, 0
156, 2, 2, 0
156, 3, 3, 0
156, 11, 11, 375
157, 1, 1, 0
157, 2, 2, 0
157, 3, 3, 0
157, 11, 11, 390
158, 1, 1, 0
158, 2, 2, 0
158, 3, 3, 0
158, 11, 11, 410
159, 1, 1, 0
159, 2, 2, 0
159, 3, 3, 0
159, 11, 11, 430
160, 1, 1, 0
160, 2, 2, 0
160, 3, 3, 0
160, 11, 11, 450
161, 1, 1, 0
161, 2, 2, 0
161, 3, 3, 0
161, 11, 11, 310
162, 1, 1, 0
162, 2, 2, 0
162, 3, 3, 0
162, 11, 11, 330
163, 1, 1, 0
163, 2, 2, 0
163, 3, 3, 0
163, 11, 11, 350
164, 1, 1, 0
164, 2, 2, 0
164, 3, 3, 0
164, 11, 11, 370
165, 1, 1, 0
165, 2, 2, 0
165, 3, 3, 0
165, 11, 11, 395
166, 1, 1, 0
166, 2, 2, 0
166, 3, 3, 0
166, 11, 11, 410
167, 1, 1, 0
167, 2, 2, 0
167, 3, 3, 0
167, 11, 11, 430
168, 1, 1, 0
168, 2, 2, 0
168, 3, 3, 0
168, 11, 11, 450
169, 1, 1, 0
169, 2, 2, 0
169, 3, 3, 0
169, 11, 11, 310
170, 1, 1, 0
170, 2, 2, 0
170, 3, 3, 0
170, 11, 11, 330
171, 1, 1, 0
171, 2, 2, 0
171, 3, 3, 0
171, 11, 11, 350
172, 1, 1, 0
172, 2, 2, 0
172, 3, 3, 0
172, 11, 11, 370
173, 1, 1, 0
173, 2, 2, 0
173, 3, 3, 0
173, 11, 11, 390
174, 1, 1, 0
174, 2, 2, 0
174, 3, 3, 0
174, 11, 11, 415
175, 1, 1, 0
175, 2, 2, 0
175, 3, 3, 0
175, 11, 11, 430
176, 1, 1, 0
176, 2, 2, 0
176, 3, 3, 0
176, 11, 11, 450
177, 1, 1, 0
177, 2, 2, 0
177, 3, 3, 0
177, 11, 11, 310
178, 1, 1, 0
178, 2, 2, 0
178, 3, 3, 0
178, 11, 11, 330
179, 1, 1, 0
179, 2, 2, 0
179, 3, 3, 0
179, 11, 11, 350
180, 1, 1, 0
180, 2, 2, 0
180, 3, 3, 0
180, 11, 11, 370
181, 1, 1, 0
181, 2, 2, 0
181, 3, 3, 0
181, 11, 11, 390
182, 1, 1, 0
182, 2, 2, 0
182, 3, 3, 0
182, 11, 11, 410
183, 1, 1, 0
183, 2, 2, 0
183, 3, 3, 0
183, 11, 11, 435
184, 1, 1, 0
184, 2, 2, 0
184, 3, 3, 0
184, 11, 11, 450
185, 1, 1, 0
185, 2, 2, 0
185, 3, 3, 0
185, 11, 11, 310
186, 1, 1, 0
186, 2, 2, 0
186, 3, 3, 0
186, 11, 11, 330
187, 1, 1, 0
187, 2, 2, 0
187, 3, 3, 0
187, 11, 11, 350
188, 1, 1, 0
188, 2, 2, 0
188, 3, 3, 0
188, 11, 11, 370
189, 1, 1, 0
189, 2, 2, 0
189, 3, 3, 0
189, 11, 11, 390
190, 1, 1, 0
190, 2, 2, 0
190, 3, 3, 0
190, 11, 11, 410
191, 1, 1, 0
191, 2, 2, 0
191, 3, 3, 0
191, 11, 11, 430
192, 1, 1, 0
192, 2, 2, 0
192, 3, 3, 0
192, 11, 11, 455
193, 1, 1, 0
193, 2, 2, 0
193, 3, 3, 0
193, 11, 11, 305
194, 1, 1, 0
194, 2, 2, 0
194, 3, 3, 0
194, 11, 11, 300
195, 1, 1, 0
195, 2, 2, 0
195, 3, 3, 0
195, 11, 11, 300
196, 1, 1, 0
196, 2, 2, 0
196, 3, 3, 0
196, 11, 11, 300
197, 1, 1, 0
197, 2, 2, 0
197, 3, 3, 0
197, 11, 11, 300
198, 1, 1, 0
198, 2, 2, 0
198, 3, 3, 0
198, 11, 11, 300
199, 1, 1, 0
199, 2, 2, 0
199, 3, 3, 0
199, 11, 11, 300
200, 1, 1, 0
200, 2, 2, 0
200, 3, 3, 0
200, 11, 11, 300
201, 1, 1, 0
201, 2, 2, 0
201, 3, 3, 0
201, 11, 11, 300
202, 1, 1, 0
202, 2, 2, 0
202, 3, 3, 0
202, 11, 11, 305
203, 1, 1, 0
203, 2, 2, 0
203, 3, 3, 0
203, 11, 11, 300
204, 1, 1, 0
204, 2, 2, 0
204, 3, 3, 0
204, 11, 11, 300
205, 1, 1, 0
205, 2, 2, 0
205, 3, 3, 0
205, 11, 11, 300
206, 1, 1, 0
206, 2, 2, 0
206, 3, 3, 0
206, 11, 11, 300
207, 1, 1, 0
207, 2, 2, 0
207, 3, 3, 0
207, 11, 11, 300
208, 1, 1, 0
208, 2, 2, 0
208, 3, 3, 0
208, 11, 11, 300
209, 1, 1, 0
209, 2, 2, 0
209, 3, 3, 0
209, 11, 11, 300
210, 1, 1, 0
210, 2, 2, 0
210, 3, 3, 0
210, 11, 11, 300
211, 1, 1, 0
211, 2, 2, 0
211, 3, 3, 0
211, 11, 11, 305
212, 1, 1, 0
212, 2, 2, 0
212, 3, 3, 0
212, 11, 11, 300
213, 1, 1, 0
213, 2, 2, 0
213, 3, 3, 0
213, 11, 11, 300
214, 1, 1, 0
214, 2, 2, 0
214, 3, 3, 0
214, 11, 11, 300
215, 1, 1, 0
215, 2, 2, 0
215, 3, 3, 0
215, 11, 11, 300
216, 1, 1, 0
216, 2, 2, 0
216, 3, 3, 0
216, 11, 11, 300
217, 1, 1, 0
217, 2, 2, 0
217, 3, 3, 0
217, 11, 11, 300
218, 1, 1, 0
218, 2, 2, 0
218, 3, 3, 0
218, 11, 11, 300
219, 1, 1, 0
219, 2, 2, 0
219, 3, 3, 0
219, 11, 11, 300
220, 1, 1, 0
220, 2, 2, 0
220, 3, 3, 0
220, 11, 11, 305
221, 1, 1, 0
221, 2, 2, 0
221, 3, 3, 0
221, 11, 11, 300
222, 1, 1, 0
222, 2, 2, 0
222, 3, 3, 0
222, 11, 11, 300
223, 1, 1, 0
223, 2, 2, 0
223, 3, 3, 0
223, 11, 11, 300
224, 1, 1, 0
224, 2, 2, 0
224, 3, 3, 0
224, 11, 11, 300
225, 1, 1, 0
225, 2, 2, 0
225, 3, 3, 0
225, 11, 11, 300
226, 1, 1, 0
226, 2, 2, 0
226, 3, 3, 0
226, 11, 11, 300
227, 1, 1, 0
227, 2, 2, 0
227, 3, 3, 0
227, 11, 11, 300
228, 1, 1, 0
228, 2, 2, 0
228, 3, 3, 0
228, 11, 11, 300
229, 1, 1, 0
229, 2, 2, 0
229, 3, 3, 0
229, 11, 11, 305
230, 1, 1, 0
230, 2, 2, 0
230, 3, 3, 0
230, 11, 11, 300
231, 1, 1, 0
231, 2, 2, 0
231, 3, 3, 0
231, 11, 11, 300
232, 1, 1, 0
232, 2, 2, 0
232, 3, 3, 0
232, 11, 11, 300
233, 1, 1, 0
233, 2, 2, 0
233, 3, 3, 0
233, 11, 11, 300
234, 1, 1, 0
234, 2, 2, 0
234, 3, 3, 0
234, 11, 11, 300
235, 1, 1, 0
235, 2, 2, 0
235, 3, 3, 0
235, 11, 11, 300
236, 1, 1, 0
236, 2, 2, 0
236, 3, 3, 0
236, 11, 11, 300
237, 1, 1, 0
237, 2, 2, 0
237, 3, 3, 0
237, 11, 11, 300
238, 1, 1, 0
238, 2, 2, 0
238, 3, 3, 0
238, 11, 11, 305
239, 1, 1, 0
239, 2, 2, 0
239, 3, 3, 0
239, 11, 11, 300
240, 1, 1, 0
240, 2, 2, 0
240, 3, 3, 0
240, 11, 11, 300
241, 1, 1, 0
241, 2, 2, 0
241, 3, 3, 0
241, 11, 11, 300
242, 1, 1, 0
242, 2, 2, 0
242, 3, 3, 0
242, 11, 11, 300
243, 1, 1, 0
243, 2, 2, 0
243, 3, 3, 0
243, 11, 11, 300
244, 1, 1, 0
244, 2, 2, 0
244, 3, 3, 0
244, 11, 11, 300
245, 1, 1, 0
245, 2, 2, 0
245, 3, 3, 0
245, 11, 11, 300
246, 1, 1, 0
246, 2, 2, 0
246, 3, 3, 0
246, 11, 11, 300
247, 1, 1, 0
247, 2, 2, 0
247, 3, 3, 0
247, 11, 11, 305
248, 1, 1, 0
248, 2, 2, 0
248, 3, 3, 0
248, 11, 11, 300
249, 1, 1, 0
249, 2, 2, 0
249, 3, 3, 0
249, 11, 11, 300
250, 1, 1, 0
250, 2, 2, 0
250, 3, 3, 0
250, 11, 11, 300
251, 1, 1, 0
251, 2, 2, 0
251, 3, 3, 0
251, 11, 11, 300
252, 1, 1, 0
252, 2, 2, 0
252, 3, 3, 0
252, 11, 11, 300
253, 1, 1, 0
253, 2, 2, 0
253, 3, 3, 0
253, 11, 11, 300
254, 1, 1, 0
254, 2, 2, 0
254, 3, 3, 0
254, 11, 11, 300
255, 1, 1, 0
255, 2, 2, 0
255, 3, 3, 0
255, 11, 11, 300
256, 1, 1, 0
256, 2, 2, 0
256, 3, 3, 0
256, 11, 11, 305
257, 1, 1, 0
257, 2, 2, 0
257, 3, 3, 0
257, 11, 11, 315
258, 1, 1, 0
258, 2, 2, 0
258, 3, 3, 0
258, 11, 11, 330
259, 1, 1, 0
259, 2, 2, 0
259, 3, 3, 0
259, 11, 11, 350
260, 1, 1, 0
260, 2, 2, 0
260, 3, 3, 0
260, 11, 11, 370
261, 1, 1, 0
261, 2, 2, 0
261, 3, 3, 0
261, 11, 11, 390
262, 1, 1, 0
262, 2, 2, 0
262, 3, 3, 0
262, 11, 11, 410
263, 1, 1, 0
263, 2, 2, 0
263, 3, 3, 0
263, 11, 11, 430
264, 1, 1, 0
264, 2, 2, 0
264, 3, 3, 0
264, 11, 11, 450
265, 1, 1, 0
265, 2, 2, 0
265, 3, 3, 0
265, 11, 11, 310
266, 1, 1, 0
266, 2, 2, 0
266, 3, 3, 0
266, 11, 11, 335
267, 1, 1, 0
267, 2, 2, 0
267, 3, 3, 0
267, 11, 11, 350
268, 1, 1, 0
268, 2, 2, 0
268, 3, 3, 0
268, 11, 11, 370
269, 1, 1, 0
269, 2, 2, 0
269, 3, 3, 0
269, 11, 11, 390
270, 1, 1, 0
270, 2, 2, 0
270, 3, 3, 0
270, 11, 11, 410
271, 1, 1, 0
271, 2, 2, 0
271, 3, 3, 0
271, 11, 11, 430
272, 1, 1, 0
272, 2, 2, 0
272, 3, 3, 0
272, 11, 11, 450
273, 1, 1, 0
273, 2, 2, 0
273, 3, 3, 0
273, 11, 11, 310
274, 1, 1, 0
274, 2, 2, 0
274, 3, 3, 0
274, 11, 11, 330
275, 1, 1, 0
275, 2, 2, 0
275, 3, 3, 0
275, 11, 11, 355
276, 1, 1, 0
276, 2, 2, 0
276, 3, 3, 0
276, 11, 11, 370
277, 1, 1, 0
277, 2, 2, 0
277, 3, 3, 0
277, 11, 11, 390
278, 1, 1, 0
278, 2, 2, 0
278, 3, 3, 0
278, 11, 11, 410
279, 1, 1, 0
279, 2, 2, 0
279, 3, 3, 0
279, 11, 11, 430
280, 1, 1, 0
280, 2, 2, 0
280, 3, 3, 0
280, 11, 11, 450
281, 1, 1, 0
281, 2, 2, 0
281, 3, 3, 0
281, 11, 11, 310
282, 1, 1, 0
282, 2, 2, 0
282, 3, 3, 0
282, 11, 11, 330
283, 1, 1, 0
283, 2, 2, 0
283, 3, 3, 0
283, 11, 11, 350
284, 1, 1, 0
284, 2, 2, 0
284, 3, 3, 0
284, 11, 11, 375
285, 1, 1, 0
285, 2, 2, 0
285, 3, 3, 0
285, 11, 11, 390
286, 1, 1, 0
286, 2, 2, 0
286, 3, 3, 0
286, 11, 11, 410
287, 1, 1, 0
287, 2, 2, 0
287, 3, 3, 0
287, 11, 11, 430
288, 1, 1, 0
288, 2, 2, 0
288, 3, 3, 0
288, 11, 11, 450
289, 1, 1, 0
289, 2, 2, 0
289, 3, 3, 0
289, 11, 11, 310
290, 1, 1, 0
290, 2, 2, 0
290, 3, 3, 0
290, 11, 11, 330
291, 1, 1, 0
291, 2, 2, 0
291, 3, 3, 0
291, 11, 11, 350
292, 1, 1, 0
292, 2, 2, 0
292, 3, 3, 0
292, 11, 11, 370
293, 1, 1, 0
293, 2, 2, 0
293, 3, 3, 0
293, 11, 11, 395
294, 1, 1, 0
294, 2, 2, 0
294, 3, 3, 0
294, 11, 11, 410
295, 1, 1, 0
295, 2, 2, 0
295, 3, 3, 0
295, 11, 11, 430
296, 1, 1, 0
296, 2, 2, 0
296, 3, 3, 0
296, 11, 11, 450
297, 1, 1, 0
297, 2, 2, 0
297, 3, 3, 0
297, 11, 11, 310
298, 1, 1, 0
298, 2, 2, 0
298, 3, 3, 0
298, 11, 11, 330
299, 1, 1, 0
299, 2, 2, 0
299, 3, 3, 0
299, 11, 11, 350
300, 1, 1, 0
300, 2, 2, 0
300, 3, 3, 0
300, 11, 11, 370
301, 1, 1, 0
301, 2, 2, 0
301, 3, 3, 0
301, 11, 11, 390
302, 1, 1, 0
302, 2, 2, 0
302, 3, 3, 0
302, 11, 11, 415
303, 1, 1, 0
303, 2, 2, 0
303, 3, 3, 0
303, 11, 11, 430
304, 1, 1, 0
304, 2, 2, 0
304, 3, 3, 0
304, 11, 11, 450
305, 1, 1, 0
305, 2, 2, 0
305, 3, 3, 0
305, 11, 11, 310
306, 1, 1, 0
306, 2, 2, 0
306, 3, 3, 0
306, 11, 11, 330
307, 1, 1, 0
307, 2, 2, 0
307, 3, 3, 0
307, 11, 11, 350
308, 1, 1, 0
308, 2, 2, 0
308, 3, 3, 0
308, 11, 11, 370
309, 1, 1, 0
309, 2, 2, 0
309, 3, 3, 0
309, 11, 11, 390
310, 1, 1, 0
310, 2, 2, 0
310, 3, 3, 0
310, 11, 11, 410
311, 1, 1, 0
311, 2, 2, 0
311, 3, 3, 0
311, 11, 11, 435
312, 1, 1, 0
312, 2, 2, 0
312, 3, 3, 0
312, 11, 11, 450
313, 1, 1, 0
313, 2, 2, 0
313, 3, 3, 0
313, 11, 11, 310
314, 1, 1, 0
314, 2, 2, 0
314, 3, 3, 0
314, 11, 11, 330
315, 1, 1, 0
315, 2, 2, 0
315, 3, 3, 0
315, 11, 11, 350
316, 1, 1, 0
316, 2, 2, 0
316, 3, 3, 0
316, 11, 11, 370
317, 1, 1, 0
317, 2, 2, 0
317, 3, 3, 0
317, 11, 11, 390
318, 1, 1, 0
318, 2, 2, 0
318, 3, 3, 0
318, 11, 11, 410
319, 1, 1, 0
319, 2, 2, 0
319, 3, 3, 0
319, 11, 11, 430
320, 1, 1, 0
320, 2, 2, 0
320, 3, 3, 0
320, 11, 11, 455
321, 1, 1, 0
321, 2, 2, 0
321, 3, 3, 0
321, 11, 11, 315
322, 1, 1, 0
322, 2, 2, 0
322, 3, 3, 0
322, 11, 11, 330
323, 1, 1, 0
323, 2, 2, 0
323, 3, 3, 0
323, 11, 11, 350
324, 1, 1, 0
324, 2, 2, 0
324, 3, 3, 0
324, 11, 11, 370
325, 1, 1, 0
325, 2, 2, 0
325, 3, 3, 0
325, 11, 11, 390
326, 1, 1, 0
326, 2, 2, 0
326, 3, 3, 0
326, 11, 11, 410
327, 1, 1, 0
327, 2, 2, 0
327, 3, 3, 0
327, 11, 11, 430
328, 1, 1, 0
328, 2, 2, 0
328, 3, 3, 0
328, 11, 11, 450
329, 1, 1, 0
329, 2, 2, 0
329, 3, 3, 0
329, 11, 11, 310
330, 1, 1, 0
330, 2, 2, 0
330, 3, 3, 0
330, 11, 11, 335
331, 1, 1, 0
331, 2, 2, 0
331, 3, 3, 0
331, 11, 11, 350
332, 1, 1, 0
332, 2, 2, 0
332, 3, 3, 0
332, 11, 11, 370
333, 1, 1, 0
333, 2, 2, 0
333, 3, 3, 0
333, 11, 11, 390
334, 1, 1, 0
334, 2, 2, 0
334, 3, 3, 0
334, 11, 11, 410
335, 1, 1, 0
335, 2, 2, 0
335, 3, 3, 0
335, 11, 11, 430
336, 1, 1, 0
336, 2, 2, 0
336, 3, 3, 0
336, 11, 11, 450
337, 1, 1, 0
337, 2, 2, 0
337, 3, 3, 0
337, 11, 11, 310
338, 1, 1, 0
338, 2, 2, 0
338, 3, 3, 0
338, 11, 11, 330
339, 1, 1, 0
339, 2, 2, 0
339, 3, 3, 0
339, 11, 11, 355
340, 1, 1, 0
340, 2, 2, 0
340, 3, 3, 0
340, 11, 11, 370
341, 1, 1, 0
341, 2, 2, 0
341, 3, 3, 0
341, 11, 11, 390
342, 1, 1, 0
342, 2, 2, 0
342, 3, 3, 0
342, 11, 11, 410
343, 1, 1, 0
343, 2, 2, 0
343, 3, 3, 0
343, 11, 11, 430
344, 1, 1, 0
344, 2, 2, 0
344, 3, 3, 0
344, 11, 11, 450
345, 1, 1, 0
345, 2, 2, 0
345, 3, 3, 0
345, 11, 11, 310
346, 1, 1, 0
346, 2, 2, 0
346, 3, 3, 0
346, 11, 11, 330
347, 1, 1, 0
347, 2, 2, 0
347, 3, 3, 0
347, 11, 11, 350
348, 1, 1, 0
348, 2, 2, 0
348, 3, 3, 0
348, 11, 11, 375
349, 1, 1, 0
349, 2, 2, 0
349, 3, 3, 0
349, 11, 11, 390
350, 1, 1, 0
350, 2, 2, 0
350, 3, 3, 0
350, 11, 11, 410
351, 1, 1, 0
351, 2, 2, 0
351, 3, 3, 0
351, 11, 11, 430
352, 1, 1, 0
352, 2, 2, 0
352, 3, 3, 0
352, 11, 11, 450
353, 1, 1, 0
353, 2, 2, 0
353, 3, 3, 0
353, 11, 11, 310
354, 1, 1, 0
354, 2, 2, 0
354, 3, 3, 0
354, 11, 11, 330
355, 1, 1, 0
355, 2, 2, 0
355, 3, 3, 0
355, 11, 11, 350
356, 1, 1, 0
356, 2, 2, 0
356, 3, 3, 0
356, 11, 11, 370
357, 1, 1, 0
357, 2, 2, 0
357, 3, 3, 0
357, 11, 11, 395
358, 1, 1, 0
358, 2, 2, 0
358, 3, 3, 0
358, 11, 11, 410
359, 1, 1, 0
359, 2, 2, 0
359, 3, 3, 0
359, 11, 11, 430
360, 1, 1, 0
360, 2, 2, 0
360, 3, 3, 0
360, 11, 11, 450
361, 1, 1, 0
361, 2, 2, 0
361, 3, 3, 0
361, 11, 11, 310
362, 1, 1, 0
362, 2, 2, 0
362, 3, 3, 0
362, 11, 11, 330
363, 1, 1, 0
363, 2, 2, 0
363, 3, 3, 0
363, 11, 11, 350
364, 1, 1, 0
364, 2, 2, 0
364, 3, 3, 0
364, 11, 11, 370
365, 1, 1, 0
365, 2, 2, 0
365, 3, 3, 0
365, 11, 11, 390
366, 1, 1, 0
366, 2, 2, 0
366, 3, 3, 0
366, 11, 11, 415
367, 1, 1, 0
367, 2, 2, 0
367, 3, 3, 0
367, 11, 11, 430
368, 1, 1, 0
368, 2, 2, 0
368, 3, 3, 0
368, 11, 11, 450
369, 1, 1, 0
369, 2, 2, 0
369, 3, 3, 0
369, 11, 11, 310
370, 1, 1, 0
370, 2, 2, 0
370, 3, 3, 0
370, 11, 11, 330
371, 1, 1, 0
371, 2, 2, 0
371, 3, 3, 0
371, 11, 11, 350
372, 1, 1, 0
372, 2, 2, 0
372, 3, 3, 0
372, 11, 11, 370
373, 1, 1, 0
373, 2, 2, 0
373, 3, 3, 0
373, 11, 11, 390
374, 1, 1, 0
374, 2, 2, 0
374, 3, 3, 0
374, 11, 11, 410
375, 1, 1, 0
375, 2, 2, 0
375, 3, 3, 0
375, 11, 11, 435
376, 1, 1, 0
376, 2, 2, 0
376, 3, 3, 0
376, 11, 11, 450
377, 1, 1, 0
377, 2, 2, 0
377, 3, 3, 0
377, 11, 11, 310
378, 1, 1, 0
378, 2, 2, 0
378, 3, 3, 0
378, 11, 11, 330
379, 1, 1, 0
379, 2, 2, 0
379, 3, 3, 0
379, 11, 11, 350
380, 1, 1, 0
380, 2, 2, 0
380, 3, 3, 0
380, 11, 11, 370
381, 1, 1, 0
381, 2, 2, 0
381, 3, 3, 0
381, 11, 11, 390
382, 1, 1, 0
382, 2, 2, 0
382, 3, 3, 0
382, 11, 11, 410
383, 1, 1, 0
383, 2, 2, 0
383, 3, 3, 0
383, 11, 11, 430
384, 1, 1, 0
384, 2, 2, 0
384, 3, 3, 0
384, 11, 11, 455
385, 1, 1, 0
385, 2, 2, 0
385, 3, 3, 0
385, 11, 11, 305
386, 1, 1, 0
386, 2, 2, 0
386, 3, 3, 0
386, 11, 11, 300
387, 1, 1, 0
387, 2, 2, 0
387, 3, 3, 0
387, 11, 11, 300
388, 1, 1, 0
388, 2, 2, 0
388, 3, 3, 0
388, 11, 11, 300
389, 1, 1, 0
389, 2, 2, 0
389, 3, 3, 0
389, 11, 11, 300
390, 1, 1, 0
390, 2, 2, 0
390, 3, 3, 0
390, 11, 11, 300
391, 1, 1, 0
391, 2, 2, 0
391, 3, 3, 0
391, 11, 11, 300
392, 1, 1, 0
392, 2, 2, 0
392, 3, 3, 0
392, 11, 11, 300
393, 1, 1, 0
393, 2, 2, 0
393, 3, 3, 0
393, 11, 11, 300
394, 1, 1, 0
394, 2, 2, 0
394, 3, 3, 0
394, 11, 11, 305
395, 1, 1, 0
395, 2, 2, 0
395, 3, 3, 0
395, 11, 11, 300
396, 1, 1, 0
396, 2, 2, 0
396, 3, 3, 0
396, 11, 11, 300
397, 1, 1, 0
397, 2, 2, 0
397, 3, 3, 0
397, 11, 11, 300
398, 1, 1, 0
398, 2, 2, 0
398, 3, 3, 0
398, 11, 11, 300
399, 1, 1, 0
399, 2, 2, 0
399, 3, 3, 0
399, 11, 11, 300
400, 1, 1, 0
400, 2, 2, 0
400, 3, 3, 0
400, 11, 11, 300
401, 1, 1, 0
401, 2, 2, 0
401, 3, 3, 0
401, 11, 11, 300
402, 1, 1, 0
402, 2, 2, 0
402, 3, 3, 0
402, 11, 11, 300
403, 1, 1, 0
403, 2, 2, 0
403, 3, 3, 0
403, 11, 11, 305
404, 1, 1, 0
404, 2, 2, 0
404, 3, 3, 0
404, 11, 11, 300
405, 1, 1, 0
405, 2, 2, 0
405, 3, 3, 0
405, 11, 11, 300
406, 1, 1, 0
406, 2, 2, 0
406, 3, 3, 0
406, 11, 11, 300
407, 1, 1, 0
407, 2, 2, 0
407, 3, 3, 0
407, 11, 11, 300
408, 1, 1, 0
408, 2, 2, 0
408, 3, 3, 0
408, 11, 11, 300
409, 1, 1, 0
409, 2, 2, 0
409, 3, 3, 0
409, 11, 11, 300
410, 1, 1, 0
410, 2, 2, 0
410, 3, 3, 0
410, 11, 11, 300
411, 1, 1, 0
411, 2, 2, 0
411, 3, 3, 0
411, 11, 11, 300
412, 1, 1, 0
412, 2, 2, 0
412, 3, 3, 0
412, 11, 11, 305
413, 1, 1, 0
413, 2, 2, 0
413, 3, 3, 0
413, 11, 11, 300
414, 1, 1, 0
414, 2, 2, 0
414, 3, 3, 0
414, 11, 11, 300
415, 1, 1, 0
415, 2, 2, 0
415, 3, 3, 0
415, 11, 11, 300
416, 1, 1, 0
416, 2, 2, 0
416, 3, 3, 0
416, 11, 11, 300
417, 1, 1, 0
417, 2, 2, 0
417, 3, 3, 0
417, 11, 11, 300
418, 1, 1, 0
418, 2, 2, 0
418, 3, 3, 0
418, 11, 11, 300
419, 1, 1, 0
419, 2, 2, 0
419, 3, 3, 0
419, 11, 11, 300
420, 1, 1, 0
420, 2, 2, 0
420, 3, 3, 0
420, 11, 11, 300
421, 1, 1, 0
421, 2, 2, 0
421, 3, 3, 0
421, 11, 11, 305
422, 1, 1, 0
422, 2, 2, 0
422, 3, 3, 0
422, 11, 11, 300
423, 1, 1, 0
423, 2, 2, 0
423, 3, 3, 0
423, 11, 11, 300
424, 1, 1, 0
424, 2, 2, 0
424, 3, 3, 0
424, 11, 11, 300
425, 1, 1, 0
425, 2, 2, 0
425, 3, 3, 0
425, 11, 11, 300
426, 1, 1, 0
426, 2, 2, 0
426, 3, 3, 0
426, 11, 11, 300
427, 1, 1, 0
427, 2, 2, 0
427, 3, 3, 0
427, 11, 11, 300
428, 1, 1, 0
428, 2, 2, 0
428, 3, 3, 0
428, 11, 11, 300
429, 1, 1, 0
429, 2, 2, 0
429, 3, 3, 0
429, 11, 11, 300
430, 1, 1, 0
430, 2, 2, 0
430, 3, 3, 0
430, 11, 11, 305
431, 1, 1, 0
431, 2, 2, 0
431, 3, 3, 0
431, 11, 11, 300
432, 1, 1, 0
432, 2, 2, 0
432, 3, 3, 0
432, 11, 11, 300
433, 1, 1, 0
433, 2, 2, 0
433, 3, 3, 0
433, 11, 11, 300
434, 1, 1, 0
434, 2, 2, 0
434, 3, 3, 0
434, 11, 11, 300
435, 1, 1, 0
435, 2, 2, 0
435, 3, 3, 0
435, 11, 11, 300
436, 1, 1, 0
436, 2, 2, 0
436, 3, 3, 0
436, 11, 11, 300
437, 1, 1, 0
437, 2, 2, 0
437, 3, 3, 0
437, 11, 11, 300
438, 1, 1, 0
438, 2, 2, 0
438, 3, 3, 0
438, 11, 11, 300
439, 1, 1, 0
439, 2, 2, 0
439, 3, 3, 0
439, 11, 11, 305
440, 1, 1, 0
440, 2, 2, 0
440, 3, 3, 0
440, 11, 11, 300
441, 1, 1, 0
441, 2, 2, 0
441, 3, 3, 0
441, 11, 11, 300
442, 1, 1, 0
442, 2, 2, 0
442, 3, 3, 0
442, 11, 11, 300
443, 1, 1, 0
443, 2, 2, 0
443, 3, 3, 0
443, 11, 11, 300
444, 1, 1, 0
444, 2, 2, 0
444, 3, 3, 0
444, 11, 11, 300
445, 1, 1, 0
445, 2, 2, 0
445, 3, 3, 0
445, 11, 11, 300
446, 1, 1, 0
446, 2, 2, 0
446, 3, 3, 0
446, 11, 11, 300
447, 1, 1, 0
447, 2, 2, 0
447, 3, 3, 0
447, 11, 11, 300
448, 1, 1, 0
448, 2, 2, 0
448, 3, 3, 0
448, 11, 11, 305
449, 1, 1, 0
449, 2, 2, 0
449, 3, 3, 0
449, 11, 11, 315
450, 1, 1, 0
450, 2, 2, 0
450, 3, 3, 0
450, 11, 11, 330
451, 1, 1, 0
451, 2, 2, 0
451, 3, 3, 0
451, 11, 11, 350
452, 1, 1, 0
452, 2, 2, 0
452, 3, 3, 0
452, 11, 11, 370
453, 1, 1, 0
453, 2, 2, 0
453, 3, 3, 0
453, 11, 11, 390
454, 1, 1, 0
454, 2, 2, 0
454, 3, 3, 0
454, 11, 11, 410
455, 1, 1, 0
455, 2, 2, 0
455, 3, 3, 0
455, 11, 11, 430
456, 1, 1, 0
456, 2, 2, 0
456, 3, 3, 0
456, 11, 11, 450
457, 1, 1, 0
457, 2, 2, 0
457, 3, 3, 0
457, 11, 11, 310
458, 1, 1, 0
458, 2, 2, 0
458, 3, 3, 0
458, 11, 11, 335
459, 1, 1, 0
459, 2, 2, 0
459, 3, 3, 0
459, 11, 11, 350
460, 1, 1, 0
460, 2, 2, 0
460, 3, 3, 0
460, 11, 11, 370
461, 1, 1, 0
461, 2, 2, 0
461, 3, 3, 0
461, 11, 11, 390
462, 1, 1, 0
462, 2, 2, 0
462, 3, 3, 0
462, 11, 11, 410
463, 1, 1, 0
463, 2, 2, 0
463, 3, 3, 0
463, 11, 11, 430
464, 1, 1, 0
464, 2, 2, 0
464, 3, 3, 0
464, 11, 11, 450
465, 1, 1, 0
465, 2, 2, 0
465, 3, 3, 0
465, 11, 11, 310
466, 1, 1, 0
466, 2, 2, 0
466, 3, 3, 0
466, 11, 11, 330
467, 1, 1, 0
467, 2, 2, 0
467, 3, 3, 0
467, 11, 11, 355
468, 1, 1, 0
468, 2, 2, 0
468, 3, 3, 0
468, 11, 11, 370
469, 1, 1, 0
469, 2, 2, 0
469, 3, 3, 0
469, 11, 11, 390
470, 1, 1, 0
470, 2, 2, 0
470, 3, 3, 0
470, 11, 11, 410
471, 1, 1, 0
471, 2, 2, 0
471, 3, 3, 0
471, 11, 11, 430
472, 1, 1, 0
472, 2, 2, 0
472, 3, 3, 0
472, 11, 11, 450
473, 1, 1, 0
473, 2, 2, 0
473, 3, 3, 0
473, 11, 11, 310
474, 1, 1, 0
474, 2, 2, 0
474, 3, 3, 0
474, 11, 11, 330
475, 1, 1, 0
475, 2, 2, 0
475, 3, 3, 0
475, 11, 11, 350
476, 1, 1, 0
476, 2, 2, 0
476, 3, 3, 0
476, 11, 11, 375
477, 1, 1, 0
477, 2, 2, 0
477, 3, 3, 0
477, 11, 11, 390
478, 1, 1, 0
478, 2, 2, 0
478, 3, 3, 0
478, 11, 11, 410
479, 1, 1, 0
479, 2, 2, 0
479, 3, 3, 0
479, 11, 11, 430
480, 1, 1, 0
480, 2, 2, 0
480, 3, 3, 0
480, 11, 11, 450
481, 1, 1, 0
481, 2, 2, 0
481, 3, 3, 0
481, 11, 11, 310
482, 1, 1, 0
482, 2, 2, 0
482, 3, 3, 0
482, 11, 11, 330
483, 1, 1, 0
483, 2, 2, 0
483, 3, 3, 0
483, 11, 11, 350
484, 1, 1, 0
484, 2, 2, 0
484, 3, 3, 0
484, 11, 11, 370
485, 1, 1, 0
485, 2, 2, 0
485, 3, 3, 0
485, 11, 11, 395
486, 1, 1, 0
486, 2, 2, 0
486, 3, 3, 0
486, 11, 11, 410
487, 1, 1, 0
487, 2, 2, 0
487, 3, 3, 0
487, 11, 11, 430
488, 1, 1, 0
488, 2, 2, 0
488, 3, 3, 0
488, 11, 11, 450
489, 1, 1, 0
489, 2, 2, 0
489, 3, 3, 0
489, 11, 11, 310
490, 1, 1, 0
490, 2, 2, 0
490, 3, 3, 0
490, 11, 11, 330
491, 1, 1, 0
491, 2, 2, 0
491, 3, 3, 0
491, 11, 11, 350
492, 1, 1, 0
492, 2, 2, 0
492, 3, 3, 0
492, 11, 11, 370
493, 1, 1, 0
493, 2, 2, 0
493, 3, 3, 0
493, 11, 11, 390
494, 1, 1, 0
494, 2, 2, 0
494, 3, 3, 0
494, 11, 11, 415
495, 1, 1, 0
495, 2, 2, 0
495, 3, 3, 0
495, 11, 11, 430
496, 1, 1, 0
496, 2, 2, 0
496, 3, 3, 0
496, 11, 11, 450
497, 1, 1, 0
497, 2, 2, 0
497, 3, 3, 0
497, 11, 11, 310
498, 1, 1, 0
498, 2, 2, 0
498, 3, 3, 0
498, 11, 11, 330
499, 1, 1, 0
499, 2, 2, 0
499, 3, 3, 0
499, 11, 11, 350
500, 1, 1, 0
500, 2, 2, 0
500, 3, 3, 0
500, 11, 11, 370
501, 1, 1, 0
501, 2, 2, 0
501, 3, 3, 0
501, 11, 11, 390
502, 1, 1, 0
502, 2, 2, 0
502, 3, 3, 0
502, 11, 11, 410
503, 1, 1, 0
503, 2, 2, 0
503, 3, 3, 0
503, 11, 11, 435
504, 1, 1, 0
504, 2, 2, 0
504, 3, 3, 0
504, 11, 11, 450
505, 1, 1, 0
505, 2, 2, 0
505, 3, 3, 0
505, 11, 11, 310
506, 1, 1, 0
506, 2, 2, 0
506, 3, 3, 0
506, 11, 11, 330
507, 1, 1, 0
507, 2, 2, 0
507, 3, 3, 0
507, 11, 11, 350
508, 1, 1, 0
508, 2, 2, 0
508, 3, 3, 0
508, 11, 11, 370
509, 1, 1, 0
509, 2, 2, 0
509, 3, 3, 0
509, 11, 11, 390
510, 1, 1, 0
510, 2, 2, 0
510, 3, 3, 0
510, 11, 11, 410
511, 1, 1, 0
511, 2, 2, 0
511, 3, 3, 0
511, 11, 11, 430
512, 1, 1, 0
512, 2, 2, 0
512, 3, 3, 0
512, 11, 11, 455
513, 1, 1, 0
513, 2, 2, 0
513, 3, 3, 0
513, 11, 11, 315
514, 1, 1, 0
514, 2, 2, 0
514, 3, 3, 0
514, 11, 11, 330
515, 1, 1, 0
515, 2, 2, 0
515, 3, 3, 0
515, 11, 11, 350
516, 1, 1, 0
516, 2, 2, 0
516, 3, 3, 0
516, 11, 11, 370
517, 1, 1, 0
517, 2, 2, 0
517, 3, 3, 0
517, 11, 11, 390
518, 1, 1, 0
518, 2, 2, 0
518, 3, 3, 0
518, 11, 11, 410
519, 1, 1, 0
519, 2, 2, 0
519, 3, 3, 0
519, 11, 11, 430
520, 1, 1, 0
520, 2, 2, 0
520, 3, 3, 0
520, 11, 11, 450
521, 1, 1, 0
521, 2, 2, 0
521, 3, 3, 0
521, 11, 11, 310
522, 1, 1, 0
522, 2, 2, 0
522, 3, 3, 0
522, 11, 11, 335
523, 1, 1, 0
523, 2, 2, 0
523, 3, 3, 0
523, 11, 11, 350
524, 1, 1, 0
524, 2, 2, 0
524, 3, 3, 0
524, 11, 11, 370
525, 1, 1, 0
525, 2, 2, 0
525, 3, 3, 0
525, 11, 11, 390
526, 1, 1, 0
526, 2, 2, 0
526, 3, 3, 0
526, 11, 11, 410
527, 1, 1, 0
527, 2, 2, 0
527, 3, 3, 0
527, 11, 11, 430
528, 1, 1, 0
528, 2, 2, 0
528, 3, 3, 0
528, 11, 11, 450
529, 1, 1, 0
529, 2, 2, 0
529, 3, 3, 0
529, 11, 11, 310
530, 1, 1, 0
530, 2, 2, 0
530, 3, 3, 0
530, 11, 11, 330
531, 1, 1, 0
531, 2, 2, 0
531, 3, 3, 0
531, 11, 11, 355
532, 1, 1, 0
532, 2, 2, 0
532, 3, 3, 0
532, 11, 11, 370
533, 1, 1, 0
533, 2, 2, 0
533, 3, 3, 0
533, 11, 11, 390
534, 1, 1, 0
534, 2, 2, 0
534, 3, 3, 0
534, 11, 11, 410
535, 1, 1, 0
535, 2, 2, 0
535, 3, 3, 0
535, 11, 11, 430
536, 1, 1, 0
536, 2, 2, 0
536, 3, 3, 0
536, 11, 11, 450
537, 1, 1, 0
537, 2, 2, 0
537, 3, 3, 0
537, 11, 11, 310
538, 1, 1, 0
538, 2, 2, 0
538, 3, 3, 0
538, 11, 11, 330
539, 1, 1, 0
539, 2, 2, 0
539, 3, 3, 0
539, 11, 11, 350
540, 1, 1, 0
540, 2, 2, 0
540, 3, 3, 0
540, 11, 11, 375
541, 1, 1, 0
541, 2, 2, 0
541, 3, 3, 0
541, 11, 11, 390
542, 1, 1, 0
542, 2, 2, 0
542, 3, 3, 0
542, 11, 11, 410
543, 1, 1, 0
543, 2, 2, 0
543, 3, 3, 0
543, 11, 11, 430
544, 1, 1, 0
544, 2, 2, 0
544, 3, 3, 0
544, 11, 11, 450
545, 1, 1, 0
545, 2, 2, 0
545, 3, 3, 0
545, 11, 11, 310
546, 1, 1, 0
546, 2, 2, 0
546, 3, 3, 0
546, 11, 11, 330
547, 1, 1, 0
547, 2, 2, 0
547, 3, 3, 0
547, 11, 11, 350
548, 1, 1, 0
548, 2, 2, 0
548, 3, 3, 0
548, 11, 11, 370
549, 1, 1, 0
549, 2, 2, 0
549, 3, 3, 0
549, 11, 11, 395
550, 1, 1, 0
550, 2, 2, 0
550, 3, 3, 0
550, 11, 11, 410
551, 1, 1, 0
551, 2, 2, 0
551, 3, 3, 0
551, 11, 11, 430
552, 1, 1, 0
552, 2, 2, 0
552, 3, 3, 0
552, 11, 11, 450
553, 1, 1, 0
553, 2, 2, 0
553, 3, 3, 0
553, 11, 11, 310
554, 1, 1, 0
554, 2, 2, 0
554, 3, 3, 0
554, 11, 11, 330
555, 1, 1, 0
555, 2, 2, 0
555, 3, 3, 0
555, 11, 11, 350
556, 1, 1, 0
556, 2, 2, 0
556, 3, 3, 0
556, 11, 11, 370
557, 1, 1, 0
557, 2, 2, 0
557, 3, 3, 0
557, 11, 11, 390
558, 1, 1, 0
558, 2, 2, 0
558, 3, 3, 0
558, 11, 11, 415
559, 1, 1, 0
559, 2, 2, 0
559, 3, 3, 0
559, 11, 11, 430
560, 1, 1, 0
560, 2, 2, 0
560, 3, 3, 0
560, 11, 11, 450
561, 1, 1, 0
561, 2, 2, 0
561, 3, 3, 0
561, 11, 11, 310
562, 1, 1, 0
562, 2, 2, 0
562, 3, 3, 0
562, 11, 11, 330
563, 1, 1, 0
563, 2, 2, 0
563, 3, 3, 0
563, 11, 11, 350
564, 1, 1, 0
564, 2, 2, 0
564, 3, 3, 0
564, 11, 11, 370
565, 1, 1, 0
565, 2, 2, 0
565, 3, 3, 0
565, 11, 11, 390
566, 1, 1, 0
566, 2, 2, 0
566, 3, 3, 0
566, 11, 11, 410
567, 1, 1, 0
567, 2, 2, 0
567, 3, 3, 0
567, 11, 11, 435
568, 1, 1, 0
568, 2, 2, 0
568, 3, 3, 0
568, 11, 11, 450
569, 1, 1, 0
569, 2, 2, 0
569, 3, 3, 0
569, 11, 11, 310
570, 1, 1, 0
570, 2, 2, 0
570, 3, 3, 0
570, 11, 11, 330
571, 1, 1, 0
571, 2, 2, 0
571, 3, 3, 0
571, 11, 11, 350
572, 1, 1, 0
572, 2, 2, 0
572, 3, 3, 0
572, 11, 11, 370
573, 1, 1, 0
573, 2, 2, 0
573, 3, 3, 0
573, 11, 11, 390
574, 1, 1, 0
574, 2, 2, 0
574, 3, 3, 0
574, 11, 11, 410
575, 1, 1, 0
575, 2, 2, 0
575, 3, 3, 0
575, 11, 11, 430
576, 1, 1, 0
576, 2, 2, 0
576, 3, 3, 0
576, 11, 11, 455
577, 1, 1, 0
577, 2, 2, 0
577, 3, 3, 0
577, 11, 11, 305
578, 1, 1, 0
578, 2, 2, 0
578, 3, 3, 0
578, 11, 11, 300
579, 1, 1, 0
579, 2, 2, 0
579, 3, 3, 0
579, 11, 11, 300
580, 1, 1, 0
580, 2, 2, 0
580, 3, 3, 0
580, 11, 11, 300
581, 1, 1, 0
581, 2, 2, 0
581, 3, 3, 0
581, 11, 11, 300
582, 1, 1, 0
582, 2, 2, 0
582, 3, 3, 0
582, 11, 11, 300
583, 1, 1, 0
583, 2, 2, 0
583, 3, 3, 0
583, 11, 11, 300
584, 1, 1, 0
584, 2, 2, 0
584, 3, 3, 0
584, 11, 11, 300
585, 1, 1, 0
585, 2, 2, 0
585, 3, 3, 0
585, 11, 11, 300
586, 1, 1, 0
586, 2, 2, 0
586, 3, 3, 0
586, 11, 11, 305
587, 1, 1, 0
587, 2, 2, 0
587, 3, 3, 0
587, 11, 11, 300
588, 1, 1, 0
588, 2, 2, 0
588, 3, 3, 0
588, 11, 11, 300
589, 1, 1, 0
589, 2, 2, 0
589, 3, 3, 0
589, 11, 11, 300
590, 1, 1, 0
590, 2, 2, 0
590, 3, 3, 0
590, 11, 11, 300
591, 1, 1, 0
591, 2, 2, 0
591, 3, 3, 0
591, 11, 11, 300
592, 1, 1, 0
592, 2, 2, 0
592, 3, 3, 0
592, 11, 11, 300
593, 1, 1, 0
593, 2, 2, 0
593, 3, 3, 0
593, 11, 11, 300
594, 1, 1, 0
594, 2, 2, 0
594, 3, 3, 0
594, 11, 11, 300
595, 1, 1, 0
595, 2, 2, 0
595, 3, 3, 0
595, 11, 11, 305
596, 1, 1, 0
596, 2, 2, 0
596, 3, 3, 0
596, 11, 11, 300
597, 1, 1, 0
597, 2, 2, 0
597, 3, 3, 0
597, 11, 11, 300
598, 1, 1, 0
598, 2, 2, 0
598, 3, 3, 0
598, 11, 11, 300
599, 1, 1, 0
599, 2, 2, 0
599, 3, 3, 0
599, 11, 11, 300
600, 1, 1, 0
600, 2, 2, 0
600, 3, 3, 0
600, 11, 11, 300
601, 1, 1, 0
601, 2, 2, 0
601, 3, 3, 0
601, 11, 11, 300
602, 1, 1, 0
602, 2, 2, 0
602, 3, 3, 0
602, 11, 11, 300
603, 1, 1, 0
603, 2, 2, 0
603, 3, 3, 0
603, 11, 11, 300
604, 1, 1, 0
604, 2, 2, 0
604, 3, 3, 0
604, 11, 11, 305
605, 1, 1, 0
605, 2, 2, 0
605, 3, 3, 0
605, 11, 11, 300
606, 1, 1, 0
606, 2, 2, 0
606, 3, 3, 0
606, 11, 11, 300
607, 1, 1, 0
607, 2, 2, 0
607, 3, 3, 0
607, 11, 11, 300
608, 1, 1, 0
608, 2, 2, 0
608, 3, 3, 0
608, 11, 11, 300
609, 1, 1, 0
609, 2, 2, 0
609, 3, 3, 0
609, 11, 11, 300
610, 1, 1, 0
610, 2, 2, 0
610, 3, 3, 0
610, 11, 11, 300
611, 1, 1, 0
611, 2, 2, 0
611, 3, 3, 0
611, 11, 11, 300
612, 1, 1, 0
612, 2, 2, 0
612, 3, 3, 0
612, 11, 11, 300
613, 1, 1, 0
613, 2, 2, 0
613, 3, 3, 0
613, 11, 11, 305
614, 1, 1, 0
614, 2, 2, 0
614, 3, 3, 0
614, 11, 11, 300
615, 1, 1, 0
615, 2, 2, 0
615, 3, 3, 0
615, 11, 11, 300
616, 1, 1, 0
616, 2, 2, 0
616, 3, 3, 0
616, 11, 11, 300
617, 1, 1, 0
617, 2, 2, 0
617, 3, 3, 0
617, 11, 11, 300
618, 1, 1, 0
618, 2, 2, 0
618, 3, 3, 0
618, 11, 11, 300
619, 1, 1, 0
619, 2, 2, 0
619, 3, 3, 0
619, 11, 11, 300
620, 1, 1, 0
620, 2, 2, 0
620, 3, 3, 0
620, 11, 11, 300
621, 1, 1, 0
621, 2, 2, 0
621, 3, 3, 0
621, 11, 11, 300
622, 1, 1, 0
622, 2, 2, 0
622, 3, 3, 0
622, 11, 11, 305
623, 1, 1, 0
623, 2, 2, 0
623, 3, 3, 0
623, 11, 11, 300
624, 1, 1, 0
624, 2, 2, 0
624, 3, 3, 0
624, 11, 11, 300
625, 1, 1, 0
625, 2, 2, 0
625, 3, 3, 0
625, 11, 11, 300
626, 1, 1, 0
626, 2, 2, 0
626, 3, 3, 0
626, 11, 11, 300
627, 1, 1, 0
627, 2, 2, 0
627, 3, 3, 0
627, 11, 11, 300
628, 1, 1, 0
628, 2, 2, 0
628, 3, 3, 0
628, 11, 11, 300
629, 1, 1, 0
629, 2, 2, 0
629, 3, 3, 0
629, 11, 11, 300
630, 1, 1, 0
630, 2, 2, 0
630, 3, 3, 0
630, 11, 11, 300
631, 1, 1, 0
631, 2, 2, 0
631, 3, 3, 0
631, 11, 11, 305
632, 1, 1, 0
632, 2, 2, 0
632, 3, 3, 0
632, 11, 11, 300
633, 1, 1, 0
633, 2, 2, 0
633, 3, 3, 0
633, 11, 11, 300
634, 1, 1, 0
634, 2, 2, 0
634, 3, 3, 0
634, 11, 11, 300
635, 1, 1, 0
635, 2, 2, 0
635, 3, 3, 0
635, 11, 11, 300
636, 1, 1, 0
636, 2, 2, 0
636, 3, 3, 0
636, 11, 11, 300
637, 1, 1, 0
637, 2, 2, 0
637, 3, 3, 0
637, 11, 11, 300
638, 1, 1, 0
638, 2, 2, 0
638, 3, 3, 0
638, 11, 11, 300
639, 1, 1, 0
639, 2, 2, 0
639, 3, 3, 0
639, 11, 11, 300
640, 1, 1, 0
640, 2, 2, 0
640, 3, 3, 0
640, 11, 11, 305
641, 1, 1, 0
641, 2, 2, 0
641, 3, 3, 0
641, 11, 11, 315
642, 1, 1, 0
642, 2, 2, 0
642, 3, 3, 0
642, 11, 11, 330
643, 1, 1, 0
643, 2, 2, 0
643, 3, 3, 0
643, 11, 11, 350
644, 1, 1, 0
644, 2, 2, 0
644, 3, 3, 0
644, 11, 11, 370
645, 1, 1, 0
645, 2, 2, 0
645, 3, 3, 0
645, 11, 11, 390
646, 1, 1, 0
646, 2, 2, 0
646, 3, 3, 0
646, 11, 11, 410
647, 1, 1, 0
647, 2, 2, 0
647, 3, 3, 0
647, 11, 11, 430
648, 1, 1, 0
648, 2, 2, 0
648, 3, 3, 0
648, 11, 11, 450
649, 1, 1, 0
649, 2, 2, 0
649, 3, 3, 0
649, 11, 11, 310
650, 1, 1, 0
650, 2, 2, 0
650, 3, 3, 0
650, 11, 11, 335
651, 1, 1, 0
651, 2, 2, 0
651, 3, 3, 0
651, 11, 11, 350
652, 1, 1, 0
652, 2, 2, 0
652, 3, 3, 0
652, 11, 11, 370
653, 1, 1, 0
653, 2, 2, 0
653, 3, 3, 0
653, 11, 11, 390
654, 1, 1, 0
654, 2, 2, 0
654, 3, 3, 0
654, 11, 11, 410
655, 1, 1, 0
655, 2, 2, 0
655, 3, 3, 0
655, 11, 11, 430
656, 1, 1, 0
656, 2, 2, 0
656, 3, 3, 0
656, 11, 11, 450
657, 1, 1, 0
657, 2, 2, 0
657, 3, 3, 0
657, 11, 11, 310
658, 1, 1, 0
658, 2, 2, 0
658, 3, 3, 0
658, 11, 11, 330
659, 1, 1, 0
659, 2, 2, 0
659, 3, 3, 0
659, 11, 11, 355
660, 1, 1, 0
660, 2, 2, 0
660, 3, 3, 0
660, 11, 11, 370
661, 1, 1, 0
661, 2, 2, 0
661, 3, 3, 0
661, 11, 11, 390
662, 1, 1, 0
662, 2, 2, 0
662, 3, 3, 0
662, 11, 11, 410
663, 1, 1, 0
663, 2, 2, 0
663, 3, 3, 0
663, 11, 11, 430
664, 1, 1, 0
664, 2, 2, 0
664, 3, 3, 0
664, 11, 11, 450
665, 1, 1, 0
665, 2, 2, 0
665, 3, 3, 0
665, 11, 11, 310
666, 1, 1, 0
666, 2, 2, 0
666, 3, 3, 0
666, 11, 11, 330
667, 1, 1, 0
667, 2, 2, 0
667, 3, 3, 0
667, 11, 11, 350
668, 1, 1, 0
668, 2, 2, 0
668, 3, 3, 0
668, 11, 11, 375
669, 1, 1, 0
669, 2, 2, 0
669, 3, 3, 0
669, 11, 11, 390
670, 1, 1, 0
670, 2, 2, 0
670, 3, 3, 0
670, 11, 11, 410
671, 1, 1, 0
671, 2, 2, 0
671, 3, 3, 0
671, 11, 11, 430
672, 1, 1, 0
672, 2, 2, 0
672, 3, 3, 0
672, 11, 11, 450
673, 1, 1, 0
673, 2, 2, 0
673, 3, 3, 0
673, 11, 11, 310
674, 1, 1, 0
674, 2, 2, 0
674, 3, 3, 0
674, 11, 11, 330
675, 1, 1, 0
675, 2, 2, 0
675, 3, 3, 0
675, 11, 11, 350
676, 1, 1, 0
676, 2, 2, 0
676, 3, 3, 0
676, 11, 11, 370
677, 1, 1, 0
677, 2, 2, 0
677, 3, 3, 0
677, 11, 11, 395
678, 1, 1, 0
678, 2, 2, 0
678, 3, 3, 0
678, 11, 11, 410
679, 1, 1, 0
679, 2, 2, 0
679, 3, 3, 0
679, 11, 11, 430
680, 1, 1, 0
680, 2, 2, 0
680, 3, 3, 0
680, 11, 11, 450
681, 1, 1, 0
681, 2, 2, 0
681, 3, 3, 0
681, 11, 11, 310
682, 1, 1, 0
682, 2, 2, 0
682, 3, 3, 0
682, 11, 11, 330
683, 1, 1, 0
683, 2, 2, 0
683, 3, 3, 0
683, 11, 11, 350
684, 1, 1, 0
684, 2, 2, 0
684, 3, 3, 0
684, 11, 11, 370
685, 1, 1, 0
685, 2, 2, 0
685, 3, 3, 0
685, 11, 11, 390
686, 1, 1, 0
686, 2, 2, 0
686, 3, 3, 0
686, 11, 11, 415
687, 1, 1, 0
687, 2, 2, 0
687, 3, 3, 0
687, 11, 11, 430
688, 1, 1, 0
688, 2, 2, 0
688, 3, 3, 0
688, 11, 11, 450
689, 1, 1, 0
689, 2, 2, 0
689, 3, 3, 0
689, 11, 11, 310
690, 1, 1, 0
690, 2, 2, 0
690, 3, 3, 0
690, 11, 11, 330
691, 1, 1, 0
691, 2, 2, 0
691, 3, 3, 0
691, 11, 11, 350
692, 1, 1, 0
692, 2, 2, 0
692, 3, 3, 0
692, 11, 11, 370
693, 1, 1, 0
693, 2, 2, 0
693, 3, 3, 0
693, 11, 11, 390
694, 1, 1, 0
694, 2, 2, 0
694, 3, 3, 0
694, 11, 11, 410
695, 1, 1, 0
695, 2, 2, 0
695, 3, 3, 0
695, 11, 11, 435
696, 1, 1, 0
696, 2, 2, 0
696, 3, 3, 0
696, 11, 11, 450
697, 1, 1, 0
697, 2, 2, 0
697, 3, 3, 0
697, 11, 11, 310
698, 1, 1, 0
698, 2, 2, 0
698, 3, 3, 0
698, 11, 11, 330
699, 1, 1, 0
699, 2, 2, 0
699, 3, 3, 0
699, 11, 11, 350
700, 1, 1, 0
700, 2, 2, 0
700, 3, 3, 0
700, 11, 11, 370
701, 1, 1, 0
701, 2, 2, 0
701, 3, 3, 0
701, 11, 11, 390
702, 1, 1, 0
702, 2, 2, 0
702, 3, 3, 0
702, 11, 11, 410
703, 1, 1, 0
703, 2, 2, 0
703, 3, 3, 0
703, 11, 11, 430
704, 1, 1, 0
704, 2, 2, 0
704, 3, 3, 0
704, 11, 11, 455
705, 1, 1, 0
705, 2, 2, 0
705, 3, 3, 0
705, 11, 11, 315
706, 1, 1, 0
706, 2, 2, 0
706, 3, 3, 0
706, 11, 11, 330
707, 1, 1, 0
707, 2, 2, 0
707, 3, 3, 0
707, 11, 11, 350
708, 1, 1, 0
708, 2, 2, 0
708, 3, 3, 0
708, 11, 11, 370
709, 1, 1, 0
709, 2, 2, 0
709, 3, 3, 0
709, 11, 11, 390
710, 1, 1, 0
710, 2, 2, 0
710, 3, 3, 0
710, 11, 11, 410
711, 1, 1, 0
711, 2, 2, 0
711, 3, 3, 0
711, 11, 11, 430
712, 1, 1, 0
712, 2, 2, 0
712, 3, 3, 0
712, 11, 11, 450
713, 1, 1, 0
713, 2, 2, 0
713, 3, 3, 0
713, 11, 11, 310
714, 1, 1, 0
714, 2, 2, 0
714, 3, 3, 0
714, 11, 11, 335
715, 1, 1, 0
715, 2, 2, 0
715, 3, 3, 0
715, 11, 11, 350
716, 1, 1, 0
716, 2, 2, 0
716, 3, 3, 0
716, 11, 11, 370
717, 1, 1, 0
717, 2, 2, 0
717, 3, 3, 0
717, 11, 11, 390
718, 1, 1, 0
718, 2, 2, 0
718, 3, 3, 0
718, 11, 11, 410
719, 1, 1, 0
719, 2, 2, 0
719, 3, 3, 0
719, 11, 11, 430
720, 1, 1, 0
720, 2, 2, 0
720, 3, 3, 0
720, 11, 11, 450
721, 1, 1, 0
721, 2, 2, 0
721, 3, 3, 0
721, 11, 11, 310
722, 1, 1, 0
722, 2, 2, 0
722, 3, 3, 0
722, 11, 11, 330
723, 1, 1, 0
723, 2, 2, 0
723, 3, 3, 0
723, 11, 11, 355
724, 1, 1, 0
724, 2, 2, 0
724, 3, 3, 0
724, 11, 11, 370
725, 1, 1, 0
725, 2, 2, 0
725, 3, 3, 0
725, 11, 11, 390
726, 1, 1, 0
726, 2, 2, 0
726, 3, 3, 0
726, 11, 11, 410
727, 1, 1, 0
727, 2, 2, 0
727, 3, 3, 0
727, 11, 11, 430
728, 1, 1, 0
728, 2, 2, 0
728, 3, 3, 0
728, 11, 11, 450
729, 1, 1, 0
729, 2, 2, 0
729, 3, 3, 0
729, 11, 11, 310
730, 1, 1, 0
730, 2, 2, 0
730, 3, 3, 0
730, 11, 11, 330
731, 1, 1, 0
731, 2, 2, 0
731, 3, 3, 0
731, 11, 11, 350
732, 1, 1, 0
732, 2, 2, 0
732, 3, 3, 0
732, 11, 11, 375
733, 1, 1, 0
733, 2, 2, 0
733, 3, 3, 0
733, 11, 11, 390
734, 1, 1, 0
734, 2, 2, 0
734, 3, 3, 0
734, 11, 11, 410
735, 1, 1, 0
735, 2, 2, 0
735, 3, 3, 0
735, 11, 11, 430
736, 1, 1, 0
736, 2, 2, 0
736, 3, 3, 0
736, 11, 11, 450
737, 1, 1, 0
737, 2, 2, 0
737, 3, 3, 0
737, 11, 11, 310
738, 1, 1, 0
738, 2, 2, 0
738, 3, 3, 0
738, 11, 11, 330
739, 1, 1, 0
739, 2, 2, 0
739, 3, 3, 0
739, 11, 11, 350
740, 1, 1, 0
740, 2, 2, 0
740, 3, 3, 0
740, 11, 11, 370
741, 1, 1, 0
741, 2, 2, 0
741, 3, 3, 0
741, 11, 11, 395
742, 1, 1, 0
742, 2, 2, 0
742, 3, 3, 0
742, 11, 11, 410
743, 1, 1, 0
743, 2, 2, 0
743, 3, 3, 0
743, 11, 11, 430
744, 1, 1, 0
744, 2, 2, 0
744, 3, 3, 0
744, 11, 11, 450
745, 1, 1, 0
745, 2, 2, 0
745, 3, 3, 0
745, 11, 11, 310
746, 1, 1, 0
746, 2, 2, 0
746, 3, 3, 0
746, 11, 11, 330
747, 1, 1, 0
747, 2, 2, 0
747, 3, 3, 0
747, 11, 11, 350
748, 1, 1, 0
748, 2, 2, 0
748, 3, 3, 0
748, 11, 11, 370
749, 1, 1, 0
749, 2, 2, 0
749, 3, 3, 0
749, 11, 11, 390
750, 1, 1, 0
750, 2, 2, 0
750, 3, 3, 0
750, 11, 11, 415
751, 1, 1, 0
751, 2, 2, 0
751, 3, 3, 0
751, 11, 11, 430
752, 1, 1, 0
752, 2, 2, 0
752, 3, 3, 0
752, 11, 11, 450
753, 1, 1, 0
753, 2, 2, 0
753, 3, 3, 0
753, 11, 11, 310
754, 1, 1, 0
754, 2, 2, 0
754, 3, 3, 0
754, 11, 11, 330
755, 1, 1, 0
755, 2, 2, 0
755, 3, 3, 0
755, 11, 11, 350
756, 1, 1, 0
756, 2, 2, 0
756, 3, 3, 0
756, 11, 11, 370
757, 1, 1, 0
757, 2, 2, 0
757, 3, 3, 0
757, 11, 11, 390
758, 1, 1, 0
758, 2, 2, 0
758, 3, 3, 0
758, 11, 11, 410
759, 1, 1, 0
759, 2, 2, 0
759, 3, 3, 0
759, 11, 11, 435
760, 1, 1, 0
760, 2, 2, 0
760, 3, 3, 0
760, 11, 11, 450
761, 1, 1, 0
761, 2, 2, 0
761, 3, 3, 0
761, 11, 11, 310
762, 1, 1, 0
762, 2, 2, 0
762, 3, 3, 0
762, 11, 11, 330
763, 1, 1, 0
763, 2, 2, 0
763, 3, 3, 0
763, 11, 11, 350
764, 1, 1, 0
764, 2, 2, 0
764, 3, 3, 0
764, 11, 11, 370
765, 1, 1, 0
765, 2, 2, 0
765, 3, 3, 0
765, 11, 11, 390
766, 1, 1, 0
766, 2, 2, 0
766, 3, 3, 0
766, 11, 11, 410
767, 1, 1, 0
767, 2, 2, 0
767, 3, 3, 0
767, 11, 11, 430
768, 1, 1, 0
768, 2, 2, 0
768, 3, 3, 0
768, 11, 11, 455
769, 1, 1, 0
769, 2, 2, 0
769, 11, 11, 305
770, 1, 1, 0
770, 2, 2, 0
770, 11, 11, 300
771, 1, 1, 0
771, 2, 2, 0
771, 11, 11, 300
772, 1, 1, 0
772, 2, 2, 0
772, 11, 11, 300
773, 1, 1, 0
773, 2, 2, 0
773, 11, 11, 300
774, 1, 1, 0
774, 2, 2, 0
774, 11, 11, 305
775, 1, 1, 0
775, 2, 2, 0
775, 11, 11, 300
776, 1, 1, 0
776, 2, 2, 0
776, 11, 11, 300
777, 1, 1, 0
777, 2, 2, 0
777, 11, 11, 300
778, 1, 1, 0
778, 2, 2, 0
778, 11, 11, 300
779, 1, 1, 0
779, 2, 2, 0
779, 11, 11, 305
780, 1, 1, 0
780, 2, 2, 0
780, 11, 11, 300
781, 1, 1, 0
781, 2, 2, 0
781, 11, 11, 300
782, 1, 1, 0
782, 2, 2, 0
782, 11, 11, 300
783, 1, 1, 0
783, 2, 2, 0
783, 11, 11, 300
784, 1, 1, 0
784, 2, 2, 0
784, 11, 11, 305
785, 1, 1, 0
785, 2, 2, 0
785, 11, 11, 315
786, 1, 1, 0
786, 2, 2, 0
786, 11, 11, 330
787, 1, 1, 0
787, 2, 2, 0
787, 11, 11, 390
788, 1, 1, 0
788, 2, 2, 0
788, 11, 11, 450
789, 1, 1, 0
789, 2, 2, 0
789, 11, 11, 310
790, 1, 1, 0
790, 2, 2, 0
790, 11, 11, 335
791, 1, 1, 0
791, 2, 2, 0
791, 11, 11, 390
792, 1, 1, 0
792, 2, 2, 0
792, 11, 11, 450
793, 1, 1, 0
793, 2, 2, 0
793, 11, 11, 310
794, 1, 1, 0
794, 2, 2, 0
794, 11, 11, 330
795, 1, 1, 0
795, 2, 2, 0
795, 11, 11, 395
796, 1, 1, 0
796, 2, 2, 0
796, 11, 11, 450
797, 1, 1, 0
797, 2, 2, 0
797, 11, 11, 310
798, 1, 1, 0
798, 2, 2, 0
798, 11, 11, 330
799, 1, 1, 0
799, 2, 2, 0
799, 11, 11, 390
800, 1, 1, 0
800, 2, 2, 0
800, 11, 11, 455
801, 1, 1, 0
801, 2, 2, 0
801, 11, 11, 315
802, 1, 1, 0
802, 2, 2, 0
802, 11, 11, 330
803, 1, 1, 0
803, 2, 2, 0
803, 11, 11, 390
804, 1, 1, 0
804, 2, 2, 0
804, 11, 11, 450
805, 1, 1, 0
805, 2, 2, 0
805, 11, 11, 310
806, 1, 1, 0
806, 2, 2, 0
806, 11, 11, 335
807, 1, 1, 0
807, 2, 2, 0
807, 11, 11, 390
808, 1, 1, 0
808, 2, 2, 0
808, 11, 11, 450
809, 1, 1, 0
809, 2, 2, 0
809, 11, 11, 310
810, 1, 1, 0
810, 2, 2, 0
810, 11, 11, 330
811, 1, 1, 0
811, 2, 2, 0
811, 11, 11, 395
812, 1, 1, 0
812, 2, 2, 0
812, 11, 11, 450
813, 1, 1, 0
813, 2, 2, 0
813, 11, 11, 310
814, 1, 1, 0
814, 2, 2, 0
814, 11, 11, 330
815, 1, 1, 0
815, 2, 2, 0
815, 11, 11, 390
816, 1, 1, 0
816, 2, 2, 0
816, 11, 11, 455
817, 1, 1, 0
817, 2, 2, 0
817, 11, 11, 305
818, 1, 1, 0
818, 2, 2, 0
818, 11, 11, 300
819, 1, 1, 0
819, 2, 2, 0
819, 11, 11, 300
820, 1, 1, 0
820, 2, 2, 0
820, 11, 11, 300
821, 1, 1, 0
821, 2, 2, 0
821, 11, 11, 300
822, 1, 1, 0
822, 2, 2, 0
822, 11, 11, 305
823, 1, 1, 0
823, 2, 2, 0
823, 11, 11, 300
824, 1, 1, 0
824, 2, 2, 0
824, 11, 11, 300
825, 1, 1, 0
825, 2, 2, 0
825, 11, 11, 300
826, 1, 1, 0
826, 2, 2, 0
826, 11, 11, 300
827, 1, 1, 0
827, 2, 2, 0
827, 11, 11, 305
828, 1, 1, 0
828, 2, 2, 0
828, 11, 11, 300
829, 1, 1, 0
829, 2, 2, 0
829, 11, 11, 300
830, 1, 1, 0
830, 2, 2, 0
830, 11, 11, 300
831, 1, 1, 0
831, 2, 2, 0
831, 11, 11, 300
832, 1, 1, 0
832, 2, 2, 0
832, 11, 11, 305
833, 1, 1, 0
833, 2, 2, 0
833, 11, 11, 315
834, 1, 1, 0
834, 2, 2, 0
834, 11, 11, 330
835, 1, 1, 0
835, 2, 2, 0
835, 11, 11, 390
836, 1, 1, 0
836, 2, 2, 0
836, 11, 11, 450
837, 1, 1, 0
837, 2, 2, 0
837, 11, 11, 310
838, 1, 1, 0
838, 2, 2, 0
838, 11, 11, 335
839, 1, 1, 0
839, 2, 2, 0
839, 11, 11, 390
840, 1, 1, 0
840, 2, 2, 0
840, 11, 11, 450
841, 1, 1, 0
841, 2, 2, 0
841, 11, 11, 310
842, 1, 1, 0
842, 2, 2, 0
842, 11, 11, 330
843, 1, 1, 0
843, 2, 2, 0
843, 11, 11, 395
844, 1, 1, 0
844, 2, 2, 0
844, 11, 11, 450
845, 1, 1, 0
845, 2, 2, 0
845, 11, 11, 310
846, 1, 1, 0
846, 2, 2, 0
846, 11, 11, 330
847, 1, 1, 0
847, 2, 2, 0
847, 11, 11, 390
848, 1, 1, 0
848, 2, 2, 0
848, 11, 11, 455
849, 1, 1, 0
849, 2, 2, 0
849, 11, 11, 315
850, 1, 1, 0
850, 2, 2, 0
850, 11, 11, 330
851, 1, 1, 0
851, 2, 2, 0
851, 11, 11, 390
852, 1, 1, 0
852, 2, 2, 0
852, 11, 11, 450
853, 1, 1, 0
853, 2, 2, 0
853, 11, 11, 310
854, 1, 1, 0
854, 2, 2, 0
854, 11, 11, 335
855, 1, 1, 0
855, 2, 2, 0
855, 11, 11, 390
856, 1, 1, 0
856, 2, 2, 0
856, 11, 11, 450
857, 1, 1, 0
857, 2, 2, 0
857, 11, 11, 310
858, 1, 1, 0
858, 2, 2, 0
858, 11, 11, 330
859, 1, 1, 0
859, 2, 2, 0
859, 11, 11, 395
860, 1, 1, 0
860, 2, 2, 0
860, 11, 11, 450
861, 1, 1, 0
861, 2, 2, 0
861, 11, 11, 310
862, 1, 1, 0
862, 2, 2, 0
862, 11, 11, 330
863, 1, 1, 0
863, 2, 2, 0
863, 11, 11, 390
864, 1, 1, 0
864, 2, 2, 0
864, 11, 11, 455
865, 1, 1, 0
865, 2, 2, 0
865, 11, 11, 305
866, 1, 1, 0
866, 2, 2, 0
866, 11, 11, 300
867, 1, 1, 0
867, 2, 2, 0
867, 11, 11, 300
868, 1, 1, 0
868, 2, 2, 0
868, 11, 11, 300
869, 1, 1, 0
869, 2, 2, 0
869, 11, 11, 300
870, 1, 1, 0
870, 2, 2, 0
870, 11, 11, 305
871, 1, 1, 0
871, 2, 2, 0
871, 11, 11, 300
872, 1, 1, 0
872, 2, 2, 0
872, 11, 11, 300
873, 1, 1, 0
873, 2, 2, 0
873, 11, 11, 300
874, 1, 1, 0
874, 2, 2, 0
874, 11, 11, 300
875, 1, 1, 0
875, 2, 2, 0
875, 11, 11, 305
876, 1, 1, 0
876, 2, 2, 0
876, 11, 11, 300
877, 1, 1, 0
877, 2, 2, 0
877, 11, 11, 300
878, 1, 1, 0
878, 2, 2, 0
878, 11, 11, 300
879, 1, 1, 0
879, 2, 2, 0
879, 11, 11, 300
880, 1, 1, 0
880, 2, 2, 0
880, 11, 11, 305
881, 1, 1, 0
881, 2, 2, 0
881, 11, 11, 315
882, 1, 1, 0
882, 2, 2, 0
882, 11, 11, 330
883, 1, 1, 0
883, 2, 2, 0
883, 11, 11, 390
884, 1, 1, 0
884, 2, 2, 0
884, 11, 11, 450
885, 1, 1, 0
885, 2, 2, 0
885, 11, 11, 310
886, 1, 1, 0
886, 2, 2, 0
886, 11, 11, 335
887, 1, 1, 0
887, 2, 2, 0
887, 11, 11, 390
888, 1, 1, 0
888, 2, 2, 0
888, 11, 11, 450
889, 1, 1, 0
889, 2, 2, 0
889, 11, 11, 310
890, 1, 1, 0
890, 2, 2, 0
890, 11, 11, 330
891, 1, 1, 0
891, 2, 2, 0
891, 11, 11, 395
892, 1, 1, 0
892, 2, 2, 0
892, 11, 11, 450
893, 1, 1, 0
893, 2, 2, 0
893, 11, 11, 310
894, 1, 1, 0
894, 2, 2, 0
894, 11, 11, 330
895, 1, 1, 0
895, 2, 2, 0
895, 11, 11, 390
896, 1, 1, 0
896, 2, 2, 0
896, 11, 11, 455
897, 1, 1, 0
897, 2, 2, 0
897, 11, 11, 315
898, 1, 1, 0
898, 2, 2, 0
898, 11, 11, 330
899, 1, 1, 0
899, 2, 2, 0
899, 11, 11, 390
900, 1, 1, 0
900, 2, 2, 0
900, 11, 11, 450
901, 1, 1, 0
901, 2, 2, 0
901, 11, 11, 310
902, 1, 1, 0
902, 2, 2, 0
902, 11, 11, 335
903, 1, 1, 0
903, 2, 2, 0
903, 11, 11, 390
904, 1, 1, 0
904, 2, 2, 0
904, 11, 11, 450
905, 1, 1, 0
905, 2, 2, 0
905, 11, 11, 310
906, 1, 1, 0
906, 2, 2, 0
906, 11, 11, 330
907, 1, 1, 0
907, 2, 2, 0
907, 11, 11, 395
908, 1, 1, 0
908, 2, 2, 0
908, 11, 11, 450
909, 1, 1, 0
909, 2, 2, 0
909, 11, 11, 310
910, 1, 1, 0
910, 2, 2, 0
910, 11, 11, 330
911, 1, 1, 0
911, 2, 2, 0
911, 11, 11, 390
912, 1, 1, 0
912, 2, 2, 0
912, 11, 11, 455
913, 1, 1, 0
913, 2, 2, 0
913, 11, 11, 305
914, 1, 1, 0
914, 2, 2, 0
914, 11, 11, 300
915, 1, 1, 0
915, 2, 2, 0
915, 11, 11, 300
916, 1, 1, 0
916, 2, 2, 0
916, 11, 11, 300
917, 1, 1, 0
917, 2, 2, 0
917, 11, 11, 300
918, 1, 1, 0
918, 2, 2, 0
918, 11, 11, 305
919, 1, 1, 0
919, 2, 2, 0
919, 11, 11, 300
920, 1, 1, 0
920, 2, 2, 0
920, 11, 11, 300
921, 1, 1, 0
921, 2, 2, 0
921, 11, 11, 300
922, 1, 1, 0
922, 2, 2, 0
922, 11, 11, 300
923, 1, 1, 0
923, 2, 2, 0
923, 11, 11, 305
924, 1, 1, 0
924, 2, 2, 0
924, 11, 11, 300
925, 1, 1, 0
925, 2, 2, 0
925, 11, 11, 300
926, 1, 1, 0
926, 2, 2, 0
926, 11, 11, 300
927, 1, 1, 0
927, 2, 2, 0
927, 11, 11, 300
928, 1, 1, 0
928, 2, 2, 0
928, 11, 11, 305
929, 1, 1, 0
929, 2, 2, 0
929, 11, 11, 315
930, 1, 1, 0
930, 2, 2, 0
930, 11, 11, 330
931, 1, 1, 0
931, 2, 2, 0
931, 11, 11, 390
932, 1, 1, 0
932, 2, 2, 0
932, 11, 11, 450
933, 1, 1, 0
933, 2, 2, 0
933, 11, 11, 310
934, 1, 1, 0
934, 2, 2, 0
934, 11, 11, 335
935, 1, 1, 0
935, 2, 2, 0
935, 11, 11, 390
936, 1, 1, 0
936, 2, 2, 0
936, 11, 11, 450
937, 1, 1, 0
937, 2, 2, 0
937, 11, 11, 310
938, 1, 1, 0
938, 2, 2, 0
938, 11, 11, 330
939, 1, 1, 0
939, 2, 2, 0
939, 11, 11, 395
940, 1, 1, 0
940, 2, 2, 0
940, 11, 11, 450
941, 1, 1, 0
941, 2, 2, 0
941, 11, 11, 310
942, 1, 1, 0
942, 2, 2, 0
942, 11, 11, 330
943, 1, 1, 0
943, 2, 2, 0
943, 11, 11, 390
944, 1, 1, 0
944, 2, 2, 0
944, 11, 11, 455
945, 1, 1, 0
945, 2, 2, 0
945, 11, 11, 315
946, 1, 1, 0
946, 2, 2, 0
946, 11, 11, 330
947, 1, 1, 0
947, 2, 2, 0
947, 11, 11, 390
948, 1, 1, 0
948, 2, 2, 0
948, 11, 11, 450
949, 1, 1, 0
949, 2, 2, 0
949, 11, 11, 310
950, 1, 1, 0
950, 2, 2, 0
950, 11, 11, 335
951, 1, 1, 0
951, 2, 2, 0
951, 11, 11, 390
952, 1, 1, 0
952, 2, 2, 0
952, 11, 11, 450
953, 1, 1, 0
953, 2, 2, 0
953, 11, 11, 310
954, 1, 1, 0
954, 2, 2, 0
954, 11, 11, 330
955, 1, 1, 0
955, 2, 2, 0
955, 11, 11, 395
956, 1, 1, 0
956, 2, 2, 0
956, 11, 11, 450
957, 1, 1, 0
957, 2, 2, 0
957, 11, 11, 310
958, 1, 1, 0
958, 2, 2, 0
958, 11, 11, 330
959, 1, 1, 0
959, 2, 2, 0
959, 11, 11, 390
960, 1, 1, 0
960, 2, 2, 0
960, 11, 11, 455
*Output, field, frequency=1
*Node Output
NT, RFL, U
*Element Output, position=INTEGRATION POINTS
IVOL, TEMP
*End Step
